 VARIABLES = X,Y,DU1,DU2,U1,U2,S11,S22,S33,S12
 ZONE, T="0.1000D+01" F=FEPOINT, I=    9 J=    4
   0.0000000000E+00   0.0000000000E+00   0.0000000000E+00   0.0000000000E+00   0.0000000000E+00   0.0000000000E+00   0.4495689853E-01   0.1308625982E-07   0.1013751402-314  -0.3738371205E-17
   0.2000100000E+01   0.0000000000E+00   0.1000000000E-03   0.0000000000E+00   0.0000000000E+00   0.0000000000E+00   0.4495689853E-01   0.1308625979E-07   0.1013751328-314  -0.1044240060E-17
   0.2000100000E+01   0.1999941083E+01   0.1000000000E-03  -0.5891713592E-04   0.0000000000E+00   0.0000000000E+00   0.4495689853E-01   0.1308625978E-07   0.1013751288-314   0.1111043033E-16
   0.0000000000E+00   0.1999941083E+01   0.0000000000E+00  -0.5891713592E-04   0.0000000000E+00   0.0000000000E+00   0.4495689853E-01   0.1308625980E-07   0.1013751352-314   0.7617560834E-17
   0.1000050000E+01   0.0000000000E+00   0.5000000000E-04   0.0000000000E+00   0.0000000000E+00   0.0000000000E+00   0.4495689853E-01   0.1308625980E-07   0.1013751436-314   0.1339270617E-17
   0.2000100000E+01   0.9999705414E+00   0.1000000000E-03  -0.2945856796E-04   0.0000000000E+00   0.0000000000E+00   0.4495689853E-01   0.1308625982E-07   0.1013751471-314  -0.1417020995E-17
   0.1000050000E+01   0.1999941083E+01   0.5000000000E-04  -0.5891713592E-04   0.0000000000E+00   0.0000000000E+00   0.4495689853E-01   0.1308625982E-07   0.1013751451-314   0.3814070872E-17
   0.0000000000E+00   0.9999705414E+00   0.0000000000E+00  -0.2945856796E-04   0.0000000000E+00   0.0000000000E+00   0.4495689853E-01   0.1308625981E-07   0.1013751441-314  -0.1417020995E-17
   0.1000050000E+01   0.9999705414E+00   0.5000000000E-04  -0.2945856796E-04   0.0000000000E+00   0.0000000000E+00   0.4495689853E-01   0.1308625981E-07   0.1013751441-314  -0.1417020995E-17
           1           5           9           8
           5           2           6           9
           9           6           3           7
           8           9           7           4
 VARIABLES = X,Y,DU1,DU2,U1,U2,S11,S22,S33,S12
 ZONE, T="0.2000D+01" F=FEPOINT, I=    9 J=    4
   0.0000000000E+00   0.0000000000E+00   0.0000000000E+00   0.0000000000E+00   0.0000000000E+00   0.0000000000E+00   0.8167891446E-01   0.2300141120E-07   0.1841811264-314  -0.6165374726E-17
   0.2000200000E+01   0.0000000000E+00   0.1000000000E-03   0.0000000000E+00   0.1000000000E-03   0.0000000000E+00   0.8167891446E-01   0.2300141112E-07   0.1841811299-314  -0.2057378374E-16
   0.2000200000E+01   0.1999875359E+01   0.1000000000E-03  -0.6572396378E-04   0.1000000000E-03  -0.5891713592E-04   0.8167891446E-01   0.2300141117E-07   0.1841811328-314  -0.4056078412E-17
   0.0000000000E+00   0.1999875359E+01   0.0000000000E+00  -0.6572396378E-04   0.0000000000E+00  -0.5891713592E-04   0.8167891446E-01   0.2300141119E-07   0.1841811333-314   0.5379731777E-17
   0.1000100000E+01   0.0000000000E+00   0.5000000000E-04   0.0000000000E+00   0.5000000000E-04   0.0000000000E+00   0.8167891446E-01   0.2300141117E-07   0.1841811279-314   0.3104181924E-17
   0.2000200000E+01   0.9999376795E+00   0.1000000000E-03  -0.3286198189E-04   0.1000000000E-03  -0.2945856796E-04   0.8167891446E-01   0.2300141117E-07   0.1841811264-314  -0.1671059201E-16
   0.1000100000E+01   0.1999875359E+01   0.5000000000E-04  -0.6572396378E-04   0.5000000000E-04  -0.5891713592E-04   0.8167891446E-01   0.2300141117E-07   0.1841811254-314  -0.3498832624E-17
   0.0000000000E+00   0.9999376795E+00   0.0000000000E+00  -0.3286198189E-04   0.0000000000E+00  -0.2945856796E-04   0.8167891446E-01   0.2300141117E-07   0.1841811274-314  -0.5705567765E-17
   0.1000100000E+01   0.9999376795E+00   0.5000000000E-04  -0.3286198189E-04   0.5000000000E-04  -0.2945856796E-04   0.8167891446E-01   0.2300141117E-07   0.1841811274-314  -0.5705567765E-17
           1           5           9           8
           5           2           6           9
           9           6           3           7
           8           9           7           4
 VARIABLES = X,Y,DU1,DU2,U1,U2,S11,S22,S33,S12
 ZONE, T="0.3000D+01" F=FEPOINT, I=    9 J=    4
   0.0000000000E+00   0.0000000000E+00   0.0000000000E+00   0.0000000000E+00   0.0000000000E+00   0.0000000000E+00   0.1134830335E+00   0.1204072161E-07   0.2558974930-314  -0.8466257750E-17
   0.2000300000E+01   0.0000000000E+00   0.1000000000E-03   0.0000000000E+00   0.2000000000E-03   0.0000000000E+00   0.1134830335E+00   0.1204072163E-07   0.2558974841-314  -0.1432007879E-16
   0.2000300000E+01   0.1999805420E+01   0.1000000000E-03  -0.6993884908E-04   0.2000000000E-03  -0.1246410997E-03   0.1134830335E+00   0.1204072175E-07   0.2558974915-314  -0.1072445343E-16
   0.0000000000E+00   0.1999805420E+01   0.0000000000E+00  -0.6993884908E-04   0.0000000000E+00  -0.1246410997E-03   0.1134830335E+00   0.1204072171E-07   0.2558974945-314  -0.2786925288E-16
   0.1000150000E+01   0.0000000000E+00   0.5000000000E-04   0.0000000000E+00   0.1000000000E-03   0.0000000000E+00   0.1134830335E+00   0.1204072166E-07   0.2558974910-314   0.2266888029E-17
   0.2000300000E+01   0.9999027100E+00   0.1000000000E-03  -0.3496942454E-04   0.2000000000E-03  -0.6232054985E-04   0.1134830335E+00   0.1204072168E-07   0.2558974900-314  -0.1434363136E-16
   0.1000150000E+01   0.1999805420E+01   0.5000000000E-04  -0.6993884908E-04   0.1000000000E-03  -0.1246410997E-03   0.1134830335E+00   0.1204072168E-07   0.2558974891-314  -0.1379139238E-16
   0.0000000000E+00   0.9999027100E+00   0.0000000000E+00  -0.3496942454E-04   0.0000000000E+00  -0.6232054985E-04   0.1134830335E+00   0.1204072167E-07   0.2558974900-314  -0.4307206103E-17
   0.1000150000E+01   0.9999027100E+00   0.5000000000E-04  -0.3496942454E-04   0.1000000000E-03  -0.6232054985E-04   0.1134830335E+00   0.1204072167E-07   0.2558974900-314  -0.4307206103E-17
           1           5           9           8
           5           2           6           9
           9           6           3           7
           8           9           7           4
 VARIABLES = X,Y,DU1,DU2,U1,U2,S11,S22,S33,S12
 ZONE, T="0.4000D+01" F=FEPOINT, I=    9 J=    4
   0.0000000000E+00   0.0000000000E+00   0.0000000000E+00   0.0000000000E+00   0.0000000000E+00   0.0000000000E+00   0.1419086938E+00   0.7469239944E-08   0.3199956411-314   0.5493418938E-17
   0.2000400000E+01   0.0000000000E+00   0.1000000000E-03   0.0000000000E+00   0.3000000000E-03   0.0000000000E+00   0.1419086938E+00   0.7469240363E-08   0.3199956346-314   0.3728224483E-17
   0.2000400000E+01   0.1999732518E+01   0.1000000000E-03  -0.7290254975E-04   0.3000000000E-03  -0.1945799488E-03   0.1419086938E+00   0.7469240702E-08   0.3199956361-314  -0.3790366494E-16
   0.0000000000E+00   0.1999732518E+01   0.0000000000E+00  -0.7290254975E-04   0.0000000000E+00  -0.1945799488E-03   0.1419086938E+00   0.7469240978E-08   0.3199956445-314  -0.2773466133E-16
   0.1000200000E+01   0.0000000000E+00   0.5000000000E-04   0.0000000000E+00   0.1500000000E-03   0.0000000000E+00   0.1419086938E+00   0.7469240767E-08   0.3199956435-314  -0.4421663307E-17
   0.2000400000E+01   0.9998662588E+00   0.1000000000E-03  -0.3645127487E-04   0.3000000000E-03  -0.9728997439E-04   0.1419086938E+00   0.7469240724E-08   0.3199956455-314  -0.8776056988E-17
   0.1000200000E+01   0.1999732518E+01   0.5000000000E-04  -0.7290254975E-04   0.1500000000E-03  -0.1945799488E-03   0.1419086938E+00   0.7469240767E-08   0.3199956435-314   0.1157961762E-17
   0.0000000000E+00   0.9998662588E+00   0.0000000000E+00  -0.3645127487E-04   0.0000000000E+00  -0.9728997439E-04   0.1419086938E+00   0.7469240115E-08   0.3199956430-314  -0.1249580703E-16
   0.1000200000E+01   0.9998662588E+00   0.5000000000E-04  -0.3645127487E-04   0.1500000000E-03  -0.9728997439E-04   0.1419086938E+00   0.7469240115E-08   0.3199956430-314  -0.1249580703E-16
           1           5           9           8
           5           2           6           9
           9           6           3           7
           8           9           7           4
 VARIABLES = X,Y,DU1,DU2,U1,U2,S11,S22,S33,S12
 ZONE, T="0.5000D+01" F=FEPOINT, I=    9 J=    4
   0.0000000000E+00   0.0000000000E+00   0.0000000000E+00   0.0000000000E+00   0.0000000000E+00   0.0000000000E+00   0.1678224521E+00   0.5038992783E-08   0.3784296210-314  -0.1070225377E-16
   0.2000500000E+01   0.0000000000E+00   0.1000000000E-03   0.0000000000E+00   0.4000000000E-03   0.0000000000E+00   0.1678224521E+00   0.5038993237E-08   0.3784296195-314  -0.4801749427E-16
   0.2000500000E+01   0.1999657375E+01   0.1000000000E-03  -0.7514293856E-04   0.4000000000E-03  -0.2674824985E-03   0.1678224521E+00   0.5038992842E-08   0.3784296145-314   0.1252879871E-16
   0.0000000000E+00   0.1999657375E+01   0.0000000000E+00  -0.7514293856E-04   0.0000000000E+00  -0.2674824985E-03   0.1678224521E+00   0.5038992389E-08   0.3784296190-314  -0.1047210048E-17
   0.1000250000E+01   0.0000000000E+00   0.5000000000E-04   0.0000000000E+00   0.2000000000E-03   0.0000000000E+00   0.1678224521E+00   0.5038992690E-08   0.3784296175-314   0.1391658978E-17
   0.2000500000E+01   0.9998286873E+00   0.1000000000E-03  -0.3757146928E-04   0.4000000000E-03  -0.1337412493E-03   0.1678224521E+00   0.5038993248E-08   0.3784296165-314  -0.2263513621E-17
   0.1000250000E+01   0.1999657375E+01   0.5000000000E-04  -0.7514293856E-04   0.2000000000E-03  -0.2674824985E-03   0.1678224521E+00   0.5038993282E-08   0.3784296175-314  -0.9062314636E-17
   0.0000000000E+00   0.9998286873E+00   0.0000000000E+00  -0.3757146928E-04   0.0000000000E+00  -0.1337412493E-03   0.1678224521E+00   0.5038992585E-08   0.3784296175-314  -0.1271748723E-16
   0.1000250000E+01   0.9998286873E+00   0.5000000000E-04  -0.3757146928E-04   0.2000000000E-03  -0.1337412493E-03   0.1678224521E+00   0.5038992585E-08   0.3784296175-314  -0.1271748723E-16
           1           5           9           8
           5           2           6           9
           9           6           3           7
           8           9           7           4
 VARIABLES = X,Y,DU1,DU2,U1,U2,S11,S22,S33,S12
 ZONE, T="0.6000D+01" F=FEPOINT, I=    9 J=    4
   0.0000000000E+00   0.0000000000E+00   0.0000000000E+00   0.0000000000E+00   0.0000000000E+00   0.0000000000E+00   0.1917702714E+00   0.3583982227E-08   0.4324305198-314   0.1954597104E-17
   0.2000600000E+01   0.0000000000E+00   0.1000000000E-03   0.0000000000E+00   0.5000000000E-03   0.0000000000E+00   0.1917702714E+00   0.3583982027E-08   0.4324305237-314   0.5315485552E-17
   0.2000600000E+01   0.1999580456E+01   0.1000000000E-03  -0.7691853004E-04   0.5000000000E-03  -0.3426254371E-03   0.1917702714E+00   0.3583981618E-08   0.4324305222-314   0.7439497257E-17
   0.0000000000E+00   0.1999580456E+01   0.0000000000E+00  -0.7691853004E-04   0.0000000000E+00  -0.3426254371E-03   0.1917702714E+00   0.3583982326E-08   0.4324305208-314  -0.6708519647E-16
   0.1000300000E+01   0.0000000000E+00   0.5000000000E-04   0.0000000000E+00   0.2500000000E-03   0.0000000000E+00   0.1917702714E+00   0.3583982166E-08   0.4324305183-314  -0.2135751604E-16
   0.2000600000E+01   0.9997902280E+00   0.1000000000E-03  -0.3845926502E-04   0.5000000000E-03  -0.1713127185E-03   0.1917702714E+00   0.3583982107E-08   0.4324305168-314   0.2204700600E-16
   0.1000300000E+01   0.1999580456E+01   0.5000000000E-04  -0.7691853004E-04   0.2500000000E-03  -0.3426254371E-03   0.1917702714E+00   0.3583982131E-08   0.4324305193-314  -0.8193755672E-17
   0.0000000000E+00   0.9997902280E+00   0.0000000000E+00  -0.3845926502E-04   0.0000000000E+00  -0.1713127185E-03   0.1917702714E+00   0.3583982143E-08   0.4324305183-314  -0.5925984776E-17
   0.1000300000E+01   0.9997902280E+00   0.5000000000E-04  -0.3845926502E-04   0.2500000000E-03  -0.1713127185E-03   0.1917702714E+00   0.3583982143E-08   0.4324305183-314  -0.5925984776E-17
           1           5           9           8
           5           2           6           9
           9           6           3           7
           8           9           7           4
 VARIABLES = X,Y,DU1,DU2,U1,U2,S11,S22,S33,S12
 ZONE, T="0.7000D+01" F=FEPOINT, I=    9 J=    4
   0.0000000000E+00   0.0000000000E+00   0.0000000000E+00   0.0000000000E+00   0.0000000000E+00   0.0000000000E+00   0.2141228400E+00   0.2647763258E-08   0.4828342195-314   0.9326397638E-17
   0.2000700000E+01   0.0000000000E+00   0.1000000000E-03   0.0000000000E+00   0.6000000000E-03   0.0000000000E+00   0.2141228400E+00   0.2647763341E-08   0.4828342210-314  -0.6954603700E-16
   0.2000700000E+01   0.1999502082E+01   0.1000000000E-03  -0.7837365428E-04   0.6000000000E-03  -0.4195439671E-03   0.2141228400E+00   0.2647763837E-08   0.4828342195-314  -0.5752135644E-16
   0.0000000000E+00   0.1999502082E+01   0.0000000000E+00  -0.7837365428E-04   0.0000000000E+00  -0.4195439671E-03   0.2141228400E+00   0.2647763060E-08   0.4828342141-314   0.6727685146E-16
   0.1000350000E+01   0.0000000000E+00   0.5000000000E-04   0.0000000000E+00   0.3000000000E-03   0.0000000000E+00   0.2141228400E+00   0.2647763113E-08   0.4828342205-314   0.1224518754E-16
   0.2000700000E+01   0.9997510412E+00   0.1000000000E-03  -0.3918682714E-04   0.6000000000E-03  -0.2097719836E-03   0.2141228400E+00   0.2647763037E-08   0.4828342225-314  -0.5082705215E-16
   0.1000350000E+01   0.1999502082E+01   0.5000000000E-04  -0.7837365428E-04   0.3000000000E-03  -0.4195439671E-03   0.2141228400E+00   0.2647763561E-08   0.4828342200-314   0.5602851185E-16
   0.0000000000E+00   0.9997510412E+00   0.0000000000E+00  -0.3918682714E-04   0.0000000000E+00  -0.2097719836E-03   0.2141228400E+00   0.2647762965E-08   0.4828342210-314  -0.5551812261E-16
   0.1000350000E+01   0.9997510412E+00   0.5000000000E-04  -0.3918682714E-04   0.3000000000E-03  -0.2097719836E-03   0.2141228400E+00   0.2647762965E-08   0.4828342210-314  -0.5551812261E-16
           1           5           9           8
           5           2           6           9
           9           6           3           7
           8           9           7           4
 VARIABLES = X,Y,DU1,DU2,U1,U2,S11,S22,S33,S12
 ZONE, T="0.8000D+01" F=FEPOINT, I=    9 J=    4
   0.0000000000E+00   0.0000000000E+00   0.0000000000E+00   0.0000000000E+00   0.0000000000E+00   0.0000000000E+00   0.2351456888E+00   0.2014330588E-08   0.5302394832-314   0.1464921709E-16
   0.2000800000E+01   0.0000000000E+00   0.1000000000E-03   0.0000000000E+00   0.7000000000E-03   0.0000000000E+00   0.2351456888E+00   0.2014331176E-08   0.5302394872-314  -0.3260793989E-16
   0.2000800000E+01   0.1999422486E+01   0.1000000000E-03  -0.7959636023E-04   0.7000000000E-03  -0.4979176214E-03   0.2351456888E+00   0.2014330564E-08   0.5302394946-314  -0.1447070966E-16
   0.0000000000E+00   0.1999422486E+01   0.0000000000E+00  -0.7959636023E-04   0.0000000000E+00  -0.4979176214E-03   0.2351456888E+00   0.2014330901E-08   0.5302394931-314   0.3085856712E-16
   0.1000400000E+01   0.0000000000E+00   0.5000000000E-04   0.0000000000E+00   0.3500000000E-03   0.0000000000E+00   0.2351456888E+00   0.2014330644E-08   0.5302394902-314  -0.7137515308E-16
   0.2000800000E+01   0.9997112430E+00   0.1000000000E-03  -0.3979818012E-04   0.7000000000E-03  -0.2489588107E-03   0.2351456888E+00   0.2014331186E-08   0.5302394887-314   0.4519085201E-16
   0.1000400000E+01   0.1999422486E+01   0.5000000000E-04  -0.7959636023E-04   0.3500000000E-03  -0.4979176214E-03   0.2351456888E+00   0.2014331271E-08   0.5302394852-314  -0.5668651701E-17
   0.0000000000E+00   0.9997112430E+00   0.0000000000E+00  -0.3979818012E-04   0.0000000000E+00  -0.2489588107E-03   0.2351456888E+00   0.2014330613E-08   0.5302394887-314   0.2428423794E-16
   0.1000400000E+01   0.9997112430E+00   0.5000000000E-04  -0.3979818012E-04   0.3500000000E-03  -0.2489588107E-03   0.2351456888E+00   0.2014330613E-08   0.5302394887-314   0.2428423794E-16
           1           5           9           8
           5           2           6           9
           9           6           3           7
           8           9           7           4
 VARIABLES = X,Y,DU1,DU2,U1,U2,S11,S22,S33,S12
 ZONE, T="0.9000D+01" F=FEPOINT, I=    9 J=    4
   0.0000000000E+00   0.0000000000E+00   0.0000000000E+00   0.0000000000E+00   0.0000000000E+00   0.0000000000E+00   0.2550368557E+00   0.1569131708E-08   0.5750928880-314  -0.2190736105E-16
   0.2000900000E+01   0.0000000000E+00   0.1000000000E-03   0.0000000000E+00   0.8000000000E-03   0.0000000000E+00   0.2550368557E+00   0.1569131738E-08   0.5750928925-314  -0.6317201235E-16
   0.2000900000E+01   0.1999341842E+01   0.1000000000E-03  -0.8064393903E-04   0.8000000000E-03  -0.5775139816E-03   0.2550368557E+00   0.1569131887E-08   0.5750928920-314   0.6543722106E-16
   0.0000000000E+00   0.1999341842E+01   0.0000000000E+00  -0.8064393903E-04   0.0000000000E+00  -0.5775139816E-03   0.2550368557E+00   0.1569131648E-08   0.5750928925-314   0.2536580175E-16
   0.1000450000E+01   0.0000000000E+00   0.5000000000E-04   0.0000000000E+00   0.4000000000E-03   0.0000000000E+00   0.2550368557E+00   0.1569131748E-08   0.5750928831-314   0.1086728091E-16
   0.2000900000E+01   0.9996709210E+00   0.1000000000E-03  -0.4032196951E-04   0.8000000000E-03  -0.2887569908E-03   0.2550368557E+00   0.1569131725E-08   0.5750928851-314  -0.1486851786E-16
   0.1000450000E+01   0.1999341842E+01   0.5000000000E-04  -0.8064393903E-04   0.4000000000E-03  -0.5775139816E-03   0.2550368557E+00   0.1569131748E-08   0.5750928831-314   0.5139767330E-17
   0.0000000000E+00   0.9996709210E+00   0.0000000000E+00  -0.4032196951E-04   0.0000000000E+00  -0.2887569908E-03   0.2550368557E+00   0.1569131725E-08   0.5750928846-314  -0.5497339090E-18
   0.1000450000E+01   0.9996709210E+00   0.5000000000E-04  -0.4032196951E-04   0.4000000000E-03  -0.2887569908E-03   0.2550368557E+00   0.1569131725E-08   0.5750928846-314  -0.5497339090E-18
           1           5           9           8
           5           2           6           9
           9           6           3           7
           8           9           7           4
 VARIABLES = X,Y,DU1,DU2,U1,U2,S11,S22,S33,S12
 ZONE, T="0.1000D+02" F=FEPOINT, I=    9 J=    4
   0.0000000000E+00   0.0000000000E+00   0.0000000000E+00   0.0000000000E+00   0.0000000000E+00   0.0000000000E+00   0.2739487756E+00   0.1246578161E-08   0.6177381218-314  -0.4246984176E-17
   0.2001000000E+01   0.0000000000E+00   0.1000000000E-03   0.0000000000E+00   0.9000000000E-03   0.0000000000E+00   0.2739487756E+00   0.1246578109E-08   0.6177381173-314  -0.5063711553E-16
   0.2001000000E+01   0.1999260287E+01   0.1000000000E-03  -0.8155554774E-04   0.9000000000E-03  -0.6581579207E-03   0.2739487756E+00   0.1246578149E-08   0.6177381168-314  -0.3439354562E-18
   0.0000000000E+00   0.1999260287E+01   0.0000000000E+00  -0.8155554774E-04   0.0000000000E+00  -0.6581579207E-03   0.2739487756E+00   0.1246577739E-08   0.6177381178-314   0.3982177832E-16
   0.1000500000E+01   0.0000000000E+00   0.5000000000E-04   0.0000000000E+00   0.4500000000E-03   0.0000000000E+00   0.2739487756E+00   0.1246577748E-08   0.6177381257-314   0.9875785894E-18
   0.2001000000E+01   0.9996301433E+00   0.1000000000E-03  -0.4077777387E-04   0.9000000000E-03  -0.3290789603E-03   0.2739487756E+00   0.1246577738E-08   0.6177381257-314  -0.1208800204E-16
   0.1000500000E+01   0.1999260287E+01   0.5000000000E-04  -0.8155554774E-04   0.4500000000E-03  -0.6581579207E-03   0.2739487756E+00   0.1246578213E-08   0.6177381247-314   0.1200795145E-16
   0.0000000000E+00   0.9996301433E+00   0.0000000000E+00  -0.4077777387E-04   0.0000000000E+00  -0.3290789603E-03   0.2739487756E+00   0.1246578455E-08   0.6177381252-314  -0.1759818847E-16
   0.1000500000E+01   0.9996301433E+00   0.5000000000E-04  -0.4077777387E-04   0.4500000000E-03  -0.3290789603E-03   0.2739487756E+00   0.1246578455E-08   0.6177381252-314  -0.1759818847E-16
           1           5           9           8
           5           2           6           9
           9           6           3           7
           8           9           7           4
