 VARIABLES = X,Y,Z,S11,S22,S33,S12,S13,S23
 ZONE, T="0.1000D+01" F=FEPOINT, I=   12 J=    2 ET=BRICK
   0.0000000000E+00   0.0000000000E+00   0.0000000000E+00   0.3057836620E+02   0.1761210752E-07   0.1761211717E-07   0.5629628038E-14   0.2190797525E-13   0.9157038371E-14
   0.1900000000E+01   0.1173255523E-15   0.9774078168E-15   0.3057836620E+02   0.1761243377E-07   0.1761243072E-07  -0.6685006181E-14   0.9110496399E-14  -0.3053517758E-14
   0.1900000000E+01   0.7291274386E+00  -0.6855743293E-15   0.3057836620E+02   0.1761244480E-07   0.1761244516E-07  -0.9708857237E-14  -0.6247274528E-14  -0.2369385982E-14
   0.0000000000E+00   0.7291274386E+00   0.0000000000E+00   0.3057836620E+02   0.1761210200E-07   0.1761209157E-07   0.5323546689E-14  -0.1507993530E-13   0.8458252615E-14
   0.0000000000E+00   0.1277071575E-14   0.7291274386E+00   0.3057836620E+02   0.1761210285E-07   0.1761211456E-07  -0.6014868293E-15  -0.3589085433E-14   0.6163229480E-15
   0.1900000000E+01   0.1359979159E-14   0.7291274386E+00   0.3057836620E+02   0.1761244309E-07   0.1761243595E-07   0.5808535200E-14   0.3632646120E-14  -0.3463701143E-15
   0.1900000000E+01   0.7291274386E+00   0.7291274386E+00   0.3057836620E+02   0.1761244210E-07   0.1761244572E-07   0.6762576990E-14  -0.3916668476E-14   0.3377616617E-15
   0.0000000000E+00   0.7291274386E+00   0.7291274386E+00   0.3057836620E+02   0.1761210334E-07   0.1761209128E-07   0.3291318714E-14  -0.2639684981E-14  -0.8246280619E-16
   0.3800000000E+01  -0.3606416903E-15   0.1307063543E-14   0.3057836620E+02   0.1761277048E-07   0.1761278050E-07  -0.1106704495E-13   0.5766400539E-14  -0.5603568471E-15
   0.3800000000E+01   0.7291274386E+00  -0.9643621411E-15   0.3057836620E+02   0.1761276864E-07   0.1761277721E-07  -0.1680866571E-13  -0.3037986191E-14   0.2034378899E-14
   0.3800000000E+01   0.1822360575E-14   0.7291274386E+00   0.3057836620E+02   0.1761278052E-07   0.1761277886E-07   0.1185893720E-13   0.2030776066E-13  -0.2134404216E-14
   0.3800000000E+01   0.7291274386E+00   0.7291274386E+00   0.3057836619E+02   0.1761278594E-07   0.1761278257E-07   0.9874215237E-14  -0.1081702440E-13   0.4603315296E-15
     1     2     3     4     5     6     7     8
     2     9    10     3     6    11    12     7
 VARIABLES = X,Y,Z,S11,S22,S33,S12,S13,S23
 ZONE, T="0.2000D+01" F=FEPOINT, I=   12 J=    2 ET=BRICK
   0.0000000000E+00   0.0000000000E+00   0.0000000000E+00   0.2983002375E+02   0.7482694666E+00  -0.3703215283E-04   0.4724619386E+01  -0.1147391338E-05  -0.1817289530E-06
   0.1876607837E+01   0.2972255500E+00  -0.4103493995E-07   0.2983002334E+02   0.7482667243E+00  -0.3607882054E-04   0.4724617763E+01   0.1450963969E-13  -0.2661095502E-13
   0.1762547197E+01   0.1017376087E+01  -0.4103494167E-07   0.2983002334E+02   0.7482667242E+00  -0.3607882052E-04   0.4724617763E+01  -0.1330724659E-13   0.2442661840E-13
  -0.1140606608E+00   0.7201506699E+00   0.0000000000E+00   0.2983002493E+02   0.7482682899E+00  -0.3703215284E-04   0.4724615764E+01  -0.1147391384E-05  -0.1817289062E-06
  -0.1997780086E-15   0.1261348704E-14   0.7291274386E+00   0.2983002375E+02   0.7482694665E+00  -0.3703215282E-04   0.4724619386E+01   0.1147391362E-05   0.1817289676E-06
   0.1876607837E+01   0.2972255500E+00   0.7291274796E+00   0.2983002334E+02   0.7482667242E+00  -0.3607882052E-04   0.4724617763E+01   0.2195112160E-15   0.2724738306E-13
   0.1762547197E+01   0.1017376087E+01   0.7291274796E+00   0.2983002334E+02   0.7482667241E+00  -0.3607882053E-04   0.4724617762E+01  -0.1956312950E-14  -0.2866823014E-13
  -0.1140606608E+00   0.7201506699E+00   0.7291274386E+00   0.2983002492E+02   0.7482682898E+00  -0.3703215283E-04   0.4724615764E+01   0.1147391361E-05   0.1817289106E-06
   0.3753215694E+01   0.5944509672E+00   0.1307063543E-14   0.2983002493E+02   0.7482682900E+00  -0.3703215284E-04   0.4724615765E+01   0.1147391366E-05   0.1817289122E-06
   0.3639155033E+01   0.1314601637E+01  -0.9643621411E-15   0.2983002375E+02   0.7482694665E+00  -0.3703215283E-04   0.4724619386E+01   0.1147391358E-05   0.1817289686E-06
   0.3753215694E+01   0.5944509672E+00   0.7291274386E+00   0.2983002493E+02   0.7482682899E+00  -0.3703215282E-04   0.4724615764E+01  -0.1147391360E-05  -0.1817289114E-06
   0.3639155033E+01   0.1314601637E+01   0.7291274386E+00   0.2983002375E+02   0.7482694664E+00  -0.3703215284E-04   0.4724619385E+01  -0.1147391362E-05  -0.1817289651E-06
     1     2     3     4     5     6     7     8
     2     9    10     3     6    11    12     7
 VARIABLES = X,Y,Z,S11,S22,S33,S12,S13,S23
 ZONE, T="0.3000D+01" F=FEPOINT, I=   12 J=    2 ET=BRICK
   0.0000000000E+00   0.0000000000E+00   0.0000000000E+00   0.2765838536E+02   0.2919968799E+01  -0.6104086080E-05   0.8986757420E+01  -0.1088852852E-05  -0.3537897470E-06
   0.1807007367E+01   0.5871323319E+00  -0.4044129364E-07   0.2765838583E+02   0.2919966830E+01  -0.4971385638E-05   0.8986756740E+01   0.1973501092E-13  -0.1346382319E-13
   0.1581694625E+01   0.1280573648E+01  -0.4044129521E-07   0.2765838583E+02   0.2919966830E+01  -0.4971385629E-05   0.8986756739E+01  -0.1481602422E-13   0.1330724621E-13
  -0.2253127696E+00   0.6934414017E+00   0.0000000000E+00   0.2765838685E+02   0.2919967309E+01  -0.6104082199E-05   0.8986755368E+01  -0.1088852893E-05  -0.3537897238E-06
  -0.3946368196E-15   0.1214567243E-14   0.7291274386E+00   0.2765838536E+02   0.2919968799E+01  -0.6104086096E-05   0.8986757419E+01   0.1088852870E-05   0.3537897641E-06
   0.1807007367E+01   0.5871323319E+00   0.7291274790E+00   0.2765838583E+02   0.2919966830E+01  -0.4971385637E-05   0.8986756739E+01   0.3008105081E-14   0.2001227965E-13
   0.1581694625E+01   0.1280573648E+01   0.7291274790E+00   0.2765838583E+02   0.2919966829E+01  -0.4971385629E-05   0.8986756738E+01  -0.1698331928E-14  -0.1916550590E-13
  -0.2253127696E+00   0.6934414017E+00   0.7291274386E+00   0.2765838684E+02   0.2919967308E+01  -0.6104082173E-05   0.8986755367E+01   0.1088852879E-05   0.3537897279E-06
   0.3614014762E+01   0.1174264579E+01   0.1307063543E-14   0.2765838685E+02   0.2919967309E+01  -0.6104082187E-05   0.8986755369E+01   0.1088852881E-05   0.3537897267E-06
   0.3388701992E+01   0.1867705980E+01  -0.9643621411E-15   0.2765838536E+02   0.2919968798E+01  -0.6104086104E-05   0.8986757419E+01   0.1088852863E-05   0.3537897636E-06
   0.3614014762E+01   0.1174264579E+01   0.7291274386E+00   0.2765838685E+02   0.2919967308E+01  -0.6104082176E-05   0.8986755368E+01  -0.1088852870E-05  -0.3537897284E-06
   0.3388701992E+01   0.1867705980E+01   0.7291274386E+00   0.2765838535E+02   0.2919968798E+01  -0.6104086107E-05   0.8986757418E+01  -0.1088852879E-05  -0.3537897641E-06
     1     2     3     4     5     6     7     8
     2     9    10     3     6    11    12     7
 VARIABLES = X,Y,Z,S11,S22,S33,S12,S13,S23
 ZONE, T="0.4000D+01" F=FEPOINT, I=   12 J=    2 ET=BRICK
   0.0000000000E+00   0.0000000000E+00   0.0000000000E+00   0.2427593245E+02   0.6302421710E+01  -0.6104553174E-05   0.1236920977E+02  -0.1020170828E-05  -0.5198030101E-06
   0.1692912376E+01   0.8625819894E+00  -0.4044400821E-07   0.2427593307E+02   0.6302419590E+01  -0.4971777058E-05   0.1236920950E+02   0.1954465677E-13  -0.9607856437E-14
   0.1361895486E+01   0.1512239214E+01  -0.4044400990E-07   0.2427593307E+02   0.6302419590E+01  -0.4971777058E-05   0.1236920950E+02  -0.1585319862E-13   0.9514545078E-14
  -0.3310169302E+00   0.6496573047E+00   0.0000000000E+00   0.2427593450E+02   0.6302419658E+01  -0.6104549282E-05   0.1236920828E+02  -0.1020170878E-05  -0.5198029955E-06
  -0.5797783623E-15   0.1137879105E-14   0.7291274386E+00   0.2427593245E+02   0.6302421709E+01  -0.6104553186E-05   0.1236920977E+02   0.1020170842E-05   0.5198030277E-06
   0.1692912376E+01   0.8625819894E+00   0.7291274790E+00   0.2427593307E+02   0.6302419590E+01  -0.4971777062E-05   0.1236920950E+02  -0.3395145562E-14   0.2179423937E-13
   0.1361895486E+01   0.1512239214E+01   0.7291274790E+00   0.2427593307E+02   0.6302419589E+01  -0.4971777057E-05   0.1236920950E+02   0.1705367631E-14  -0.1920348671E-13
  -0.3310169302E+00   0.6496573047E+00   0.7291274386E+00   0.2427593449E+02   0.6302419657E+01  -0.6104549294E-05   0.1236920828E+02   0.1020170858E-05   0.5198029954E-06
   0.3385824792E+01   0.1725163899E+01   0.1307063543E-14   0.2427593450E+02   0.6302419658E+01  -0.6104549270E-05   0.1236920828E+02   0.1020170865E-05   0.5198029916E-06
   0.3054807862E+01   0.2374821204E+01  -0.9643621411E-15   0.2427593244E+02   0.6302421709E+01  -0.6104553207E-05   0.1236920977E+02   0.1020170846E-05   0.5198030325E-06
   0.3385824792E+01   0.1725163899E+01   0.7291274386E+00   0.2427593450E+02   0.6302419658E+01  -0.6104549277E-05   0.1236920828E+02  -0.1020170844E-05  -0.5198029958E-06
   0.3054807862E+01   0.2374821204E+01   0.7291274386E+00   0.2427593244E+02   0.6302421708E+01  -0.6104553202E-05   0.1236920977E+02  -0.1020170849E-05  -0.5198030282E-06
     1     2     3     4     5     6     7     8
     2     9    10     3     6    11    12     7
 VARIABLES = X,Y,Z,S11,S22,S33,S12,S13,S23
 ZONE, T="0.5000D+01" F=FEPOINT, I=   12 J=    2 ET=BRICK
   0.0000000000E+00   0.0000000000E+00   0.0000000000E+00   0.2001379331E+02   0.1056456085E+02  -0.6104475148E-05   0.1454087769E+02  -0.9262845534E-06  -0.6729851320E-06
   0.1537132263E+01   0.1116792016E+01  -0.4044352036E-07   0.2001379395E+02   0.1056455872E+02  -0.4971712998E-05   0.1454087785E+02   0.1859993868E-13  -0.8128139543E-14
   0.1108561960E+01   0.1706668432E+01  -0.4044352219E-07   0.2001379394E+02   0.1056455871E+02  -0.4971712990E-05   0.1454087785E+02  -0.1700426493E-13   0.5829048869E-14
  -0.4285703554E+00   0.5898764889E+00   0.0000000000E+00   0.2001379572E+02   0.1056455844E+02  -0.6104471254E-05   0.1454087690E+02  -0.9262846078E-06  -0.6729851274E-06
  -0.7506438377E-15   0.1033172607E-14   0.7291274386E+00   0.2001379331E+02   0.1056456085E+02  -0.6104475148E-05   0.1454087769E+02   0.9262845731E-06   0.6729851591E-06
   0.1537132263E+01   0.1116792016E+01   0.7291274790E+00   0.2001379394E+02   0.1056455871E+02  -0.4971713000E-05   0.1454087785E+02  -0.7715903903E-14   0.1827410360E-13
   0.1108561960E+01   0.1706668432E+01   0.7291274790E+00   0.2001379394E+02   0.1056455871E+02  -0.4971712994E-05   0.1454087785E+02   0.6242418514E-14  -0.2069644503E-13
  -0.4285703554E+00   0.5898764889E+00   0.7291274386E+00   0.2001379571E+02   0.1056455844E+02  -0.6104471248E-05   0.1454087690E+02   0.9262845863E-06   0.6729851239E-06
   0.3074264579E+01   0.2233583959E+01   0.1307063543E-14   0.2001379572E+02   0.1056455844E+02  -0.6104471922E-05   0.1454087690E+02   0.9262845917E-06   0.6729851206E-06
   0.2645694223E+01   0.2823460448E+01  -0.9643621411E-15   0.2001379330E+02   0.1056456085E+02  -0.6104475836E-05   0.1454087768E+02   0.9262845697E-06   0.6729851637E-06
   0.3074264579E+01   0.2233583959E+01   0.7291274386E+00   0.2001379572E+02   0.1056455844E+02  -0.6104471913E-05   0.1454087690E+02  -0.9262845809E-06  -0.6729851262E-06
   0.2645694223E+01   0.2823460448E+01   0.7291274386E+00   0.2001379330E+02   0.1056456085E+02  -0.6104475839E-05   0.1454087768E+02  -0.9262845713E-06  -0.6729851492E-06
     1     2     3     4     5     6     7     8
     2     9    10     3     6    11    12     7
 VARIABLES = X,Y,Z,S11,S22,S33,S12,S13,S23
 ZONE, T="0.6000D+01" F=FEPOINT, I=   12 J=    2 ET=BRICK
   0.0000000000E+00   0.0000000000E+00   0.0000000000E+00   0.1528917581E+02   0.1528917835E+02  -0.6104475765E-05   0.1528918318E+02  -0.8096023939E-06  -0.8096024058E-06
   0.1343502853E+01   0.1343502916E+01  -0.4044352081E-07   0.1528917633E+02   0.1528917633E+02  -0.4971713104E-05   0.1528918377E+02   0.1899744345E-13  -0.9108759655E-14
   0.8279319597E+00   0.1859073809E+01  -0.4044352225E-07   0.1528917633E+02   0.1528917633E+02  -0.4971713100E-05   0.1528918377E+02  -0.1663941313E-13   0.6361371760E-14
  -0.5155709562E+00   0.5155709562E+00   0.0000000000E+00   0.1528917835E+02   0.1528917581E+02  -0.6104471877E-05   0.1528918318E+02  -0.8096024388E-06  -0.8096024033E-06
  -0.9030259704E-15   0.9030259704E-15   0.7291274386E+00   0.1528917581E+02   0.1528917835E+02  -0.6104475768E-05   0.1528918318E+02   0.8096023967E-06   0.8096024248E-06
   0.1343502853E+01   0.1343502916E+01   0.7291274790E+00   0.1528917633E+02   0.1528917633E+02  -0.4971713102E-05   0.1528918377E+02  -0.1154906031E-13   0.1333486596E-13
   0.8279319597E+00   0.1859073809E+01   0.7291274790E+00   0.1528917633E+02   0.1528917633E+02  -0.4971713105E-05   0.1528918377E+02   0.9907228201E-14  -0.1585672997E-13
  -0.5155709562E+00   0.5155709562E+00   0.7291274386E+00   0.1528917834E+02   0.1528917581E+02  -0.6104471862E-05   0.1528918318E+02   0.8096024260E-06   0.8096023997E-06
   0.2687005769E+01   0.2687005769E+01   0.1307063543E-14   0.1528917835E+02   0.1528917581E+02  -0.6104471516E-05   0.1528918318E+02   0.8096024345E-06   0.8096024072E-06
   0.2171434812E+01   0.3202576725E+01  -0.9643621411E-15   0.1528917581E+02   0.1528917834E+02  -0.6104475441E-05   0.1528918318E+02   0.8096023971E-06   0.8096024275E-06
   0.2687005769E+01   0.2687005769E+01   0.7291274386E+00   0.1528917834E+02   0.1528917581E+02  -0.6104471528E-05   0.1528918318E+02  -0.8096024086E-06  -0.8096023867E-06
   0.2171434812E+01   0.3202576725E+01   0.7291274386E+00   0.1528917581E+02   0.1528917834E+02  -0.6104475447E-05   0.1528918318E+02  -0.8096024060E-06  -0.8096024281E-06
     1     2     3     4     5     6     7     8
     2     9    10     3     6    11    12     7
 VARIABLES = X,Y,Z,S11,S22,S33,S12,S13,S23
 ZONE, T="0.7000D+01" F=FEPOINT, I=   12 J=    2 ET=BRICK
   0.0000000000E+00   0.0000000000E+00   0.0000000000E+00   0.1056455844E+02   0.2001379572E+02  -0.6104475258E-05   0.1454087690E+02  -0.6729851264E-06  -0.9262845753E-06
   0.1116791943E+01   0.1537132316E+01  -0.4044352088E-07   0.1056455872E+02   0.2001379395E+02  -0.4971712774E-05   0.1454087785E+02   0.2353998179E-13   0.2148814912E-14
   0.5269155267E+00   0.1965702618E+01  -0.4044352228E-07   0.1056455871E+02   0.2001379394E+02  -0.4971712769E-05   0.1454087785E+02  -0.1901251746E-13  -0.4347661747E-16
  -0.5898764889E+00   0.4285703554E+00   0.0000000000E+00   0.1056456085E+02   0.2001379331E+02  -0.6104471354E-05   0.1454087769E+02  -0.6729851716E-06  -0.9262845788E-06
  -0.1033172607E-14   0.7506438377E-15   0.7291274386E+00   0.1056455844E+02   0.2001379572E+02  -0.6104475253E-05   0.1454087690E+02   0.6729851239E-06   0.9262845906E-06
   0.1116791943E+01   0.1537132316E+01   0.7291274790E+00   0.1056455871E+02   0.2001379394E+02  -0.4971712771E-05   0.1454087785E+02  -0.1044349608E-13   0.1919632882E-13
   0.5269155267E+00   0.1965702618E+01   0.7291274790E+00   0.1056455871E+02   0.2001379394E+02  -0.4971712770E-05   0.1454087785E+02   0.1038087349E-13  -0.1817649214E-13
  -0.5898764889E+00   0.4285703554E+00   0.7291274386E+00   0.1056456085E+02   0.2001379330E+02  -0.6104471368E-05   0.1454087768E+02   0.6729851573E-06   0.9262845728E-06
   0.2233583959E+01   0.3074264579E+01   0.1307063543E-14   0.1056456085E+02   0.2001379331E+02  -0.6104471364E-05   0.1454087769E+02   0.6729851665E-06   0.9262845704E-06
   0.1643707470E+01   0.3502834934E+01  -0.9643621411E-15   0.1056455844E+02   0.2001379572E+02  -0.6104475261E-05   0.1454087690E+02   0.6729851248E-06   0.9262845934E-06
   0.2233583959E+01   0.3074264579E+01   0.7291274386E+00   0.1056456085E+02   0.2001379330E+02  -0.6104471337E-05   0.1454087768E+02  -0.6729851417E-06  -0.9262845684E-06
   0.1643707470E+01   0.3502834934E+01   0.7291274386E+00   0.1056455844E+02   0.2001379571E+02  -0.6104475288E-05   0.1454087690E+02  -0.6729851352E-06  -0.9262846014E-06
     1     2     3     4     5     6     7     8
     2     9    10     3     6    11    12     7
 VARIABLES = X,Y,Z,S11,S22,S33,S12,S13,S23
 ZONE, T="0.8000D+01" F=FEPOINT, I=   12 J=    2 ET=BRICK
   0.0000000000E+00   0.0000000000E+00   0.0000000000E+00   0.6302419659E+01   0.2427593450E+02  -0.6104476051E-05   0.1236920828E+02  -0.5197967314E-06  -0.1020158544E-05
   0.8625819096E+00   0.1692912416E+01  -0.4044352088E-07   0.6302419590E+01   0.2427593307E+02  -0.4971713239E-05   0.1236920950E+02   0.2266679229E-13  -0.4522710562E-15
   0.2129246847E+00   0.2023929306E+01  -0.4044352219E-07   0.6302419590E+01   0.2427593307E+02  -0.4971713214E-05   0.1236920950E+02  -0.1778818316E-13   0.1047710317E-15
  -0.6496573047E+00   0.3310169302E+00   0.0000000000E+00   0.6302421709E+01   0.2427593245E+02  -0.6104472145E-05   0.1236920977E+02  -0.5197967730E-06  -0.1020158551E-05
  -0.1137879105E-14   0.5797783623E-15   0.7291274386E+00   0.6302419658E+01   0.2427593450E+02  -0.6104476046E-05   0.1236920828E+02   0.5197967238E-06   0.1020158554E-05
   0.8625819096E+00   0.1692912416E+01   0.7291274790E+00   0.6302419590E+01   0.2427593307E+02  -0.4971713218E-05   0.1236920950E+02  -0.1481872774E-13   0.1170792190E-13
   0.2129246847E+00   0.2023929306E+01   0.7291274790E+00   0.6302419589E+01   0.2427593307E+02  -0.4971713221E-05   0.1236920950E+02   0.1282633901E-13  -0.1256810885E-13
  -0.6496573047E+00   0.3310169302E+00   0.7291274386E+00   0.6302421708E+01   0.2427593244E+02  -0.6104472154E-05   0.1236920977E+02   0.5197967641E-06   0.1020158548E-05
   0.1725163899E+01   0.3385824792E+01   0.1307063543E-14   0.6302421709E+01   0.2427593245E+02  -0.6104471475E-05   0.1236920977E+02   0.5197967700E-06   0.1020158549E-05
   0.1075506594E+01   0.3716841722E+01  -0.9643621411E-15   0.6302419658E+01   0.2427593450E+02  -0.6104475398E-05   0.1236920828E+02   0.5197967273E-06   0.1020158559E-05
   0.1725163899E+01   0.3385824792E+01   0.7291274386E+00   0.6302421709E+01   0.2427593244E+02  -0.6104471482E-05   0.1236920977E+02  -0.5197967460E-06  -0.1020158532E-05
   0.1075506594E+01   0.3716841722E+01   0.7291274386E+00   0.6302419657E+01   0.2427593449E+02  -0.6104475389E-05   0.1236920828E+02  -0.5197967344E-06  -0.1020158573E-05
     1     2     3     4     5     6     7     8
     2     9    10     3     6    11    12     7
 VARIABLES = X,Y,Z,S11,S22,S33,S12,S13,S23
 ZONE, T="0.9000D+01" F=FEPOINT, I=   12 J=    2 ET=BRICK
   0.0000000000E+00   0.0000000000E+00   0.0000000000E+00   0.2919967308E+01   0.2765838685E+02  -0.6104475720E-05   0.8986755369E+01  -0.3538092126E-06  -0.1088912818E-05
   0.5871322467E+00   0.1807007395E+01  -0.4044352071E-07   0.2919966830E+01   0.2765838583E+02  -0.4971713234E-05   0.8986756740E+01   0.2105232468E-13  -0.7401450937E-16
  -0.1063090698E+00   0.2032320137E+01  -0.4044352212E-07   0.2919966829E+01   0.2765838583E+02  -0.4971713222E-05   0.8986756739E+01  -0.1564796518E-13  -0.9299306054E-15
  -0.6934414017E+00   0.2253127696E+00   0.0000000000E+00   0.2919968798E+01   0.2765838536E+02  -0.6104471809E-05   0.8986757419E+01  -0.3538092556E-06  -0.1088912837E-05
  -0.1214567243E-14   0.3946368196E-15   0.7291274386E+00   0.2919967308E+01   0.2765838685E+02  -0.6104475699E-05   0.8986755368E+01   0.3538092077E-06   0.1088912836E-05
   0.5871322467E+00   0.1807007395E+01   0.7291274790E+00   0.2919966829E+01   0.2765838583E+02  -0.4971713231E-05   0.8986756739E+01  -0.1681888515E-13   0.6381223097E-14
  -0.1063090698E+00   0.2032320137E+01   0.7291274790E+00   0.2919966829E+01   0.2765838583E+02  -0.4971713213E-05   0.8986756738E+01   0.1738437839E-13  -0.9096135670E-14
  -0.6934414017E+00   0.2253127696E+00   0.7291274386E+00   0.2919968798E+01   0.2765838535E+02  -0.6104471818E-05   0.8986757418E+01   0.3538092430E-06   0.1088912826E-05
   0.1174264579E+01   0.3614014762E+01   0.1307063543E-14   0.2919968798E+01   0.2765838536E+02  -0.6104471825E-05   0.8986757420E+01   0.3538092503E-06   0.1088912817E-05
   0.4808231769E+00   0.3839327532E+01  -0.9643621411E-15   0.2919967308E+01   0.2765838685E+02  -0.6104475728E-05   0.8986755368E+01   0.3538092075E-06   0.1088912840E-05
   0.1174264579E+01   0.3614014762E+01   0.7291274386E+00   0.2919968798E+01   0.2765838536E+02  -0.6104471801E-05   0.8986757419E+01  -0.3538092334E-06  -0.1088912828E-05
   0.4808231769E+00   0.3839327532E+01   0.7291274386E+00   0.2919967308E+01   0.2765838684E+02  -0.6104475738E-05   0.8986755367E+01  -0.3538092127E-06  -0.1088912842E-05
     1     2     3     4     5     6     7     8
     2     9    10     3     6    11    12     7
 VARIABLES = X,Y,Z,S11,S22,S33,S12,S13,S23
 ZONE, T="0.1000D+02" F=FEPOINT, I=   12 J=    2 ET=BRICK
   0.0000000000E+00   0.0000000000E+00   0.0000000000E+00   0.7482993918E+00   0.2983005477E+02  -0.6104475707E-05   0.4724616228E+01  -0.1791097411E-06  -0.1130854451E-05
   0.2972254394E+00   0.1876607854E+01  -0.4044352072E-07   0.7482984762E+00   0.2983005419E+02  -0.4971713230E-05   0.4724617615E+01   0.1849077962E-13   0.1152216412E-13
  -0.4229251421E+00   0.1990668501E+01  -0.4044352226E-07   0.7482984761E+00   0.2983005418E+02  -0.4971713222E-05   0.4724617615E+01  -0.1813438401E-13  -0.9543629330E-14
  -0.7201506699E+00   0.1140606608E+00   0.0000000000E+00   0.7483001752E+00   0.2983005398E+02  -0.6104471815E-05   0.4724618639E+01  -0.1791097771E-06  -0.1130854477E-05
  -0.1261348704E-14   0.1997780086E-15   0.7291274386E+00   0.7482993917E+00   0.2983005476E+02  -0.6104475714E-05   0.4724616228E+01   0.1791097314E-06   0.1130854468E-05
   0.2972254394E+00   0.1876607854E+01   0.7291274790E+00   0.7482984761E+00   0.2983005418E+02  -0.4971713228E-05   0.4724617615E+01  -0.1858858928E-13   0.1113462608E-13
  -0.4229251421E+00   0.1990668501E+01   0.7291274790E+00   0.7482984760E+00   0.2983005418E+02  -0.4971713214E-05   0.4724617614E+01   0.1722707743E-13  -0.1250475461E-13
  -0.7201506699E+00   0.1140606608E+00   0.7291274386E+00   0.7483001751E+00   0.2983005398E+02  -0.6104471813E-05   0.4724618638E+01   0.1791097709E-06   0.1130854459E-05
   0.5944509672E+00   0.3753215694E+01   0.1307063543E-14   0.7483001752E+00   0.2983005398E+02  -0.6104471828E-05   0.4724618639E+01   0.1791097754E-06   0.1130854458E-05
  -0.1256997027E+00   0.3867276355E+01  -0.9643621411E-15   0.7482993917E+00   0.2983005476E+02  -0.6104475712E-05   0.4724616228E+01   0.1791097381E-06   0.1130854477E-05
   0.5944509672E+00   0.3753215694E+01   0.7291274386E+00   0.7483001751E+00   0.2983005398E+02  -0.6104471799E-05   0.4724618639E+01  -0.1791097615E-06  -0.1130854463E-05
  -0.1256997027E+00   0.3867276355E+01   0.7291274386E+00   0.7482993916E+00   0.2983005476E+02  -0.6104475743E-05   0.4724616227E+01  -0.1791097293E-06  -0.1130854465E-05
     1     2     3     4     5     6     7     8
     2     9    10     3     6    11    12     7
 VARIABLES = X,Y,Z,S11,S22,S33,S12,S13,S23
 ZONE, T="0.1100D+02" F=FEPOINT, I=   12 J=    2 ET=BRICK
   0.0000000000E+00   0.0000000000E+00   0.0000000000E+00  -0.6104475614E-05   0.3057836026E+02  -0.6104475487E-05  -0.1267582297E-05   0.8842763066E-14  -0.1144950694E-05
  -0.4477528259E-07   0.1900000000E+01  -0.4044352081E-07  -0.7440546820E-05   0.3057836010E+02  -0.4971713009E-05   0.2101123492E-11   0.2122604814E-13   0.1327934826E-13
  -0.7291273938E+00   0.1900000000E+01  -0.4044352207E-07  -0.7440546806E-05   0.3057836010E+02  -0.4971712996E-05   0.2097931373E-11  -0.2004702104E-13  -0.1057731775E-13
  -0.7291274386E+00   0.1110223025E-15   0.0000000000E+00  -0.6104471710E-05   0.3057836026E+02  -0.6104471591E-05   0.1267582287E-05  -0.2637147984E-13  -0.1144950720E-05
  -0.1277071575E-14   0.1479114197E-30   0.7291274386E+00  -0.6104475615E-05   0.3057836026E+02  -0.6104475486E-05  -0.1267582273E-05  -0.1900436001E-13   0.1144950703E-05
  -0.4477528348E-07   0.1900000000E+01   0.7291274790E+00  -0.7440546798E-05   0.3057836010E+02  -0.4971712992E-05   0.2090770673E-11  -0.1591536232E-13   0.6930039221E-14
  -0.7291273938E+00   0.1900000000E+01   0.7291274790E+00  -0.7440546810E-05   0.3057836009E+02  -0.4971712999E-05   0.2093864604E-11   0.1476312933E-13  -0.7350526893E-14
  -0.7291274386E+00   0.1110223025E-15   0.7291274386E+00  -0.6104471708E-05   0.3057836026E+02  -0.6104471591E-05   0.1267582269E-05   0.1773295809E-13   0.1144950709E-05
   0.0000000000E+00   0.3800000000E+01   0.1307063543E-14  -0.6104471713E-05   0.3057836026E+02  -0.6104471586E-05   0.1267582311E-05   0.2290316577E-13   0.1144950709E-05
  -0.7291274386E+00   0.3800000000E+01  -0.9643621411E-15  -0.6104475614E-05   0.3057836026E+02  -0.6104475495E-05  -0.1267582278E-05  -0.1960416706E-13   0.1144950707E-05
  -0.1332267630E-14   0.3800000000E+01   0.7291274386E+00  -0.6104471694E-05   0.3057836026E+02  -0.6104471582E-05   0.1267582258E-05  -0.1147112825E-13  -0.1144950701E-05
  -0.7291274386E+00   0.3800000000E+01   0.7291274386E+00  -0.6104475604E-05   0.3057836025E+02  -0.6104475500E-05  -0.1267582278E-05   0.1797310013E-13  -0.1144950716E-05
     1     2     3     4     5     6     7     8
     2     9    10     3     6    11    12     7
