 VARIABLES = X,Y,Z,S11,S22,S33,S12,S13,S23
 ZONE, T="0.1000D+01" F=FEPOINT, I=   12 J=    2 ET=BRICK
   0.0000000000E+00   0.0000000000E+00   0.0000000000E+00   0.4511774169E+01   0.4772694307E-12   0.4798257087E-12   0.6054848199E-16   0.1061539522E-14   0.1366745280E-14
   0.1150000000E+01   0.0000000000E+00   0.6620245134E-16   0.4511774169E+01   0.4777981131E-12   0.4817987785E-12   0.9808232193E-15   0.1395232811E-14  -0.1993171270E-16
   0.1150000000E+01   0.9332047027E+00   0.6044253614E-16   0.4511774168E+01   0.4768351882E-12   0.4762792432E-12   0.9168032890E-15  -0.9831724491E-15   0.4452107026E-15
   0.0000000000E+00   0.9332047027E+00   0.1451403811E-15   0.4511774168E+01   0.4777508931E-12   0.4768079256E-12  -0.4380083899E-15  -0.1275129944E-14   0.9447050750E-15
   0.0000000000E+00   0.0000000000E+00   0.9332047027E+00   0.4511774168E+01   0.4781033480E-12   0.4816225511E-12   0.2346722966E-16  -0.3532294604E-15  -0.1299673501E-14
   0.1150000000E+01   0.0000000000E+00   0.9332047027E+00   0.4511774168E+01   0.4761302782E-12   0.4782050934E-12  -0.5738806266E-15   0.2711381600E-15  -0.3626955574E-15
   0.1150000000E+01   0.9332047027E+00   0.9332047027E+00   0.4511774168E+01   0.4797239632E-12   0.4772421680E-12  -0.2941189165E-15  -0.7695081087E-15   0.1024468578E-15
   0.0000000000E+00   0.9332047027E+00   0.9332047027E+00   0.4511774168E+01   0.4763065055E-12   0.4763264631E-12   0.9448779869E-15   0.7890217732E-15  -0.1721713705E-14
   0.2300000000E+01   0.0000000000E+00   0.8545798788E-16   0.4511774169E+01   0.4764009457E-12   0.4765844782E-12   0.2447505464E-15   0.8118615285E-15   0.4963730965E-16
   0.2300000000E+01   0.9332047027E+00   0.9186532225E-16   0.4511774168E+01   0.4764355131E-12   0.4776764105E-12   0.6152675578E-15   0.4779513487E-15   0.3467176577E-15
   0.2300000000E+01   0.0000000000E+00   0.9332047027E+00   0.4511774168E+01   0.4813445784E-12   0.4767134855E-12  -0.1591410518E-15  -0.2155879195E-16  -0.3589337074E-15
   0.2300000000E+01   0.9332047027E+00   0.9332047027E+00   0.4511774168E+01   0.4812155711E-12   0.4776418431E-12  -0.5210283891E-15  -0.1158871687E-14  -0.6185335932E-16
     1     2     3     4     5     6     7     8
     2     9    10     3     6    11    12     7
 VARIABLES = X,Y,Z,S11,S22,S33,S12,S13,S23
 ZONE, T="0.2000D+01" F=FEPOINT, I=   12 J=    2 ET=BRICK
   0.0000000000E+00   0.0000000000E+00   0.0000000000E+00   0.9165659390E+01   0.4227459400E-10   0.4227336318E-10   0.9152929770E-16  -0.1007954018E-14  -0.1395168264E-14
   0.1300000000E+01   0.0000000000E+00  -0.6087316468E-16   0.9165659390E+01   0.4243803548E-10   0.4243776907E-10  -0.2068604140E-15  -0.7384276831E-15   0.1094671288E-15
   0.1300000000E+01   0.8783927377E+00  -0.5359711308E-16   0.9165659389E+01   0.4243803547E-10   0.4243902972E-10  -0.1040617927E-14   0.1624055290E-14  -0.3515578102E-15
   0.0000000000E+00   0.8783927377E+00  -0.1568762914E-15   0.9165659389E+01   0.4227459400E-10   0.4227918747E-10  -0.6835508378E-15   0.1442507300E-14  -0.6705804341E-15
   0.0000000000E+00   0.0000000000E+00   0.8783927377E+00   0.9165659389E+01   0.4227459400E-10   0.4227336318E-10   0.1206623762E-15  -0.2057438133E-14  -0.3263057346E-15
   0.1300000000E+01   0.0000000000E+00   0.8783927377E+00   0.9165659389E+01   0.4243803547E-10   0.4243776906E-10   0.3110407698E-15  -0.1519823261E-14   0.3827974445E-15
   0.1300000000E+01   0.8783927377E+00   0.8783927377E+00   0.9165659387E+01   0.4243803547E-10   0.4243902972E-10  -0.1096612712E-14  -0.4401665707E-15  -0.7822749448E-16
   0.0000000000E+00   0.8783927377E+00   0.8783927377E+00   0.9165659388E+01   0.4227459399E-10   0.4227918747E-10  -0.3304466761E-14  -0.1142992493E-14   0.3982820947E-15
   0.2600000000E+01   0.0000000000E+00  -0.1659569379E-17   0.9165659389E+01   0.4260456306E-10   0.4260469627E-10  -0.9655707945E-16   0.1438209269E-14  -0.3416258351E-15
   0.2600000000E+01   0.8783927377E+00  -0.4529332000E-16   0.9165659388E+01   0.4260456306E-10   0.4260406593E-10  -0.9889919710E-15  -0.5756090707E-15  -0.1178248013E-15
   0.2600000000E+01   0.0000000000E+00   0.8783927377E+00   0.9165659388E+01   0.4260456306E-10   0.4260469626E-10  -0.2760196751E-15   0.9249022286E-15  -0.5216743042E-15
   0.2600000000E+01   0.8783927377E+00   0.8783927377E+00   0.9165659387E+01   0.4260456305E-10   0.4260406593E-10   0.3338024979E-15  -0.2118552999E-14  -0.2978732704E-15
     1     2     3     4     5     6     7     8
     2     9    10     3     6    11    12     7
 VARIABLES = X,Y,Z,S11,S22,S33,S12,S13,S23
 ZONE, T="0.3000D+01" F=FEPOINT, I=   12 J=    2 ET=BRICK
   0.0000000000E+00   0.0000000000E+00   0.0000000000E+00   0.1405264706E+02   0.5346780785E-11   0.5345964256E-11  -0.1378182443E-15   0.1836738153E-14   0.4639493493E-15
   0.1450000000E+01   0.0000000000E+00   0.1323882783E-15   0.1405264706E+02   0.5346511802E-11   0.5346185190E-11  -0.1538239511E-14   0.1219158728E-14  -0.7663475688E-15
   0.1450000000E+01   0.8323885354E+00   0.5300905705E-16   0.1405264706E+02   0.5349678677E-11   0.5350897608E-11  -0.2024513291E-14   0.3641674990E-16  -0.7529861427E-15
   0.0000000000E+00   0.8323885354E+00   0.5247610487E-16   0.1405264706E+02   0.5352152288E-11   0.5355199616E-11   0.6392842903E-15  -0.8641320276E-16   0.4888820949E-15
   0.0000000000E+00   0.0000000000E+00   0.8323885354E+00   0.1405264706E+02   0.5345197347E-11   0.5344380818E-11   0.3728770156E-16   0.1288847044E-15   0.8156651951E-15
   0.1450000000E+01   0.0000000000E+00   0.8323885354E+00   0.1405264706E+02   0.5349678677E-11   0.5349352065E-11  -0.1020070610E-14   0.1361245891E-14   0.7284502517E-15
   0.1450000000E+01   0.8323885354E+00   0.8323885354E+00   0.1405264706E+02   0.5348830114E-11   0.5350049045E-11  -0.1054983515E-14  -0.1213192118E-14   0.7418116776E-15
   0.0000000000E+00   0.8323885354E+00   0.8323885354E+00   0.1405264706E+02   0.5352576569E-11   0.5355623896E-11  -0.8833149439E-16   0.4813443743E-15   0.8405979407E-15
   0.2900000000E+01   0.0000000000E+00   0.1280145486E-15   0.1405264706E+02   0.5346242818E-11   0.5346406124E-11   0.9604534668E-17  -0.2337606788E-14   0.3340234274E-15
   0.2900000000E+01   0.8323885354E+00   0.1705294267E-15   0.1405264706E+02   0.5347205065E-11   0.5346595599E-11  -0.1740045559E-14   0.4993321665E-14   0.6812918027E-15
   0.2900000000E+01   0.0000000000E+00   0.8323885354E+00   0.1405264706E+02   0.5354160007E-11   0.5354323312E-11  -0.3383375502E-15  -0.3455790124E-15  -0.1087466439E-14
   0.2900000000E+01   0.8323885354E+00   0.8323885354E+00   0.1405264706E+02   0.5345083660E-11   0.5344474194E-11  -0.2825441636E-15   0.1926346353E-14  -0.7401980632E-15
     1     2     3     4     5     6     7     8
     2     9    10     3     6    11    12     7
 VARIABLES = X,Y,Z,S11,S22,S33,S12,S13,S23
 ZONE, T="0.4000D+01" F=FEPOINT, I=   12 J=    2 ET=BRICK
   0.0000000000E+00   0.0000000000E+00   0.0000000000E+00   0.1922866925E+02   0.3411443294E-04   0.3411443294E-04   0.6122908143E-16  -0.1727615142E-14   0.4251097039E-15
   0.1600000000E+01   0.0000000000E+00  -0.1134144796E-15   0.1922866925E+02   0.3411443276E-04   0.3411443275E-04  -0.1579580841E-14  -0.1636889762E-15  -0.3011165918E-15
   0.1600000000E+01   0.7930829933E+00  -0.1448241454E-15   0.1922866925E+02   0.3411443276E-04   0.3411443276E-04  -0.3043881372E-14   0.1970034713E-14   0.1703658373E-17
   0.0000000000E+00   0.7930829933E+00   0.5524223672E-16   0.1922866925E+02   0.3411443293E-04   0.3411443293E-04  -0.3662904699E-14  -0.4118634797E-14  -0.1411111430E-14
   0.0000000000E+00   0.0000000000E+00   0.7930829933E+00   0.1922866925E+02   0.3411443292E-04   0.3411443293E-04   0.1423704948E-15  -0.4066926420E-14  -0.2133287583E-15
   0.1600000000E+01   0.0000000000E+00   0.7930829933E+00   0.1922866925E+02   0.3411443276E-04   0.3411443276E-04  -0.6579850216E-15  -0.8945812525E-15   0.1503356051E-14
   0.1600000000E+01   0.7930829933E+00   0.7930829933E+00   0.1922866924E+02   0.3411443275E-04   0.3411443275E-04  -0.6298150290E-15   0.1073312378E-14   0.1806176301E-14
   0.0000000000E+00   0.7930829933E+00   0.7930829933E+00   0.1922866925E+02   0.3411443292E-04   0.3411443292E-04   0.3507471625E-14  -0.3203141170E-16  -0.2049549892E-14
   0.3200000000E+01   0.0000000000E+00  -0.2164521386E-15   0.1922866925E+02   0.3411443259E-04   0.3411443259E-04  -0.6090024480E-15  -0.1705831960E-14   0.3134489862E-16
   0.3200000000E+01   0.7930829933E+00  -0.2039061724E-15   0.1922866925E+02   0.3411443258E-04   0.3411443258E-04   0.1865302688E-15  -0.1458818626E-14  -0.2804306333E-15
   0.3200000000E+01   0.0000000000E+00   0.7930829933E+00   0.1922866925E+02   0.3411443259E-04   0.3411443259E-04   0.2488684093E-15  -0.8283052349E-15  -0.4476635040E-15
   0.3200000000E+01   0.7930829933E+00   0.7930829933E+00   0.1922866924E+02   0.3411443258E-04   0.3411443258E-04  -0.3059892735E-14  -0.7338866680E-14  -0.7594390358E-15
     1     2     3     4     5     6     7     8
     2     9    10     3     6    11    12     7
 VARIABLES = X,Y,Z,S11,S22,S33,S12,S13,S23
 ZONE, T="0.5000D+01" F=FEPOINT, I=   12 J=    2 ET=BRICK
   0.0000000000E+00   0.0000000000E+00   0.0000000000E+00   0.2472939426E+02   0.1494149134E-04   0.1494149134E-04  -0.9406308546E-16  -0.1984627532E-14  -0.4655950508E-15
   0.1750000000E+01   0.0000000000E+00  -0.6751264084E-16   0.2472939426E+02   0.1494149134E-04   0.1494149134E-04   0.2870972917E-14   0.4869179127E-15   0.6412089215E-15
   0.1750000000E+01   0.7590130018E+00   0.1220942900E-16   0.2472939425E+02   0.1494149134E-04   0.1494149134E-04   0.2779386843E-14  -0.3813032608E-14   0.5850200093E-15
   0.0000000000E+00   0.7590130018E+00  -0.5017385607E-16   0.2472939425E+02   0.1494149133E-04   0.1494149133E-04   0.1306857765E-14   0.1898391877E-14   0.9511499916E-15
   0.0000000000E+00   0.0000000000E+00   0.7590130018E+00   0.2472939425E+02   0.1494149134E-04   0.1494149134E-04   0.1318301168E-15   0.4139724664E-14  -0.8257565073E-15
   0.1750000000E+01   0.0000000000E+00   0.7590130018E+00   0.2472939425E+02   0.1494149134E-04   0.1494149134E-04  -0.1812798107E-14   0.9893651896E-15  -0.5879328496E-15
   0.1750000000E+01   0.7590130018E+00   0.7590130018E+00   0.2472939425E+02   0.1494149134E-04   0.1494149134E-04  -0.4440621410E-14  -0.2223626518E-14  -0.6441217617E-15
   0.0000000000E+00   0.7590130018E+00   0.7590130018E+00   0.2472939425E+02   0.1494149134E-04   0.1494149134E-04  -0.2498054607E-14   0.2180340554E-14   0.5909885350E-15
   0.3500000000E+01   0.0000000000E+00  -0.3513214726E-16   0.2472939426E+02   0.1494149134E-04   0.1494149134E-04   0.9931149333E-16   0.1045379380E-14   0.1299978691E-15
   0.3500000000E+01   0.7590130018E+00   0.3264800951E-17   0.2472939425E+02   0.1494149135E-04   0.1494149136E-04  -0.1484781504E-14   0.1912540652E-15  -0.6526820665E-15
   0.3500000000E+01   0.0000000000E+00   0.7590130018E+00   0.2472939425E+02   0.1494149134E-04   0.1494149134E-04  -0.3796627051E-15  -0.4074078261E-14   0.1292652797E-14
   0.3500000000E+01   0.7590130018E+00   0.7590130018E+00   0.2472939425E+02   0.1494149133E-04   0.1494149134E-04  -0.3005424586E-14   0.3088117566E-14   0.5099728618E-15
     1     2     3     4     5     6     7     8
     2     9    10     3     6    11    12     7
 VARIABLES = X,Y,Z,S11,S22,S33,S12,S13,S23
 ZONE, T="0.6000D+01" F=FEPOINT, I=   12 J=    2 ET=BRICK
   0.0000000000E+00   0.0000000000E+00   0.0000000000E+00   0.3057837307E+02   0.7057631995E-05   0.7057631990E-05   0.4196737366E-15  -0.1441973320E-13  -0.1495359997E-14
   0.1900000000E+01   0.0000000000E+00  -0.6007458628E-15   0.3057837307E+02   0.7057631996E-05   0.7057631994E-05   0.1495877998E-14   0.4167541940E-14  -0.7270785926E-15
   0.1900000000E+01   0.7291274411E+00  -0.6869052946E-15   0.3057837306E+02   0.7057631988E-05   0.7057631987E-05  -0.1077987924E-13   0.3307809448E-14  -0.3373419853E-14
   0.0000000000E+00   0.7291274411E+00  -0.2135771196E-15   0.3057837307E+02   0.7057632007E-05   0.7057632002E-05   0.2333418504E-14  -0.9757583881E-14  -0.5036725339E-14
   0.0000000000E+00   0.0000000000E+00   0.7291274411E+00   0.3057837307E+02   0.7057631988E-05   0.7057631988E-05  -0.4603774855E-15  -0.7451013103E-14   0.1187136276E-14
   0.1900000000E+01   0.0000000000E+00   0.7291274411E+00   0.3057837306E+02   0.7057631974E-05   0.7057631980E-05   0.2940481199E-14   0.5517788351E-14  -0.1990891382E-16
   0.1900000000E+01   0.7291274411E+00   0.7291274411E+00   0.3057837306E+02   0.7057631989E-05   0.7057631989E-05   0.1212570133E-13   0.1220370698E-14  -0.2666250174E-14
   0.0000000000E+00   0.7291274411E+00   0.7291274411E+00   0.3057837306E+02   0.7057631980E-05   0.7057631981E-05  -0.7803827323E-14  -0.9467794913E-14  -0.2354229067E-14
   0.3800000000E+01   0.0000000000E+00  -0.5478931169E-15   0.3057837307E+02   0.7057631959E-05   0.7057631971E-05  -0.6121726030E-15   0.6654263765E-14  -0.3663048963E-14
   0.3800000000E+01   0.7291274411E+00  -0.1065263607E-14   0.3057837306E+02   0.7057631968E-05   0.7057631982E-05  -0.2707743184E-13  -0.7567263338E-14   0.9436237926E-14
   0.3800000000E+01   0.0000000000E+00   0.7291274411E+00   0.3057837306E+02   0.7057632007E-05   0.7057631988E-05  -0.3105687200E-15   0.2386036496E-14  -0.3385838449E-14
   0.3800000000E+01   0.7291274411E+00   0.7291274411E+00   0.3057837306E+02   0.7057632009E-05   0.7057632002E-05   0.2540332137E-13  -0.1203192980E-13   0.9713448439E-14
     1     2     3     4     5     6     7     8
     2     9    10     3     6    11    12     7
 VARIABLES = X,Y,Z,S11,S22,S33,S12,S13,S23
 ZONE, T="0.7000D+01" F=FEPOINT, I=   12 J=    2 ET=BRICK
   0.0000000000E+00   0.0000000000E+00   0.0000000000E+00   0.3679124684E+02   0.3547822225E-05   0.3547822254E-05  -0.3137140501E-15  -0.5311628121E-13  -0.7380058252E-14
   0.2050000000E+01   0.0000000000E+00  -0.1745969707E-14   0.3679124684E+02   0.3547822499E-05   0.3547822458E-05   0.5174608681E-14   0.1484050174E-13   0.1093976907E-13
   0.2050000000E+01   0.7026489708E+00  -0.1800872297E-15   0.3679124684E+02   0.3547822496E-05   0.3547822455E-05  -0.1101034789E-13  -0.5515459083E-14  -0.2852722610E-13
   0.0000000000E+00   0.7026489708E+00  -0.1042102038E-14   0.3679124684E+02   0.3547822206E-05   0.3547822234E-05   0.1617868890E-12   0.3365918502E-13   0.2283409361E-13
   0.0000000000E+00   0.0000000000E+00   0.7026489708E+00   0.3679124684E+02   0.3547822282E-05   0.3547822249E-05  -0.3476106849E-15  -0.4376537798E-13  -0.6595908532E-14
   0.2050000000E+01   0.0000000000E+00   0.7026489708E+00   0.3679124684E+02   0.3547822359E-05   0.3547822402E-05  -0.5056186005E-15   0.1717116324E-13   0.1026861510E-13
   0.2050000000E+01   0.7026489708E+00   0.7026489708E+00   0.3679124683E+02   0.3547822356E-05   0.3547822397E-05   0.1638201447E-13  -0.1491480987E-14  -0.2919838006E-13
   0.0000000000E+00   0.7026489708E+00   0.7026489708E+00   0.3679124684E+02   0.3547822287E-05   0.3547822254E-05  -0.1606915225E-12   0.3533724757E-13   0.2361824332E-13
   0.4100000000E+01   0.0000000000E+00  -0.2266001721E-15   0.3679124684E+02   0.3547822492E-05   0.3547822549E-05   0.1099643397E-14   0.4789739632E-13  -0.1585314203E-13
   0.4100000000E+01   0.7026489708E+00  -0.2506845654E-14   0.3679124684E+02   0.3547822496E-05   0.3547822553E-05  -0.1933708728E-12  -0.6508014812E-13   0.3732758880E-13
   0.4100000000E+01   0.0000000000E+00   0.7026489708E+00   0.3679124684E+02   0.3547822694E-05   0.3547822641E-05  -0.6504178875E-15   0.4320781611E-13  -0.1380801970E-13
   0.4100000000E+01   0.7026489708E+00   0.7026489708E+00   0.3679124683E+02   0.3547822694E-05   0.3547822642E-05   0.1934687600E-12  -0.5871025448E-13   0.3937271112E-13
     1     2     3     4     5     6     7     8
     2     9    10     3     6    11    12     7
 VARIABLES = X,Y,Z,S11,S22,S33,S12,S13,S23
 ZONE, T="0.8000D+01" F=FEPOINT, I=   12 J=    2 ET=BRICK
   0.0000000000E+00   0.0000000000E+00   0.0000000000E+00   0.4337844401E+02   0.1879100344E-05   0.1879100272E-05   0.1953153542E-15   0.1148991718E-12   0.2585772029E-13
   0.2200000000E+01   0.0000000000E+00   0.3555252858E-14   0.4337844401E+02   0.1879100046E-05   0.1879100123E-05   0.1925441275E-17   0.8154005809E-14  -0.2227098466E-13
   0.2200000000E+01   0.6789886336E+00   0.2589527533E-15   0.4337844401E+02   0.1879100046E-05   0.1879100122E-05  -0.1114498744E-13  -0.4128767633E-14   0.5721639770E-13
   0.0000000000E+00   0.6789886336E+00   0.3796175955E-14   0.4337844401E+02   0.1879100343E-05   0.1879100263E-05  -0.3883070557E-12  -0.1108227596E-12  -0.5733010256E-13
   0.0000000000E+00   0.0000000000E+00   0.6789886336E+00   0.4337844401E+02   0.1879100055E-05   0.1879100147E-05   0.1135120864E-15   0.9398298158E-13   0.2015395812E-13
   0.2200000000E+01   0.0000000000E+00   0.6789886336E+00   0.4337844401E+02   0.1879100325E-05   0.1879100247E-05   0.1105836857E-14   0.2930892499E-14  -0.2185706041E-13
   0.2200000000E+01   0.6789886336E+00   0.6789886336E+00   0.4337844400E+02   0.1879100329E-05   0.1879100251E-05   0.1388977386E-13  -0.3227398029E-14   0.5763032194E-13
   0.0000000000E+00   0.6789886336E+00   0.6789886336E+00   0.4337844400E+02   0.1879100020E-05   0.1879100103E-05   0.3912351217E-12  -0.1094526372E-12  -0.6303386472E-13
   0.4400000000E+01   0.0000000000E+00   0.3757852705E-15   0.4337844401E+02   0.1879100305E-05   0.1879100242E-05   0.5107363238E-15  -0.1010109098E-12   0.1600213332E-13
   0.4400000000E+01   0.6789886336E+00   0.2781926643E-14   0.4337844401E+02   0.1879100305E-05   0.1879100242E-05   0.3667192816E-12   0.8558388394E-13  -0.5200416310E-13
   0.4400000000E+01   0.0000000000E+00   0.6789886336E+00   0.4337844401E+02   0.1879100075E-05   0.1879100145E-05  -0.1399587891E-15  -0.9054094616E-13   0.1507792947E-13
   0.4400000000E+01   0.6789886336E+00   0.6789886336E+00   0.4337844400E+02   0.1879100072E-05   0.1879100143E-05  -0.3656936944E-12   0.8601650080E-13  -0.5292836694E-13
     1     2     3     4     5     6     7     8
     2     9    10     3     6    11    12     7
 VARIABLES = X,Y,Z,S11,S22,S33,S12,S13,S23
 ZONE, T="0.9000D+01" F=FEPOINT, I=   12 J=    2 ET=BRICK
   0.0000000000E+00   0.0000000000E+00   0.0000000000E+00   0.5034680134E+02   0.1040463920E-05   0.1040463983E-05  -0.2568769197E-15  -0.8618566744E-13  -0.1686628088E-13
   0.2350000000E+01   0.0000000000E+00  -0.2438084535E-14   0.5034680134E+02   0.1040464193E-05   0.1040464113E-05   0.2691023504E-14   0.7733258880E-14   0.1813918358E-13
   0.2350000000E+01   0.6576908986E+00   0.3269936749E-15   0.5034680133E+02   0.1040464182E-05   0.1040464116E-05  -0.5692248609E-14  -0.6555208517E-15  -0.5449160685E-13
   0.0000000000E+00   0.6576908986E+00  -0.2583365721E-14   0.5034680133E+02   0.1040463874E-05   0.1040463942E-05   0.3888129022E-12   0.1027515549E-12   0.5165848570E-13
   0.0000000000E+00   0.0000000000E+00   0.6576908986E+00   0.5034680133E+02   0.1040464162E-05   0.1040464091E-05   0.1090800496E-15  -0.9226707308E-13  -0.1711508063E-13
   0.2350000000E+01   0.0000000000E+00   0.6576908986E+00   0.5034680133E+02   0.1040463896E-05   0.1040463966E-05  -0.9905601914E-15   0.1018666568E-13   0.1694351932E-13
   0.2350000000E+01   0.6576908986E+00   0.6576908986E+00   0.5034680132E+02   0.1040463888E-05   0.1040463949E-05   0.1294516407E-13  -0.2375584915E-14  -0.5568727110E-13
   0.0000000000E+00   0.6576908986E+00   0.6576908986E+00   0.5034680133E+02   0.1040464179E-05   0.1040464110E-05  -0.3793748620E-12   0.9694233209E-13   0.5140968594E-13
   0.4700000000E+01   0.0000000000E+00   0.2358453939E-15   0.5034680133E+02   0.1040463840E-05   0.1040463938E-05   0.7259071843E-15   0.9136936067E-13  -0.2054385199E-13
   0.4700000000E+01   0.6576908986E+00  -0.2917324993E-14   0.5034680133E+02   0.1040463870E-05   0.1040463943E-05  -0.4051104162E-12  -0.1108244246E-12   0.6068868485E-13
   0.4700000000E+01   0.0000000000E+00   0.6576908986E+00   0.5034680133E+02   0.1040464236E-05   0.1040464144E-05  -0.7737617345E-15   0.1023575799E-12  -0.2302493810E-13
   0.4700000000E+01   0.6576908986E+00   0.6576908986E+00   0.5034680132E+02   0.1040464228E-05   0.1040464143E-05   0.4065816287E-12  -0.1084553299E-12   0.5820759872E-13
     1     2     3     4     5     6     7     8
     2     9    10     3     6    11    12     7
 VARIABLES = X,Y,Z,S11,S22,S33,S12,S13,S23
 ZONE, T="0.1000D+02" F=FEPOINT, I=   12 J=    2 ET=BRICK
   0.0000000000E+00   0.0000000000E+00   0.0000000000E+00   0.5770060746E+02   0.5985459507E-06   0.5985458940E-06   0.2766506321E-16   0.4609292779E-13   0.1038576214E-13
   0.2500000000E+01   0.0000000000E+00   0.1252705722E-14   0.5770060746E+02   0.5985455715E-06   0.5985456219E-06  -0.2529502845E-14   0.3126928487E-14  -0.9247868874E-14
   0.2500000000E+01   0.6383971140E+00  -0.1922374402E-15   0.5770060745E+02   0.5985455715E-06   0.5985456094E-06  -0.1779292564E-13  -0.3867376452E-14   0.3184838178E-13
   0.0000000000E+00   0.6383971140E+00   0.1634459476E-14   0.5770060745E+02   0.5985459723E-06   0.5985459130E-06  -0.2532705507E-12  -0.6223858984E-13  -0.3754105910E-13
   0.0000000000E+00   0.0000000000E+00   0.6383971140E+00   0.5770060745E+02   0.5985457198E-06   0.5985457620E-06   0.3731169872E-15   0.6875744756E-13   0.1268214507E-13
   0.2500000000E+01   0.0000000000E+00   0.6383971140E+00   0.5770060745E+02   0.5985457732E-06   0.5985457285E-06   0.4506675571E-15   0.6420173078E-14  -0.1172954284E-13
   0.2500000000E+01   0.6383971140E+00   0.6383971140E+00   0.5770060744E+02   0.5985457623E-06   0.5985457180E-06   0.1563990531E-13  -0.2116038723E-14   0.2936670781E-13
   0.0000000000E+00   0.6383971140E+00   0.6383971140E+00   0.5770060744E+02   0.5985457143E-06   0.5985457800E-06   0.2557114211E-12  -0.7696531100E-13  -0.3524467617E-13
   0.5000000000E+01   0.0000000000E+00  -0.3622632634E-16   0.5770060745E+02   0.5985455616E-06   0.5985455204E-06  -0.9759629278E-15  -0.4859130415E-13   0.4663239903E-14
   0.5000000000E+01   0.6383971140E+00   0.7087424036E-15   0.5770060745E+02   0.5985455615E-06   0.5985455347E-06   0.2217954072E-12   0.3840179854E-13  -0.2789749774E-13
   0.5000000000E+01   0.0000000000E+00   0.6383971140E+00   0.5770060745E+02   0.5985454356E-06   0.5985454787E-06   0.9640234230E-15  -0.6466933473E-13   0.7443867731E-14
   0.5000000000E+01   0.6383971140E+00   0.6383971140E+00   0.5770060744E+02   0.5985454410E-06   0.5985454791E-06  -0.2239958052E-12   0.5663119515E-13  -0.2511686991E-13
     1     2     3     4     5     6     7     8
     2     9    10     3     6    11    12     7
 VARIABLES = X,Y,Z,S11,S22,S33,S12,S13,S23
 ZONE, T="0.1100D+02" F=FEPOINT, I=   12 J=    2 ET=BRICK
   0.0000000000E+00   0.0000000000E+00   0.0000000000E+00   0.5770060690E+02   0.2198355659E-07   0.2198396244E-07  -0.8317979196E-15  -0.1143742949E-12  -0.1511725191E-12
   0.2500000000E+01   0.0000000000E+00  -0.4937324775E-14   0.5770060690E+02   0.2198473987E-07   0.2198473952E-07  -0.1222777698E-13  -0.4768048586E-12   0.9086153458E-15
   0.2500000000E+01   0.6383971138E+00  -0.4776009979E-14   0.5770060690E+02   0.2198472117E-07   0.2198471340E-07   0.7856401665E-12   0.1740268493E-12   0.3802545957E-14
   0.0000000000E+00   0.6383971138E+00  -0.2397010273E-13   0.5770060690E+02   0.2198360195E-07   0.2198401151E-07   0.7635678691E-12   0.4715386576E-12   0.2437033819E-12
   0.0000000000E+00   0.0000000000E+00   0.6383971138E+00   0.5770060690E+02   0.2198624958E-07   0.2198587035E-07   0.3537137465E-15  -0.1232012697E-12  -0.1523376120E-12
   0.2500000000E+01   0.0000000000E+00   0.6383971138E+00   0.5770060690E+02   0.2198475238E-07   0.2198474629E-07   0.1541352944E-13  -0.4868116573E-12  -0.8659328873E-15
   0.2500000000E+01   0.6383971138E+00   0.6383971138E+00   0.5770060689E+02   0.2198475050E-07   0.2198475183E-07  -0.7815641936E-12   0.1727575228E-12   0.2027997724E-14
   0.0000000000E+00   0.6383971138E+00   0.6383971138E+00   0.5770060689E+02   0.2198620509E-07   0.2198581275E-07  -0.7391197821E-12   0.4521753196E-12   0.2425382890E-12
   0.5000000000E+01   0.0000000000E+00  -0.1118849039E-13   0.5770060690E+02   0.2198594756E-07   0.2198553182E-07  -0.8046410106E-15  -0.1589517510E-12   0.1643973161E-12
   0.5000000000E+01   0.6383971138E+00   0.1490822838E-13   0.5770060689E+02   0.2198593102E-07   0.2198551555E-07   0.8305315789E-12   0.4859255920E-12  -0.2556649022E-12
   0.5000000000E+01   0.0000000000E+00   0.6383971138E+00   0.5770060689E+02   0.2198313948E-07   0.2198355959E-07   0.5313595502E-15  -0.1701383737E-12   0.1680506523E-12
   0.5000000000E+01   0.6383971138E+00   0.6383971138E+00   0.5770060689E+02   0.2198319000E-07   0.2198361925E-07  -0.8539505906E-12   0.5027502770E-12  -0.2520115659E-12
     1     2     3     4     5     6     7     8
     2     9    10     3     6    11    12     7
