 VARIABLES = X,Y,Z,DU1,DU2,DU3,U1,U2,U3,S11,S22,S33,S12,S13,S23
 ZONE, T="0.1000D+01" F=FEPOINT, I= 4104 J= 3075 ET=BRICK
   0.6842839018E+00   0.9252451299E+00   0.4356256227E-04   0.6912459823E-02  -0.2519941099E-02   0.4356256227E-04   0.0000000000E+00   0.0000000000E+00   0.0000000000E+00   0.1556396494E+00  -0.7674100331E-02  -0.3054380456E-03  -0.3299366135E-01  -0.7233227169E-02   0.4691597675E-02
   0.4941180331E+00   0.1030581423E+01   0.2276630343E-03   0.6289421139E-02  -0.2971577148E-02   0.2276630343E-03   0.0000000000E+00   0.0000000000E+00   0.0000000000E+00   0.2056958741E+00   0.8259308271E-02   0.3637292203E-02  -0.2584335334E-01  -0.8056943383E-02   0.2592536905E-03
   0.4327283476E+00   0.9017074926E+00   0.2789333397E-03   0.6586608606E-02  -0.2948917432E-02   0.2789333397E-03   0.0000000000E+00   0.0000000000E+00   0.0000000000E+00   0.2200826013E+00   0.2741705471E-01   0.1964827635E-02  -0.8009353676E-01  -0.1613278519E-01   0.8116632757E-02
   0.5971637270E+00   0.8048164054E+00   0.5791636237E-04   0.7223834959E-02  -0.2630729575E-02   0.5791636237E-04   0.0000000000E+00   0.0000000000E+00   0.0000000000E+00   0.1258268335E+00   0.3304459377E-01   0.9961851678E-03  -0.6451594175E-01  -0.1513557593E-01   0.1032096645E-01
   0.6843778680E+00   0.9251944349E+00   0.1998949588E+00   0.7006425982E-02  -0.2570636145E-02  -0.1050441697E-03   0.0000000000E+00   0.0000000000E+00   0.0000000000E+00   0.1440921186E+00   0.6781773314E-02  -0.7689330692E-03  -0.3885865082E-01  -0.6035106581E-02   0.4127410752E-02
   0.4942267076E+00   0.1030594315E+01   0.2000076245E+00   0.6398095609E-02  -0.2958685296E-02   0.7621528144E-05   0.0000000000E+00   0.0000000000E+00   0.0000000000E+00   0.2093046449E+00   0.2195150187E-01   0.5518234423E-02  -0.3904846935E-01  -0.6342501015E-02   0.1545346805E-02
   0.4328363633E+00   0.9017253794E+00   0.2000424010E+00   0.6694624265E-02  -0.2931030559E-02   0.4239795815E-04   0.0000000000E+00   0.0000000000E+00   0.0000000000E+00   0.2266858122E+00   0.3886424138E-01   0.8534214336E-03  -0.9138173362E-01  -0.1352362960E-01   0.7289012291E-02
   0.5972587674E+00   0.8047668668E+00   0.1999039938E+00   0.7318875404E-02  -0.2680268161E-02  -0.9600923068E-04   0.0000000000E+00   0.0000000000E+00   0.0000000000E+00   0.1188503281E+00   0.4349888380E-01   0.5511011611E-03  -0.6920158531E-01  -0.1258444006E-01   0.9202748765E-02
   0.2798011120E+00   0.1094790711E+01   0.3821741894E-03   0.5696903958E-02  -0.3356799315E-02   0.3821741894E-03   0.0000000000E+00   0.0000000000E+00   0.0000000000E+00   0.2539189277E+00   0.2071747479E-01   0.7014945930E-02  -0.1589720758E-01  -0.6930012568E-02  -0.4547199692E-02
   0.2518443494E+00   0.9660784441E+00   0.4607185439E-03   0.5906614373E-02  -0.3207162890E-02   0.4607185439E-03   0.0000000000E+00   0.0000000000E+00   0.0000000000E+00   0.3120444016E+00   0.1213388370E-01   0.5408738235E-02  -0.6197449524E-01  -0.1288920021E-01   0.3076228417E-02
   0.2798819746E+00   0.1094871640E+01   0.2001011764E+00   0.5777766557E-02  -0.3275869993E-02   0.1011733779E-03   0.0000000000E+00   0.0000000000E+00   0.0000000000E+00   0.2743817308E+00   0.2818479726E-01   0.1065605167E-01  -0.2930138724E-01  -0.5354155368E-02  -0.7523229338E-03
   0.2519263898E+00   0.9661672174E+00   0.2001532737E+00   0.5988654777E-02  -0.3118389629E-02   0.1532706676E-03   0.0000000000E+00   0.0000000000E+00   0.0000000000E+00   0.3356334831E+00   0.2001022982E-01   0.6814657597E-02  -0.7397653222E-01  -0.1008461592E-01   0.3407080004E-02
   0.6263808863E-01   0.1126593209E+01   0.4523637911E-03   0.5138359529E-02  -0.3554011439E-02   0.4523637911E-03   0.0000000000E+00   0.0000000000E+00   0.0000000000E+00   0.2740266659E+00   0.2604545686E-01   0.7344867068E-02  -0.4247233989E-02  -0.1487504690E-02  -0.7122354986E-02
   0.6501301987E-01   0.9948729964E+00   0.5522224306E-03   0.5217558268E-02  -0.3337672598E-02   0.5522224306E-03   0.0000000000E+00   0.0000000000E+00   0.0000000000E+00   0.3671199339E+00   0.1411936057E-02   0.9018617460E-02  -0.1561952432E-01  -0.3342730549E-02  -0.1420900639E-02
   0.6265640321E-01   0.1126711457E+01   0.2001446387E+00   0.5156674114E-02  -0.3435763170E-02   0.1446357286E-03   0.0000000000E+00   0.0000000000E+00   0.0000000000E+00   0.3055638740E+00   0.2918476937E-01   0.1196342701E-01  -0.7537465124E-02  -0.1165618160E-02  -0.1982557252E-02
   0.6503454149E-01   0.9950015409E+00   0.2002074403E+00   0.5239079892E-02  -0.3209128067E-02   0.2074373175E-03   0.0000000000E+00   0.0000000000E+00   0.0000000000E+00   0.4013030934E+00   0.4543938282E-02   0.1154820515E-01  -0.1890068781E-01  -0.2595117936E-02   0.1244431935E-02
  -0.1601053050E+00   0.1124619984E+01   0.4210992061E-03   0.4593667988E-02  -0.3495435581E-02   0.4210992061E-03   0.0000000000E+00   0.0000000000E+00   0.0000000000E+00   0.2648881383E+00   0.2358674447E-01   0.7646694788E-02   0.6911253224E-02   0.4133768610E-02  -0.6424686557E-02
  -0.1263316773E+00   0.9881009003E+00   0.5259149905E-03   0.4512811658E-02  -0.3302023709E-02   0.5259149905E-03   0.0000000000E+00   0.0000000000E+00   0.0000000000E+00   0.3513151621E+00   0.4354656827E-02   0.7245233372E-02   0.4047469689E-01   0.8495503917E-02   0.7916212135E-03
  -0.1601585137E+00   0.1124723208E+01   0.2001249376E+00   0.4540459283E-02  -0.3392211645E-02   0.1249346317E-03   0.0000000000E+00   0.0000000000E+00   0.0000000000E+00   0.2920748237E+00   0.2871069397E-01   0.1198248820E-01   0.1610863989E-01   0.3468520174E-02  -0.1866719517E-02
  -0.1263814712E+00   0.9882173348E+00   0.2001928903E+00   0.4463017773E-02  -0.3185589199E-02   0.1928873387E-03   0.0000000000E+00   0.0000000000E+00   0.0000000000E+00   0.3826685448E+00   0.9969041754E-02   0.9399334486E-02   0.4918929394E-01   0.6206040140E-02   0.2068370726E-02
  -0.3868365430E+00   0.1089212200E+01   0.2939052918E-03   0.4028245984E-02  -0.3190850241E-02   0.2939052918E-03   0.0000000000E+00   0.0000000000E+00   0.0000000000E+00   0.2278194006E+00   0.1270017980E-01   0.5618680891E-02   0.1275160216E-01   0.8162950371E-02  -0.3840404878E-02
  -0.3243611437E+00   0.9415347155E+00   0.3792275071E-03   0.3781290322E-02  -0.3093523498E-02   0.3792275071E-03   0.0000000000E+00   0.0000000000E+00   0.0000000000E+00   0.2664399223E+00   0.1496989874E-01   0.2940889493E-02   0.7119564564E-01   0.1437402545E-01   0.7285091981E-02
  -0.3869339809E+00   0.1089257921E+01   0.2000469969E+00   0.3930808132E-02  -0.3145128717E-02   0.4699386938E-04   0.0000000000E+00   0.0000000000E+00   0.0000000000E+00   0.2373946812E+00   0.2321882348E-01   0.8998257987E-02   0.2751835599E-01   0.6312719053E-02  -0.1059293882E-02
  -0.3244610159E+00   0.9415882073E+00   0.2001056043E+00   0.3681418101E-02  -0.3040031684E-02   0.1056013323E-03   0.0000000000E+00   0.0000000000E+00   0.0000000000E+00   0.2808982231E+00   0.2850681295E-01   0.2483017818E-02   0.8413484180E-01   0.1183884479E-01   0.5926458109E-02
   0.7937757630E+00   0.1068767346E+01   0.2593586454E-04   0.6783152991E-02  -0.2474274053E-02   0.2593586454E-04   0.0000000000E+00   0.0000000000E+00   0.0000000000E+00   0.1714546904E+00  -0.2969089498E-01  -0.1339907564E-03  -0.4801810133E-02  -0.2688303770E-02   0.1024383526E-02
   0.5197291315E+00   0.1177643726E+01   0.1840449624E-03   0.6082648478E-02  -0.3080893555E-02   0.1840449624E-03   0.0000000000E+00   0.0000000000E+00   0.0000000000E+00   0.2025810992E+00  -0.3867882451E-02  -0.3258357519E-03   0.1727690288E-01  -0.5391620767E-02  -0.2954486544E-02
   0.7938434420E+00   0.1068731037E+01   0.1998835291E+00   0.6850832047E-02  -0.2510582882E-02  -0.1164739287E-03   0.0000000000E+00   0.0000000000E+00   0.0000000000E+00   0.1612302154E+00  -0.1821630607E-01  -0.5775671757E-03  -0.1047496842E-01  -0.1844226166E-02   0.6188833684E-03
   0.5198103105E+00   0.1177669404E+01   0.1999835722E+00   0.6163827538E-02  -0.3055215877E-02  -0.1643082567E-04   0.0000000000E+00   0.0000000000E+00   0.0000000000E+00   0.2015912420E+00   0.5783522440E-02  -0.6790355399E-03   0.2786134486E-02  -0.4242427946E-02  -0.1668326622E-02
   0.2844638184E+00   0.1237788572E+01   0.2863494170E-03   0.5548890383E-02  -0.3493177594E-02   0.2863494170E-03   0.0000000000E+00   0.0000000000E+00   0.0000000000E+00   0.2093160299E+00   0.2044139153E-01  -0.6824109422E-03   0.1560926049E-01  -0.3680044940E-02  -0.6105188590E-02
   0.2845208760E+00   0.1237868960E+01   0.2000492936E+00   0.5605948033E-02  -0.3412789546E-02   0.4929061071E-04   0.0000000000E+00   0.0000000000E+00   0.0000000000E+00   0.2223620216E+00   0.2414118778E-01  -0.1547432481E-02   0.3432381601E-02  -0.2968650360E-02  -0.3128651855E-02
   0.6234272215E-01   0.1268370021E+01   0.3228571105E-03   0.5107652554E-02  -0.3681079277E-02   0.3228571105E-03   0.0000000000E+00   0.0000000000E+00   0.0000000000E+00   0.2074790896E+00   0.3342115003E-01  -0.9366420966E-03   0.5041080782E-02  -0.8264199505E-03  -0.8103089693E-02
   0.6235425732E-01   0.1268475655E+01   0.2000732770E+00   0.5119187715E-02  -0.3575444633E-02   0.7327398276E-04   0.0000000000E+00   0.0000000000E+00   0.0000000000E+00   0.2268914872E+00   0.3314969762E-01  -0.2036737934E-02   0.2251346980E-02  -0.6301214344E-03  -0.4614245793E-02
  -0.1589282124E+00   0.1275057742E+01   0.2968355602E-03   0.4692885607E-02  -0.3631878491E-02   0.2968355602E-03   0.0000000000E+00   0.0000000000E+00   0.0000000000E+00   0.2027272388E+00   0.2909086755E-01  -0.9779817520E-03  -0.1053165124E-01   0.2274156906E-02  -0.7436755773E-02
  -0.1589630931E+00   0.1275153602E+01   0.2000568708E+00   0.4658004854E-02  -0.3536018500E-02   0.5686777565E-04   0.0000000000E+00   0.0000000000E+00   0.0000000000E+00   0.2188217844E+00   0.3042570100E-01  -0.2079911952E-02  -0.2239533186E-02   0.1817451119E-02  -0.4217741816E-02
  -0.3849687573E+00   0.1261504431E+01   0.2175491770E-03   0.4258930667E-02  -0.3360248709E-02   0.2175491770E-03   0.0000000000E+00   0.0000000000E+00   0.0000000000E+00   0.1962947410E+00   0.8145187080E-02  -0.1741498396E-02  -0.2098559855E-01   0.3731300235E-02  -0.3922697431E-02
  -0.3850313535E+00   0.1261560904E+01   0.2000067524E+00   0.4196334505E-02  -0.3303775797E-02   0.6749399784E-05   0.0000000000E+00   0.0000000000E+00   0.0000000000E+00   0.2006410090E+00   0.1382869312E-01  -0.3319880460E-02  -0.7515451006E-02   0.2917717590E-02  -0.2116615414E-02
  -0.1705929943E+00   0.1442622575E+01   0.1804805695E-03   0.4724993694E-02  -0.3736584993E-02   0.1804805695E-03   0.0000000000E+00   0.0000000000E+00   0.0000000000E+00   0.1723549921E+00   0.2463833476E-01   0.3603074981E-03  -0.1600644291E-01   0.1055251033E-02  -0.3365285929E-02
  -0.3927919214E+00   0.1441017132E+01   0.1379577350E-03   0.4361813615E-02  -0.3498808194E-02   0.1379577350E-03   0.0000000000E+00   0.0000000000E+00   0.0000000000E+00   0.1734067179E+00   0.9197815196E-02   0.2845887793E-03  -0.2842891727E-01   0.1214663165E-02  -0.2032520270E-02
  -0.1706127394E+00   0.1442710319E+01   0.1999810144E+00   0.4705248598E-02  -0.3648841121E-02  -0.1898855551E-04   0.0000000000E+00   0.0000000000E+00   0.0000000000E+00   0.1794722256E+00   0.2264622182E-01  -0.7834805166E-03  -0.1029559867E-01   0.8158026414E-03  -0.3573497050E-02
  -0.3928252085E+00   0.1441077479E+01   0.1999534652E+00   0.4328526542E-02  -0.3438460911E-02  -0.4653776514E-04   0.0000000000E+00   0.0000000000E+00   0.0000000000E+00   0.1754538424E+00   0.9585022021E-02  -0.1053552340E-02  -0.1896549877E-01   0.9144239225E-03  -0.2324040052E-02
  -0.1838919264E+00   0.1621771441E+01   0.7577715698E-04   0.4740576568E-02  -0.3833189060E-02   0.7577715698E-04   0.0000000000E+00   0.0000000000E+00   0.0000000000E+00   0.1480880236E+00   0.1569033825E-01   0.3846464721E-03  -0.1660450259E-01   0.1933391704E-03  -0.3896378875E-02
  -0.4049744529E+00   0.1623878873E+01   0.6226744404E-04   0.4423447083E-02  -0.3615936511E-02   0.6226744404E-04   0.0000000000E+00   0.0000000000E+00   0.0000000000E+00   0.1516524341E+00   0.6378534217E-02   0.1534840070E-03  -0.2841137703E-01   0.1776265811E-03  -0.2701212918E-02
  -0.1838990789E+00   0.1621850310E+01   0.1999125680E+00   0.4733424133E-02  -0.3754320154E-02  -0.8743497508E-04   0.0000000000E+00   0.0000000000E+00   0.0000000000E+00   0.1498007546E+00   0.1323830754E-01  -0.9447257705E-04  -0.1193669610E-01   0.2630751839E-04  -0.1794464437E-02
  -0.4049853774E+00   0.1623936165E+01   0.1999042660E+00   0.4412522567E-02  -0.3558644876E-02  -0.9573701600E-04   0.0000000000E+00   0.0000000000E+00   0.0000000000E+00   0.1519395622E+00   0.5822484510E-02  -0.8574911102E-04  -0.2055991170E-01  -0.2352680112E-03  -0.1078899474E-02
  -0.1935168444E+00   0.1807455465E+01  -0.2392230698E-04   0.4768839622E-02  -0.3932075056E-02  -0.2392230698E-04   0.0000000000E+00   0.0000000000E+00   0.0000000000E+00   0.1181697393E+00   0.5289266042E-02  -0.1744699691E-02  -0.1085093524E-01  -0.6281936685E-03  -0.2273366437E-02
  -0.4143828507E+00   0.1809232053E+01  -0.9913393268E-05   0.4498774315E-02  -0.3725946864E-02  -0.9913393268E-05   0.0000000000E+00   0.0000000000E+00   0.0000000000E+00   0.1269277400E+00   0.2313304067E-02  -0.1116456970E-02  -0.1840328697E-01  -0.1140414713E-02  -0.1516204336E-02
  -0.1935131402E+00   0.1807530166E+01   0.1998536866E+00   0.4772543815E-02  -0.3857373799E-02  -0.1463164259E-03   0.0000000000E+00   0.0000000000E+00   0.0000000000E+00   0.1155542754E+00   0.3088802010E-02  -0.3284306192E-02  -0.7673625234E-02  -0.6314417860E-03  -0.1004449888E-03
  -0.4143751819E+00   0.1809287836E+01   0.1998612754E+00   0.4506443058E-02  -0.3670163817E-02  -0.1387276270E-03   0.0000000000E+00   0.0000000000E+00   0.0000000000E+00   0.1249146784E+00   0.9310258346E-03  -0.2293355511E-02  -0.1295676610E-01  -0.1141918949E-02   0.1012192773E-04
  -0.2012515845E+00   0.1995990176E+01  -0.1044898288E-03   0.4839938522E-02  -0.4009824364E-02  -0.1044898288E-03   0.0000000000E+00   0.0000000000E+00   0.0000000000E+00   0.8555866597E-01   0.3638395086E-02  -0.1246310227E-02  -0.4698678566E-02  -0.2409809285E-02  -0.4946768941E-03
  -0.4219985604E+00   0.1996183267E+01  -0.6840224046E-04   0.4639208553E-02  -0.3816733113E-02  -0.6840224046E-04   0.0000000000E+00   0.0000000000E+00   0.0000000000E+00   0.1028692254E+00   0.2224859128E-02  -0.7336301748E-03  -0.7760935320E-02  -0.4130421410E-02  -0.4167523786E-03
  -0.2012456567E+00   0.1996061792E+01   0.1998013376E+00   0.4845866256E-02  -0.3938207784E-02  -0.1986653574E-03   0.0000000000E+00   0.0000000000E+00   0.0000000000E+00   0.8314529781E-01   0.2078100486E-02  -0.6657500786E-03  -0.2737849485E-02  -0.2228791427E-02   0.6845924898E-03
  -0.4219878069E+00   0.1996236371E+01   0.1998231157E+00   0.4649962054E-02  -0.3763629453E-02  -0.1768872511E-03   0.0000000000E+00   0.0000000000E+00   0.0000000000E+00   0.1016329039E+00   0.1289927937E-02   0.7465674407E-04  -0.4546202805E-02  -0.3873878045E-02   0.4888658047E-03
   0.5149319973E-01   0.1433863861E+01   0.2000827466E-03   0.5073698429E-02  -0.3792299397E-02   0.2000827466E-03   0.0000000000E+00   0.0000000000E+00   0.0000000000E+00   0.1738216656E+00   0.2947972544E-01   0.5831257207E-03   0.3961499793E-02  -0.1297000197E-03  -0.3774534890E-02
   0.5149807258E-01   0.1433960154E+01   0.1999935310E+00   0.5078571279E-02  -0.3696006257E-02  -0.6472044621E-05   0.0000000000E+00   0.0000000000E+00   0.0000000000E+00   0.1833592342E+00   0.2676073413E-01  -0.5490247441E-03   0.2503760271E-02  -0.1110663951E-03  -0.3936874865E-02
   0.3863319384E-01   0.1614479836E+01   0.8517314410E-04   0.5046777443E-02  -0.3893324178E-02   0.8517314410E-04   0.0000000000E+00   0.0000000000E+00   0.0000000000E+00   0.1477284625E+00   0.1941326113E-01   0.4729068292E-03   0.2626764826E-02   0.2936446358E-04  -0.4467488671E-02
   0.3863412969E-01   0.1614565514E+01   0.1999185063E+00   0.5047713291E-02  -0.3807645761E-02  -0.8149669856E-04   0.0000000000E+00   0.0000000000E+00   0.0000000000E+00   0.1505381053E+00   0.1648309921E-01   0.1530759357E-03   0.1805188737E-02   0.4902892543E-04  -0.2234270863E-02
   0.2889918245E-01   0.1803448591E+01  -0.2618037843E-04   0.5027775546E-02  -0.3995269204E-02  -0.2618037843E-04   0.0000000000E+00   0.0000000000E+00   0.0000000000E+00   0.1157893587E+00   0.6867396595E-02  -0.1900072712E-02   0.1308827957E-02   0.3954683855E-04  -0.2560586980E-02
   0.2889862865E-01   0.1803529651E+01   0.1998526185E+00   0.5027221745E-02  -0.3914208705E-02  -0.1473844573E-03   0.0000000000E+00   0.0000000000E+00   0.0000000000E+00   0.1129061448E+00   0.4139505950E-02  -0.3755123184E-02   0.9162006468E-03   0.9885739183E-04  -0.2126534211E-03
   0.2137328884E-01   0.1995926851E+01  -0.1165027615E-03   0.5013259242E-02  -0.4073148690E-02  -0.1165027615E-03   0.0000000000E+00   0.0000000000E+00   0.0000000000E+00   0.7945650035E-01   0.4244817376E-02  -0.1519188267E-02   0.1213302982E-03   0.2739702178E-03  -0.5151224110E-03
   0.2137249616E-01   0.1996004609E+01   0.1997941599E+00   0.5012466556E-02  -0.3995390566E-02  -0.2058430671E-03   0.0000000000E+00   0.0000000000E+00   0.0000000000E+00   0.7674270737E-01   0.2408412311E-02  -0.8998327295E-03  -0.1498944204E-03   0.1774073873E-03   0.8135420035E-03
   0.2761301490E+00   0.1411142758E+01   0.1856857277E-03   0.5440392989E-02  -0.3636431831E-02   0.1856857277E-03   0.0000000000E+00   0.0000000000E+00   0.0000000000E+00   0.1775834676E+00   0.2033540553E-01   0.3839364732E-03   0.2192823573E-01  -0.1267256150E-02  -0.3229434207E-02
   0.2761610712E+00   0.1411221843E+01   0.1999844879E+00   0.5471315187E-02  -0.3557346795E-02  -0.1551507847E-04   0.0000000000E+00   0.0000000000E+00   0.0000000000E+00   0.1846528427E+00   0.2007040213E-01  -0.4646510311E-03   0.1338960296E-01  -0.1118809457E-02  -0.3343296867E-02
   0.2630240138E+00   0.1600109827E+01   0.8555724664E-04   0.5362670801E-02  -0.3770103044E-02   0.8555724664E-04   0.0000000000E+00   0.0000000000E+00   0.0000000000E+00   0.1520800244E+00   0.1492899046E-01   0.5969335699E-03   0.2136194600E-01  -0.4188196941E-03  -0.3808776878E-02
   0.2630342035E+00   0.1600184142E+01   0.1999185601E+00   0.5372860456E-02  -0.3695787962E-02  -0.8144293052E-04   0.0000000000E+00   0.0000000000E+00   0.0000000000E+00   0.1538876561E+00   0.1298660129E-01   0.1915741452E-03   0.1520994706E-01  -0.4528276518E-04  -0.1953518635E-02
   0.2523727346E+00   0.1796582294E+01  -0.1634312760E-04   0.5292736627E-02  -0.3893776048E-02  -0.1634312760E-04   0.0000000000E+00   0.0000000000E+00   0.0000000000E+00   0.1210134937E+00   0.5306535883E-02  -0.1850679328E-02   0.1354289082E-01   0.7435818475E-03  -0.2262969304E-02
   0.2523683788E+00   0.1796653923E+01   0.1998584326E+00   0.5288380812E-02  -0.3822146939E-02  -0.1415703773E-03   0.0000000000E+00   0.0000000000E+00   0.0000000000E+00   0.1186734891E+00   0.3066567469E-02  -0.3427529354E-02   0.9618161099E-02   0.7166608130E-03  -0.1947995854E-03
   0.2442646948E+00   0.1996011028E+01  -0.9930801833E-04   0.5189704843E-02  -0.3988972210E-02  -0.9930801833E-04   0.0000000000E+00   0.0000000000E+00   0.0000000000E+00   0.8777316894E-01   0.3964916006E-02  -0.9724905862E-03   0.5333999564E-02   0.2769422179E-02  -0.2750027249E-03
   0.2442574339E+00   0.1996079967E+01   0.1998041276E+00   0.5182443868E-02  -0.3920033265E-02  -0.1958753607E-03   0.0000000000E+00   0.0000000000E+00   0.0000000000E+00   0.8543560694E-01   0.2196918304E-02  -0.2953476258E-03   0.2974898376E-02   0.2557288484E-02   0.7311638647E-03
   0.5087693201E+00   0.1374288326E+01   0.1385792380E-03   0.5860017107E-02  -0.3292913509E-02   0.1385792380E-03   0.0000000000E+00   0.0000000000E+00   0.0000000000E+00   0.1799052874E+00   0.1448164179E-02   0.4612715354E-03   0.2675827266E-01  -0.1776669263E-02  -0.1225654793E-02
   0.5088148205E+00   0.1374330456E+01   0.1999534646E+00   0.5905517457E-02  -0.3250784466E-02  -0.4653842239E-04   0.0000000000E+00   0.0000000000E+00   0.0000000000E+00   0.1803337593E+00   0.4907165715E-02  -0.1127077245E-03   0.1597480319E-01  -0.1477862709E-02  -0.1359590252E-02
   0.4909567383E+00   0.1579747961E+01   0.7430862386E-04   0.5710378289E-02  -0.3486108653E-02   0.7430862386E-04   0.0000000000E+00   0.0000000000E+00   0.0000000000E+00   0.1578399940E+00   0.3205865685E-02  -0.1198473043E-03   0.3181504303E-01  -0.4287957556E-03  -0.2563653404E-02
   0.4909728916E+00   0.1579796409E+01   0.1999121553E+00   0.5726531584E-02  -0.3437661414E-02  -0.8784772023E-04   0.0000000000E+00   0.0000000000E+00   0.0000000000E+00   0.1579234547E+00   0.3527222404E-02  -0.7099365680E-03   0.2300223837E-01   0.1013322819E-03  -0.1303590096E-02
   0.4769683871E+00   0.1787536382E+01   0.2674659936E-05   0.5582759115E-02  -0.3650908326E-02   0.2674659936E-05   0.0000000000E+00   0.0000000000E+00   0.0000000000E+00   0.1320817762E+00   0.2318298373E-02  -0.7525456332E-03   0.2072065379E-01   0.1027119966E-02  -0.1322772186E-02
   0.4769615147E+00   0.1787586604E+01   0.1998687224E+00   0.5575886657E-02  -0.3600686033E-02  -0.1312805612E-03   0.0000000000E+00   0.0000000000E+00   0.0000000000E+00   0.1304384438E+00   0.9553010672E-03  -0.1738806238E-02   0.1477153940E-01   0.1051867937E-02  -0.8633796847E-04
   0.4667528945E+00   0.1996221940E+01  -0.6000062871E-04   0.5397118516E-02  -0.3778059983E-02  -0.6000062871E-04   0.0000000000E+00   0.0000000000E+00   0.0000000000E+00   0.1060646447E+00   0.2330728666E-02  -0.7667563063E-03   0.8264432321E-02   0.4220902246E-02  -0.3793484925E-03
   0.4667409309E+00   0.1996270841E+01   0.1998281672E+00   0.5385154892E-02  -0.3729158737E-02  -0.1718358247E-03   0.0000000000E+00   0.0000000000E+00   0.0000000000E+00   0.1050558300E+00   0.1333153101E-02  -0.2698184157E-04   0.4592378462E-02   0.3985335991E-02   0.5932247274E-03
   0.7510919363E+00   0.1329626180E+01   0.7161295833E-04   0.6335357269E-02  -0.2842450446E-02   0.7161295833E-04   0.0000000000E+00   0.0000000000E+00   0.0000000000E+00   0.1758415286E+00  -0.1783726007E-01   0.5596843519E-03   0.2022709498E-01  -0.1414567174E-02   0.6150538819E-03
   0.7511352721E+00   0.1329628523E+01   0.1999102158E+00   0.6378693074E-02  -0.2840106846E-02  -0.8978717366E-04   0.0000000000E+00   0.0000000000E+00   0.0000000000E+00   0.1721337722E+00  -0.1230031646E-01  -0.7635517504E-04   0.1184944340E-01  -0.7022601296E-03   0.1168081879E-03
   0.7187919457E+00   0.1557776863E+01   0.5696857949E-04   0.6089373700E-02  -0.3117867339E-02   0.5696857949E-04   0.0000000000E+00   0.0000000000E+00   0.0000000000E+00   0.1610280945E+00  -0.7362718003E-02   0.8971833447E-04   0.3051625222E-01  -0.2585952897E-03  -0.1362806013E-02
   0.7188087652E+00   0.1557795497E+01   0.1999013791E+00   0.6106193188E-02  -0.3099232535E-02  -0.9862387247E-04   0.0000000000E+00   0.0000000000E+00   0.0000000000E+00   0.1602442711E+00  -0.4759433811E-02   0.6973775495E-04   0.2225405001E-01   0.1520441776E-03  -0.6219799408E-03
   0.6977553203E+00   0.1777710940E+01   0.2241024082E-04   0.5895002348E-02  -0.3328059797E-02   0.2241024082E-04   0.0000000000E+00   0.0000000000E+00   0.0000000000E+00   0.1431144445E+00  -0.1490046208E-02  -0.4089965903E-03   0.2153161216E-01   0.9809562804E-03  -0.4689199247E-03
   0.6977479085E+00   0.1777735869E+01   0.1998801912E+00   0.5887590494E-02  -0.3303131489E-02  -0.1198117520E-03   0.0000000000E+00   0.0000000000E+00   0.0000000000E+00   0.1424426032E+00  -0.1926205709E-02  -0.1105359882E-02   0.1533465025E-01   0.1116271366E-02  -0.2792665231E-04
   0.6876150891E+00   0.1996510296E+01  -0.1041692387E-04   0.5653851105E-02  -0.3489704481E-02  -0.1041692387E-04   0.0000000000E+00   0.0000000000E+00   0.0000000000E+00   0.1288832785E+00   0.8707351461E-03   0.8071703598E-04   0.9532613521E-02   0.4353004725E-02  -0.1043878043E-03
   0.6876013697E+00   0.1996534654E+01   0.1998583087E+00   0.5640131723E-02  -0.3465345978E-02  -0.1416942834E-03   0.0000000000E+00   0.0000000000E+00   0.0000000000E+00   0.1294129673E+00   0.5001244609E-03   0.9580689970E-03   0.5614886559E-02   0.4150731279E-02   0.2892140427E-03
   0.9205894738E+00   0.1772378151E+01   0.3921087553E-04   0.6233003813E-02  -0.2981239006E-02   0.3921087553E-04   0.0000000000E+00   0.0000000000E+00   0.0000000000E+00   0.1517633882E+00  -0.3918603004E-02   0.4590462242E-04   0.1744071413E-01   0.8248423483E-03   0.1104824047E-03
   0.9082620228E+00   0.1996826927E+01   0.3580420021E-04   0.5958505816E-02  -0.3173072788E-02   0.3580420021E-04   0.0000000000E+00   0.0000000000E+00   0.0000000000E+00   0.1494678034E+00  -0.6212439245E-03   0.5222142957E-03   0.7279638045E-02   0.3434905937E-02   0.1207810242E-03
   0.9205830913E+00   0.1772379536E+01   0.1998899993E+00   0.6226621322E-02  -0.2979854283E-02  -0.1100037480E-03   0.0000000000E+00   0.0000000000E+00   0.0000000000E+00   0.1523610178E+00  -0.3178792736E-02  -0.1381143725E-04   0.1240635021E-01   0.8273102091E-03  -0.4250740246E-05
   0.9082499982E+00   0.1996829125E+01   0.1998869126E+00   0.5946481159E-02  -0.3170875457E-02  -0.1130903736E-03   0.0000000000E+00   0.0000000000E+00   0.0000000000E+00   0.1509019978E+00  -0.5784954662E-03   0.9439386781E-03   0.4039766157E-02   0.3418525175E-02  -0.3598753289E-04
   0.1140928664E+01   0.1770099593E+01   0.5098074722E-04   0.6577644129E-02  -0.2662947211E-02   0.5098074722E-04   0.0000000000E+00   0.0000000000E+00   0.0000000000E+00   0.1575807875E+00  -0.4522587958E-02   0.7169701948E-03   0.1027981707E-01   0.3761541406E-03   0.7171313533E-03
   0.1127812397E+01   0.1997129307E+01   0.6970634586E-04   0.6304867429E-02  -0.2870693454E-02   0.6970634586E-04   0.0000000000E+00   0.0000000000E+00   0.0000000000E+00   0.1638988891E+00  -0.1597075544E-02   0.4546392733E-03   0.5231624543E-02   0.2259377399E-02   0.2010572217E-04
   0.1140924331E+01   0.1770083897E+01   0.1998964609E+00   0.6573310782E-02  -0.2678643150E-02  -0.1035421422E-03   0.0000000000E+00   0.0000000000E+00   0.0000000000E+00   0.1589509613E+00  -0.3474510239E-02   0.1122137021E-02   0.7061114881E-02   0.4081476699E-03   0.6052684740E-04
   0.1127804524E+01   0.1997115114E+01   0.1999084198E+00   0.6296994161E-02  -0.2884885765E-02  -0.9158316741E-04   0.0000000000E+00   0.0000000000E+00   0.0000000000E+00   0.1658698241E+00  -0.9709753514E-03   0.4678278019E-03   0.3112863547E-02   0.2241669843E-02  -0.2247149596E-03
   0.1359054458E+01   0.1769510535E+01   0.5597338277E-04   0.6926187885E-02  -0.2397504851E-02   0.5597338277E-04   0.0000000000E+00   0.0000000000E+00   0.0000000000E+00   0.1592026898E+00  -0.3930294443E-02   0.5686183839E-03   0.3305142626E-02   0.1083302141E-03   0.9287077428E-03
   0.1346199242E+01   0.1997390915E+01   0.8862661553E-04   0.6673542211E-02  -0.2609085034E-02   0.8862661553E-04   0.0000000000E+00   0.0000000000E+00   0.0000000000E+00   0.1718549986E+00  -0.1896219819E-02   0.6802589008E-03   0.1981736142E-02   0.9391168886E-03   0.1695309151E-03
   0.1359053292E+01   0.1769485608E+01   0.1998994561E+00   0.6925021650E-02  -0.2422431722E-02  -0.1005468517E-03   0.0000000000E+00   0.0000000000E+00   0.0000000000E+00   0.1607265081E+00  -0.3017764029E-02   0.9272469707E-03   0.1869157975E-02   0.1539734351E-03   0.5185547810E-04
   0.1346196114E+01   0.1997367022E+01   0.1999202858E+00   0.6670413964E-02  -0.2632977515E-02  -0.7971715876E-04   0.0000000000E+00   0.0000000000E+00   0.0000000000E+00   0.1739512736E+00  -0.1184591931E-02   0.5814881425E-03   0.9329694315E-03   0.9906238294E-03  -0.3200427446E-03
   0.1575692224E+01   0.1769715983E+01   0.5591578651E-04   0.7269433963E-02  -0.2192177333E-02   0.5591578651E-04   0.0000000000E+00   0.0000000000E+00   0.0000000000E+00   0.1582862162E+00  -0.2494667746E-02   0.8050259654E-03  -0.2048397332E-02  -0.1035946997E-03   0.9205979585E-03
   0.1563716403E+01   0.1997601672E+01   0.9247759218E-04   0.7052892859E-02  -0.2398328414E-02   0.9247759218E-04   0.0000000000E+00   0.0000000000E+00   0.0000000000E+00   0.1730243940E+00  -0.1848731540E-02   0.3037136181E-03   0.1855544384E-04  -0.1990958420E-04   0.5043259502E-04
   0.1575694096E+01   0.1769687795E+01   0.1998991896E+00   0.7271306377E-02  -0.2220365133E-02  -0.1008133838E-03   0.0000000000E+00   0.0000000000E+00   0.0000000000E+00   0.1597151039E+00  -0.1680908604E-02   0.1269608014E-02  -0.2233918696E-02  -0.4939966269E-04  -0.5418311528E-04
   0.1563717969E+01   0.1997574659E+01   0.1999231895E+00   0.7054459413E-02  -0.2425340608E-02  -0.7681351452E-04   0.0000000000E+00   0.0000000000E+00   0.0000000000E+00   0.1747182861E+00  -0.1091927134E-02  -0.1561068289E-03  -0.1058739331E-03   0.8744896566E-04  -0.3290222132E-03
   0.1791483729E+01   0.1770266860E+01   0.5040555167E-04   0.7606599192E-02  -0.2040419922E-02   0.5040555167E-04   0.0000000000E+00   0.0000000000E+00   0.0000000000E+00   0.1551712186E+00  -0.1461843708E-02   0.5281328926E-03  -0.5170267114E-02  -0.2765123996E-03   0.7780730401E-03
   0.1780684321E+01   0.1997762032E+01   0.8618585769E-04   0.7428140860E-02  -0.2237968452E-02   0.8618585769E-04   0.0000000000E+00   0.0000000000E+00   0.0000000000E+00   0.1700359195E+00  -0.1474086370E-02   0.3273303359E-03  -0.1621454174E-02  -0.5924995952E-03   0.1015733323E-03
   0.1791488344E+01   0.1770239516E+01   0.1998960017E+00   0.7611213538E-02  -0.2067764280E-02  -0.1040012800E-03   0.0000000000E+00   0.0000000000E+00   0.0000000000E+00   0.1562783436E+00  -0.8107245064E-03   0.8466890375E-03  -0.4606124185E-02  -0.1729264086E-03  -0.1313629583E-03
   0.1780689343E+01   0.1997735731E+01   0.1999193593E+00   0.7433163348E-02  -0.2264268873E-02  -0.8064373543E-04   0.0000000000E+00   0.0000000000E+00   0.0000000000E+00   0.1711868271E+00  -0.8277012696E-03  -0.1623433592E-03  -0.1282141419E-02  -0.4757235708E-03  -0.3249211190E-03
   0.2006835711E+01   0.1770957522E+01   0.4169902563E-04   0.7934101373E-02  -0.1933287559E-02   0.4169902563E-04   0.0000000000E+00   0.0000000000E+00   0.0000000000E+00   0.1511948955E+00  -0.5112744998E-03   0.5232066732E-03  -0.6647790508E-02  -0.3307400697E-03   0.6164468861E-03
   0.1997341076E+01   0.1997879634E+01   0.7296087171E-04   0.7793706252E-02  -0.2120366084E-02   0.7296087171E-04   0.0000000000E+00   0.0000000000E+00   0.0000000000E+00   0.1642733939E+00  -0.1178571550E-02   0.4310991314E-04  -0.2105413305E-02  -0.8608681768E-03   0.2837114186E-04
   0.2006842082E+01   0.1770933112E+01   0.1998906508E+00   0.7940471845E-02  -0.1957698355E-02  -0.1093522297E-03   0.0000000000E+00   0.0000000000E+00   0.0000000000E+00   0.1518366965E+00   0.3067900543E-04   0.8033500649E-03  -0.5756612032E-02  -0.2236287739E-03  -0.1897588010E-03
   0.1997348353E+01   0.1997856474E+01   0.1999113584E+00   0.7800982912E-02  -0.2143526281E-02  -0.8864458563E-04   0.0000000000E+00   0.0000000000E+00   0.0000000000E+00   0.1648176542E+00  -0.6339357566E-03  -0.5639796779E-03  -0.1498611861E-02  -0.7133160305E-03  -0.2704158622E-03
   0.2221972110E+01   0.1771698150E+01   0.3098771275E-04   0.8252499595E-02  -0.1859749720E-02   0.3098771275E-04   0.0000000000E+00   0.0000000000E+00   0.0000000000E+00   0.1466387849E+00  -0.2902097486E-04   0.3041308117E-03  -0.6797886756E-02  -0.3460212644E-03   0.4574291897E-03
   0.2213829154E+01   0.1997962875E+01   0.5723167079E-04   0.8144494178E-02  -0.2037124880E-02   0.5723167079E-04   0.0000000000E+00   0.0000000000E+00   0.0000000000E+00   0.1577617456E+00  -0.8156796841E-03   0.5357199008E-04  -0.2375049020E-02  -0.8851127855E-03   0.5648486129E-04
   0.2221979271E+01   0.1771677508E+01   0.1998842370E+00   0.8259660552E-02  -0.1880392439E-02  -0.1157659871E-03   0.0000000000E+00   0.0000000000E+00   0.0000000000E+00   0.1468626415E+00   0.4160728037E-03   0.4853513926E-03  -0.5829643028E-02  -0.2064753170E-03  -0.2129240780E-03
   0.2213837271E+01   0.1997943492E+01   0.1999015080E+00   0.8152611357E-02  -0.2056508164E-02  -0.9849504193E-04   0.0000000000E+00   0.0000000000E+00   0.0000000000E+00   0.1578000557E+00  -0.3965206368E-03  -0.4627606869E-03  -0.1748784136E-02  -0.7425963422E-03  -0.2233644503E-03
   0.2437002181E+01   0.1772448197E+01   0.2023380238E-04   0.8560891105E-02  -0.1811133235E-02   0.2023380238E-04   0.0000000000E+00   0.0000000000E+00   0.0000000000E+00   0.1422877756E+00   0.3462645049E-03   0.2689292974E-03  -0.6234237575E-02  -0.3023186334E-03   0.3301362092E-03
   0.2430225406E+01   0.1998020450E+01   0.4116009744E-04   0.8480816013E-02  -0.1979550253E-02   0.4116009744E-04   0.0000000000E+00   0.0000000000E+00   0.0000000000E+00   0.1511781428E+00  -0.6047275339E-03  -0.9150602111E-04  -0.2092173052E-02  -0.8033198404E-03   0.1682437793E-04
   0.2437009185E+01   0.1772431278E+01   0.1998776803E+00   0.8567894934E-02  -0.1828052297E-02  -0.1223227407E-03   0.0000000000E+00   0.0000000000E+00   0.0000000000E+00   0.1421631707E+00   0.7230686754E-03   0.4236367757E-03  -0.5349770492E-02  -0.1680161328E-03  -0.2208174992E-03
   0.2430233348E+01   0.1998004875E+01   0.1998915749E+00   0.8488758130E-02  -0.1995125314E-02  -0.1084280980E-03   0.0000000000E+00   0.0000000000E+00   0.0000000000E+00   0.1508422210E+00  -0.2727997145E-03  -0.5761601708E-03  -0.1505813017E-02  -0.6487769697E-03  -0.1683913511E-03
   0.2651969603E+01   0.1773178846E+01   0.1029673358E-04   0.8860762587E-02  -0.1779763546E-02   0.1029673358E-04   0.0000000000E+00   0.0000000000E+00   0.0000000000E+00   0.1383071831E+00   0.4659535038E-03   0.1378393155E-03  -0.5186122663E-02  -0.2526816549E-03   0.2287129787E-03
   0.2646557564E+01   0.1998059061E+01   0.2693515986E-04   0.8802883574E-02  -0.1940939379E-02   0.2693515986E-04   0.0000000000E+00   0.0000000000E+00   0.0000000000E+00   0.1454513984E+00  -0.3866298738E-03  -0.6118034564E-04  -0.1810686166E-02  -0.6486890313E-03   0.3452147629E-04
   0.2651975800E+01   0.1773165180E+01   0.1998717179E+00   0.8866959911E-02  -0.1793429767E-02  -0.1282851110E-03   0.0000000000E+00   0.0000000000E+00   0.0000000000E+00   0.1379555922E+00   0.7903741332E-03   0.2438905118E-03  -0.4453262734E-02  -0.1192646627E-03  -0.2141709090E-03
   0.2646564520E+01   0.1998046690E+01   0.1998826732E+00   0.8809840010E-02  -0.1953309608E-02  -0.1173297561E-03   0.0000000000E+00   0.0000000000E+00   0.0000000000E+00   0.1448722051E+00  -0.1396777140E-03  -0.4370762026E-03  -0.1342397562E-02  -0.5136023508E-03  -0.1317325265E-03
   0.2866865117E+01   0.1773844313E+01   0.2154933613E-05   0.9152847081E-02  -0.1760407236E-02   0.2154933613E-05   0.0000000000E+00   0.0000000000E+00   0.0000000000E+00   0.1350993419E+00   0.5708774685E-03   0.1251031797E-03  -0.3970863889E-02  -0.1840542835E-03   0.1600805613E-03
   0.2862810188E+01   0.1998084239E+01   0.1523721547E-04   0.9113368316E-02  -0.1915760639E-02   0.1523721547E-04   0.0000000000E+00   0.0000000000E+00   0.0000000000E+00   0.1407268235E+00  -0.2871972773E-03  -0.1284751162E-03  -0.1334156655E-02  -0.4824036130E-03   0.1060726398E-04
   0.2866870039E+01   0.1773833211E+01   0.1998667801E+00   0.9157769259E-02  -0.1771508830E-02  -0.1332229101E-03   0.0000000000E+00   0.0000000000E+00   0.0000000000E+00   0.1345961958E+00   0.8567349049E-03   0.2223890414E-03  -0.3423282545E-02  -0.7809417902E-04  -0.2041013422E-03
   0.2862815701E+01   0.1998074420E+01   0.1998754528E+00   0.9118881232E-02  -0.1925579816E-02  -0.1245502050E-03   0.0000000000E+00   0.0000000000E+00   0.0000000000E+00   0.1400102952E+00  -0.8817967179E-04  -0.4555656050E-03  -0.9798964124E-03  -0.3658748366E-03  -0.9830152020E-04
   0.3081619349E+01   0.1774385133E+01  -0.3932504076E-05   0.9439079029E-02  -0.1748996899E-02  -0.3932504076E-05   0.0000000000E+00   0.0000000000E+00   0.0000000000E+00   0.1326882663E+00   0.5615667750E-03   0.5411909314E-04  -0.2633984391E-02  -0.1331336509E-03   0.1117811538E-03
   0.3078913685E+01   0.1998099669E+01   0.6816401362E-05   0.9414435115E-02  -0.1900331404E-02   0.6816401362E-05   0.0000000000E+00   0.0000000000E+00   0.0000000000E+00   0.1373576552E+00  -0.1804092886E-03  -0.9209027401E-04  -0.8978250618E-03  -0.3251929538E-03   0.2398916711E-04
   0.3081622745E+01   0.1774375855E+01   0.1998631446E+00   0.9442475258E-02  -0.1758274991E-02  -0.1368583919E-03   0.0000000000E+00   0.0000000000E+00   0.0000000000E+00   0.1321078080E+00   0.8209747323E-03   0.1269273304E-03  -0.2269455645E-02  -0.5041473572E-04  -0.1925516866E-03
   0.3078917462E+01   0.1998091604E+01   0.1998701994E+00   0.9418211677E-02  -0.1908395813E-02  -0.1298036261E-03   0.0000000000E+00   0.0000000000E+00   0.0000000000E+00   0.1365686028E+00  -0.2608852207E-04  -0.3480153843E-03  -0.6683010707E-03  -0.2415292542E-03  -0.8037245906E-04
   0.3296077071E+01   0.1774757173E+01  -0.7588017460E-05   0.9720860987E-02  -0.1743167171E-02  -0.7588017460E-05   0.0000000000E+00   0.0000000000E+00   0.0000000000E+00   0.1312577541E+00   0.5916533391E-03   0.6572579403E-04  -0.1369995527E-02  -0.2884850262E-04   0.8759105158E-04
   0.3294720172E+01   0.1998108004E+01   0.1659842093E-05   0.9709121980E-02  -0.1891995523E-02   0.1659842093E-05   0.0000000000E+00   0.0000000000E+00   0.0000000000E+00   0.1352740420E+00  -0.1582069851E-03  -0.1311145914E-03  -0.4993862710E-03  -0.1186945742E-03   0.7825941999E-05
   0.3296078794E+01   0.1774748972E+01   0.1998609261E+00   0.9722584092E-02  -0.1751368292E-02  -0.1390768741E-03   0.0000000000E+00   0.0000000000E+00   0.0000000000E+00   0.1306340759E+00   0.8356082844E-03   0.1408996339E-03  -0.1200088044E-02  -0.3567309786E-05  -0.1851597577E-03
   0.3294722088E+01   0.1998101001E+01   0.1998670401E+00   0.9711038226E-02  -0.1898999150E-02  -0.1329628753E-03   0.0000000000E+00   0.0000000000E+00   0.0000000000E+00   0.1344556465E+00  -0.1894588040E-04  -0.3698597869E-03  -0.3924140935E-03  -0.8772622968E-04  -0.6631532880E-04
   0.3510000000E+01   0.1774907526E+01  -0.8852116311E-05   0.1000000000E-01  -0.1741354288E-02  -0.8852116311E-05   0.0000000000E+00   0.0000000000E+00   0.0000000000E+00   0.1307504025E+00   0.5646990182E-03   0.3008613847E-04   0.1707706967E-03  -0.1205492182E-03   0.7751210434E-04
   0.3510000000E+01   0.1998110590E+01   0.0000000000E+00   0.1000000000E-01  -0.1889409725E-02   0.0000000000E+00   0.0000000000E+00   0.0000000000E+00   0.0000000000E+00   0.1346181980E+00  -0.1219732065E-03  -0.9637787222E-04   0.2196904598E-03  -0.1404131324E-03   0.2082736439E-04
   0.3510000000E+01   0.1774899682E+01   0.1998601885E+00   0.1000000000E-01  -0.1749198106E-02  -0.1398144595E-03   0.0000000000E+00   0.0000000000E+00   0.0000000000E+00   0.1301181601E+00   0.8032174769E-03   0.9352964423E-04   0.2030036514E-03  -0.6637608028E-04  -0.1819513200E-03
   0.3510000000E+01   0.1998103913E+01   0.1998659851E+00   0.1000000000E-01  -0.1896086972E-02  -0.1340179438E-03   0.0000000000E+00   0.0000000000E+00   0.0000000000E+00   0.1337900597E+00   0.4168414220E-05  -0.3097498424E-03   0.2455473759E-03  -0.9488775988E-04  -0.6458161138E-04
   0.9466367250E+00   0.1547734959E+01   0.3655778222E-04   0.6472277984E-02  -0.2747191047E-02   0.3655778222E-04   0.0000000000E+00   0.0000000000E+00   0.0000000000E+00   0.1600551078E+00  -0.1343924994E-01   0.2125822000E-03   0.2157444609E-01  -0.4676515088E-03   0.1457363871E-03
   0.9466494153E+00   0.1547728873E+01   0.1998887152E+00   0.6484968334E-02  -0.2753276798E-02  -0.1112877564E-03   0.0000000000E+00   0.0000000000E+00   0.0000000000E+00   0.1587864701E+00  -0.1056069129E-01   0.2047240608E-03   0.1552975595E-01  -0.1516796160E-04   0.7834707617E-04
   0.1168663784E+01   0.1544169847E+01   0.2079250241E-04   0.6842534319E-02  -0.2428353441E-02   0.2079250241E-04   0.0000000000E+00   0.0000000000E+00   0.0000000000E+00   0.1550228564E+00  -0.1422153402E-01  -0.4323928591E-03   0.1008379206E-01  -0.2418509017E-03   0.9938778911E-03
   0.1168671460E+01   0.1544148898E+01   0.1998796443E+00   0.6850209962E-02  -0.2449301919E-02  -0.1203586596E-03   0.0000000000E+00   0.0000000000E+00   0.0000000000E+00   0.1536899580E+00  -0.1217561307E-01  -0.7229925023E-03   0.6752558417E-02   0.3639778043E-04   0.4232190240E-03
   0.1386071088E+01   0.1543467935E+01   0.1367681219E-04   0.7188207900E-02  -0.2178975024E-02   0.1367681219E-04   0.0000000000E+00   0.0000000000E+00   0.0000000000E+00   0.1493545501E+00  -0.1103676581E-01  -0.1990080395E-03   0.3334326574E-03  -0.3167550888E-04   0.1181021792E-02
   0.1386074816E+01   0.1543439955E+01   0.1998752403E+00   0.7191935875E-02  -0.2206955330E-02  -0.1247626524E-03   0.0000000000E+00   0.0000000000E+00   0.0000000000E+00   0.1487879471E+00  -0.9665399516E-02  -0.3185965512E-03  -0.8847986604E-03   0.8633050750E-04   0.3689002598E-03
   0.1600735877E+01   0.1543899801E+01   0.9932397954E-05   0.7513617156E-02  -0.1991128774E-02   0.9932397954E-05   0.0000000000E+00   0.0000000000E+00   0.0000000000E+00   0.1438186285E+00  -0.7341325223E-02  -0.4107229377E-03  -0.6432436117E-02  -0.5520369336E-04   0.1195020973E-02
   0.1600738134E+01   0.1543870368E+01   0.1998731964E+00   0.7515874216E-02  -0.2020562382E-02  -0.1268065677E-03   0.0000000000E+00   0.0000000000E+00   0.0000000000E+00   0.1439657755E+00  -0.6511509452E-02  -0.6071236262E-03  -0.6309660213E-02   0.2086151014E-04   0.2622519448E-03
   0.1813995310E+01   0.1544777603E+01   0.7289651348E-05   0.7821030032E-02  -0.1856477109E-02   0.7289651348E-05   0.0000000000E+00   0.0000000000E+00   0.0000000000E+00   0.1394705099E+00  -0.3789638170E-02  -0.2069271771E-03  -0.1037216350E-01  -0.6344394499E-04   0.1050941809E-02
   0.1813997574E+01   0.1544749776E+01   0.1998713568E+00   0.7823293506E-02  -0.1884304081E-02  -0.1286462093E-03   0.0000000000E+00   0.0000000000E+00   0.0000000000E+00   0.1398727316E+00  -0.3291072735E-02  -0.3395789178E-03  -0.9533584196E-02  -0.5850906178E-04   0.1438114787E-03
   0.2026596721E+01   0.1545846633E+01   0.3694893802E-05   0.8115940999E-02  -0.1762216678E-02   0.3694893802E-05   0.0000000000E+00   0.0000000000E+00   0.0000000000E+00   0.1357221711E+00  -0.1324936978E-02  -0.2510979206E-03  -0.1192357041E-01  -0.1148613275E-03   0.8892175374E-03
   0.2026599590E+01   0.1545821980E+01   0.1998690325E+00   0.8118809667E-02  -0.1786869816E-02  -0.1309704555E-03   0.0000000000E+00   0.0000000000E+00   0.0000000000E+00   0.1361406974E+00  -0.9827736608E-03  -0.3792006604E-03  -0.1077151046E-01  -0.8467714775E-04   0.4955700898E-04
   0.2238901904E+01   0.1546996385E+01  -0.5794447279E-06   0.8400494312E-02  -0.1699175290E-02  -0.5794447279E-06   0.0000000000E+00   0.0000000000E+00   0.0000000000E+00   0.1327022590E+00   0.4099252920E-03  -0.1257582339E-03  -0.1185008092E-01  -0.1194489987E-03   0.7015938739E-03
   0.2238905267E+01   0.1546975395E+01   0.1998661455E+00   0.8403856862E-02  -0.1720164706E-02  -0.1338574607E-03   0.0000000000E+00   0.0000000000E+00   0.0000000000E+00   0.1329658434E+00   0.6779997865E-03  -0.1964823878E-03  -0.1065954701E-01  -0.8687397678E-04  -0.2452933018E-04
   0.2451076566E+01   0.1548168684E+01  -0.5439618144E-05   0.8677775731E-02  -0.1657936151E-02  -0.5439618144E-05   0.0000000000E+00   0.0000000000E+00   0.0000000000E+00   0.1300732998E+00   0.1357873660E-02  -0.1351322356E-03  -0.1067007931E-01  -0.1235779500E-03   0.5496839080E-03
   0.2451080108E+01   0.1548151237E+01   0.1998630314E+00   0.8681318223E-02  -0.1675383459E-02  -0.1369715975E-03   0.0000000000E+00   0.0000000000E+00   0.0000000000E+00   0.1301716798E+00   0.1615502749E-02  -0.1842972006E-03  -0.9588527060E-02  -0.6505437136E-04  -0.7395599422E-04
   0.2663186480E+01   0.1549308952E+01  -0.1012610810E-04   0.8948969683E-02  -0.1632277840E-02  -0.1012610810E-04   0.0000000000E+00   0.0000000000E+00   0.0000000000E+00   0.1279555262E+00   0.1910249128E-02  -0.6076505398E-04  -0.8890997778E-02  -0.1068912701E-03   0.4177462795E-03
   0.2663189787E+01   0.1549294569E+01   0.1998600066E+00   0.8952276767E-02  -0.1646661195E-02  -0.1399964052E-03   0.0000000000E+00   0.0000000000E+00   0.0000000000E+00   0.1278942663E+00   0.2169766518E-02  -0.6818640964E-04  -0.8000033154E-02  -0.4674844674E-04  -0.1047038555E-03
   0.2875236090E+01   0.1550342551E+01  -0.1431692313E-04   0.9215890379E-02  -0.1616729269E-02  -0.1431692313E-04   0.0000000000E+00   0.0000000000E+00   0.0000000000E+00   0.1262268622E+00   0.2114770793E-02  -0.7105029529E-04  -0.6785095995E-02  -0.8527125807E-04   0.3253233967E-03
   0.2875238850E+01   0.1550330596E+01   0.1998573885E+00   0.9218650059E-02  -0.1628683950E-02  -0.1426145321E-03   0.0000000000E+00   0.0000000000E+00   0.0000000000E+00   0.1260532861E+00   0.2385689630E-02  -0.6836340798E-04  -0.6113639083E-02  -0.2631814569E-04  -0.1211505033E-03
   0.3087163755E+01   0.1551183904E+01  -0.1749789245E-04   0.9479354954E-02  -0.1608045925E-02  -0.1749789245E-04   0.0000000000E+00   0.0000000000E+00   0.0000000000E+00   0.1250075494E+00   0.2219173216E-02  -0.2683371835E-04  -0.4543873060E-02  -0.6305269630E-04   0.2579419528E-03
   0.3087165712E+01   0.1551173680E+01   0.1998553781E+00   0.9481311866E-02  -0.1618269855E-02  -0.1446248724E-03   0.0000000000E+00   0.0000000000E+00   0.0000000000E+00   0.1247548622E+00   0.2497379974E-02  -0.5022552694E-06  -0.4097464659E-02  -0.1847325436E-04  -0.1289616909E-03
   0.3298829468E+01   0.1551772312E+01  -0.1953681076E-04   0.9740507877E-02  -0.1603647987E-02  -0.1953681076E-04   0.0000000000E+00   0.0000000000E+00   0.0000000000E+00   0.1242376216E+00   0.2213313078E-02  -0.4427751623E-04  -0.2304224081E-02  -0.1498791254E-04   0.2224443147E-03
   0.3298830483E+01   0.1551763121E+01   0.1998541287E+00   0.9741523469E-02  -0.1612839406E-02  -0.1458742728E-03   0.0000000000E+00   0.0000000000E+00   0.0000000000E+00   0.1239438934E+00   0.2496165487E-02  -0.2004250399E-04  -0.2091780663E-02   0.4517032213E-05  -0.1317785464E-03
   0.3510000000E+01   0.1551992187E+01  -0.2019454265E-04   0.1000000000E-01  -0.1602402928E-02  -0.2019454265E-04   0.0000000000E+00   0.0000000000E+00   0.0000000000E+00   0.1240029298E+00   0.2234473768E-02  -0.1681635793E-04   0.1093973766E-03  -0.5704883198E-04   0.2084286091E-03
   0.3510000000E+01   0.1551983335E+01   0.1998537029E+00   0.1000000000E-01  -0.1611255152E-02  -0.1463001347E-03   0.0000000000E+00   0.0000000000E+00   0.0000000000E+00   0.1236942172E+00   0.2519218325E-02   0.1914343607E-04   0.1398008869E-03  -0.4031964358E-04  -0.1325842794E-03
   0.9894076479E+00   0.1319577484E+01   0.9388968630E-05   0.6780613863E-02  -0.2451625519E-02   0.9388968630E-05   0.0000000000E+00   0.0000000000E+00   0.0000000000E+00   0.1631301175E+00  -0.2525507098E-01  -0.2072055069E-03   0.8684812876E-02  -0.1272172134E-02   0.1135438120E-02
   0.9894362899E+00   0.1319555376E+01   0.1998722675E+00   0.6809255866E-02  -0.2473734429E-02  -0.1277354883E-03   0.0000000000E+00   0.0000000000E+00   0.0000000000E+00   0.1580987610E+00  -0.2046903655E-01  -0.5910919216E-03   0.4441563762E-02  -0.5412273288E-03   0.3409736797E-03
   0.1213317375E+01   0.1318410581E+01  -0.2046663242E-04   0.7159455002E-02  -0.2160369274E-02  -0.2046663242E-04   0.0000000000E+00   0.0000000000E+00   0.0000000000E+00   0.1500349125E+00  -0.2218092760E-01   0.2232722456E-03  -0.1567743040E-02  -0.1863352819E-03   0.8941184410E-03
   0.1213331089E+01   0.1318379195E+01   0.1998530925E+00   0.7173168849E-02  -0.2191754757E-02  -0.1469105448E-03   0.0000000000E+00   0.0000000000E+00   0.0000000000E+00   0.1459635170E+00  -0.1940674909E-01   0.2988278074E-03  -0.2855756205E-02   0.6853653314E-04   0.3111570632E-03
   0.1428553518E+01   0.1319357516E+01  -0.3146333468E-04   0.7490807726E-02  -0.1945493702E-02  -0.3146333468E-04   0.0000000000E+00   0.0000000000E+00   0.0000000000E+00   0.1390932128E+00  -0.1635189626E-01   0.2659778901E-04  -0.8929076731E-02  -0.7397963679E-04   0.8242525915E-03
   0.1428557974E+01   0.1319324358E+01   0.1998468275E+00   0.7495263747E-02  -0.1978652388E-02  -0.1531754590E-03   0.0000000000E+00   0.0000000000E+00   0.0000000000E+00   0.1370193509E+00  -0.1480115508E-01   0.4944240168E-04  -0.8730912090E-02   0.1761598064E-03   0.9781967221E-04
   0.1639500742E+01   0.1320601850E+01  -0.3334608773E-04   0.7787471839E-02  -0.1791920286E-02  -0.3334608773E-04   0.0000000000E+00   0.0000000000E+00   0.0000000000E+00   0.1313107934E+00  -0.9583853820E-02   0.2037678183E-03  -0.1324589206E-01   0.5957643073E-04   0.6815885412E-03
   0.1639501123E+01   0.1320570511E+01   0.1998457288E+00   0.7787853108E-02  -0.1823259088E-02  -0.1542742485E-03   0.0000000000E+00   0.0000000000E+00   0.0000000000E+00   0.1303727499E+00  -0.9133585531E-02   0.1927788177E-03  -0.1238027269E-01   0.7811912275E-04   0.3205035369E-04
   0.1848532034E+01   0.1321817934E+01  -0.3242968329E-04   0.8061723644E-02  -0.1681985648E-02  -0.3242968329E-04   0.0000000000E+00   0.0000000000E+00   0.0000000000E+00   0.1258091618E+00  -0.4294247885E-02   0.8639902255E-04  -0.1510467639E-01   0.1811116155E-04   0.6247784166E-03
   0.1848531082E+01   0.1321789846E+01   0.1998465188E+00   0.8060771892E-02  -0.1710073644E-02  -0.1534841647E-03   0.0000000000E+00   0.0000000000E+00   0.0000000000E+00   0.1255816455E+00  -0.4233744656E-02   0.4788643411E-04  -0.1394557489E-01   0.2613822890E-04  -0.2340148247E-04
   0.2056762394E+01   0.1323033553E+01  -0.3090096253E-04   0.8320504178E-02  -0.1606487204E-02  -0.3090096253E-04   0.0000000000E+00   0.0000000000E+00   0.0000000000E+00   0.1223016500E+00  -0.3147096228E-03   0.1185460906E-03  -0.1525576327E-01   0.2114926051E-04   0.5183810324E-03
   0.2056761528E+01   0.1323009259E+01   0.1998474247E+00   0.8319637816E-02  -0.1630781319E-02  -0.1525783023E-03   0.0000000000E+00   0.0000000000E+00   0.0000000000E+00   0.1223381737E+00  -0.5166583888E-03   0.6980213869E-04  -0.1405922243E-01  -0.1833921707E-04  -0.4199275295E-04
   0.2264668460E+01   0.1324276594E+01  -0.3004733329E-04   0.8569949729E-02  -0.1555175910E-02  -0.3004733329E-04   0.0000000000E+00   0.0000000000E+00   0.0000000000E+00   0.1199929991E+00   0.2168350932E-02   0.5405897497E-04  -0.1418324489E-01  -0.4919353346E-05   0.4530838401E-03
   0.2264668152E+01   0.1324255997E+01   0.1998479619E+00   0.8569641537E-02  -0.1575772674E-02  -0.1520411397E-03   0.0000000000E+00   0.0000000000E+00   0.0000000000E+00   0.1201130607E+00   0.1967775338E-02   0.7717525986E-05  -0.1306217344E-01  -0.1977514687E-04  -0.6246894170E-04
   0.2472442797E+01   0.1325524066E+01  -0.2991072135E-04   0.8813317102E-02  -0.1521974482E-02  -0.2991072135E-04   0.0000000000E+00   0.0000000000E+00   0.0000000000E+00   0.1185614149E+00   0.3657705010E-02   0.6530816556E-04  -0.1238307433E-01  -0.1495532557E-04   0.3701681452E-03
   0.2472443026E+01   0.1325506796E+01   0.1998479901E+00   0.8813546051E-02  -0.1539244418E-02  -0.1520129475E-03   0.0000000000E+00   0.0000000000E+00   0.0000000000E+00   0.1186483206E+00   0.3491951170E-02   0.3918010002E-04  -0.1141723972E-01  -0.2092562125E-04  -0.7177475779E-04
   0.2680160932E+01   0.1326726461E+01  -0.3043738855E-04   0.9053401810E-02  -0.1500819347E-02  -0.3043738855E-04   0.0000000000E+00   0.0000000000E+00   0.0000000000E+00   0.1175962582E+00   0.4377639892E-02   0.2550772289E-04  -0.1014186304E-01  -0.2184977599E-04   0.3164027170E-03
   0.2680161519E+01   0.1326711976E+01   0.1998476640E+00   0.9053989153E-02  -0.1515303598E-02  -0.1523390269E-03   0.0000000000E+00   0.0000000000E+00   0.0000000000E+00   0.1176211196E+00   0.4295613561E-02   0.3208670785E-05  -0.9356759422E-02  -0.1172675540E-04  -0.7986431010E-04
   0.2887837613E+01   0.1327811703E+01  -0.3121980686E-04   0.9291372596E-02  -0.1488227203E-02  -0.3121980686E-04   0.0000000000E+00   0.0000000000E+00   0.0000000000E+00   0.1169879273E+00   0.4705778779E-02   0.3796932577E-04  -0.7694756683E-02  -0.2194167961E-04   0.2627645760E-03
   0.2887838294E+01   0.1327799394E+01   0.1998471567E+00   0.9292054018E-02  -0.1500536164E-02  -0.1528463262E-03   0.0000000000E+00   0.0000000000E+00   0.0000000000E+00   0.1169489757E+00   0.4693180335E-02   0.3567970829E-04  -0.7108845837E-02  -0.7780535938E-05  -0.8287158906E-04
   0.3095440039E+01   0.1328701355E+01  -0.3204843839E-04   0.9528289085E-02  -0.1480955398E-02  -0.3204843839E-04   0.0000000000E+00   0.0000000000E+00   0.0000000000E+00   0.1165734243E+00   0.4777037961E-02   0.1112724645E-04  -0.5136849979E-02  -0.1926788386E-04   0.2327282981E-03
   0.3095440622E+01   0.1328690597E+01   0.1998466585E+00   0.9528872450E-02  -0.1491713241E-02  -0.1533444966E-03   0.0000000000E+00   0.0000000000E+00   0.0000000000E+00   0.1164834888E+00   0.4819739134E-02   0.6356766165E-05  -0.4745249674E-02  -0.4065620530E-05  -0.8447754613E-04
   0.3302882419E+01   0.1329334991E+01  -0.3260803043E-04   0.9764419268E-02  -0.1477459167E-02  -0.3260803043E-04   0.0000000000E+00   0.0000000000E+00   0.0000000000E+00   0.1163588020E+00   0.4794576028E-02   0.2638476728E-04  -0.2607468696E-02  -0.2707779977E-05   0.2085390421E-03
   0.3302882745E+01   0.1329325152E+01   0.1998463023E+00   0.9764745113E-02  -0.1487298012E-02  -0.1537006962E-03   0.0000000000E+00   0.0000000000E+00   0.0000000000E+00   0.1162386925E+00   0.4871554048E-02   0.3496357390E-04  -0.2422191821E-02   0.1782904407E-05  -0.8471650161E-04
   0.3510000000E+01   0.1329560954E+01  -0.3283456402E-04   0.1000000000E-01  -0.1476325650E-02  -0.3283456402E-04   0.0000000000E+00   0.0000000000E+00   0.0000000000E+00   0.1162738183E+00   0.4771822216E-02   0.6966891188E-05   0.1244755324E-03  -0.2664155295E-04   0.2053608991E-03
   0.3510000000E+01   0.1329551425E+01   0.1998461756E+00   0.1000000000E-01  -0.1485855422E-02  -0.1538273818E-03   0.0000000000E+00   0.0000000000E+00   0.0000000000E+00   0.1161421851E+00   0.4858400337E-02   0.7611779075E-05   0.1537376259E-03  -0.1284749593E-04  -0.8466512494E-04
   0.1052300602E+01   0.1083847076E+01  -0.5831781574E-04   0.7217082076E-02  -0.2114024189E-02  -0.5831781574E-04   0.0000000000E+00   0.0000000000E+00   0.0000000000E+00   0.1476098713E+00  -0.3340236591E-01  -0.9811305843E-03  -0.9301804784E-02  -0.1535939720E-02   0.7960011593E-03
   0.1052330843E+01   0.1083801646E+01   0.1998314269E+00   0.7247322711E-02  -0.2159453734E-02  -0.1685761318E-03   0.0000000000E+00   0.0000000000E+00   0.0000000000E+00   0.1397659062E+00  -0.2712400323E-01  -0.9676961030E-03  -0.9513598205E-02  -0.7578242437E-03   0.2011810276E-04
   0.1272831545E+01   0.1091975809E+01  -0.7956811103E-04   0.7547844817E-02  -0.1881720847E-02  -0.7956811103E-04   0.0000000000E+00   0.0000000000E+00   0.0000000000E+00   0.1321967923E+00  -0.2654824962E-01   0.1477805474E-03  -0.1656938899E-01   0.3892391989E-03   0.1457778095E-02
   0.1272841581E+01   0.1091933093E+01   0.1998168314E+00   0.7557880950E-02  -0.1924436739E-02  -0.1831715530E-03   0.0000000000E+00   0.0000000000E+00   0.0000000000E+00   0.1270056958E+00  -0.2347359217E-01   0.2512623001E-03  -0.1536093320E-01   0.4095941513E-03   0.1105847796E-03
   0.1481497187E+01   0.1096441207E+01  -0.8289608070E-04   0.7829806767E-02  -0.1722872746E-02  -0.8289608070E-04   0.0000000000E+00   0.0000000000E+00   0.0000000000E+00   0.1205136823E+00  -0.1803605397E-01  -0.2383448835E-03  -0.1921130407E-01  -0.6247982798E-04   0.9267832469E-03
   0.1481496486E+01   0.1096403269E+01   0.1998158599E+00   0.7829106107E-02  -0.1760811065E-02  -0.1841430900E-03   0.0000000000E+00   0.0000000000E+00   0.0000000000E+00   0.1186666621E+00  -0.1613307860E-01   0.7685118030E-04  -0.1745042065E-01   0.2189933436E-03  -0.1095542004E-03
   0.1685993333E+01   0.1098768688E+01  -0.7767726930E-04   0.8080142957E-02  -0.1608752410E-02  -0.7767726930E-04   0.0000000000E+00   0.0000000000E+00   0.0000000000E+00   0.1134835755E+00  -0.9395957075E-02   0.9296530826E-05  -0.1985338208E-01   0.2672721436E-03   0.9168422316E-03
   0.1685988893E+01   0.1098736475E+01   0.1998190452E+00   0.8075703053E-02  -0.1640964911E-02  -0.1809578079E-03   0.0000000000E+00   0.0000000000E+00   0.0000000000E+00   0.1127151956E+00  -0.8951005515E-02   0.3607810009E-04  -0.1807343585E-01   0.1011172739E-03  -0.1614452409E-03
   0.1889114776E+01   0.1100141264E+01  -0.7055597149E-04   0.8311186228E-02  -0.1528286278E-02  -0.7055597149E-04   0.0000000000E+00   0.0000000000E+00   0.0000000000E+00   0.1091689072E+00  -0.3066419111E-02  -0.1030830929E-03  -0.1899518624E-01   0.1051347824E-03   0.6946061961E-03
   0.1889109084E+01   0.1100114016E+01   0.1998237191E+00   0.8305494193E-02  -0.1555534031E-02  -0.1762839022E-03   0.0000000000E+00   0.0000000000E+00   0.0000000000E+00   0.1093478879E+00  -0.2941911497E-02   0.8479178234E-05  -0.1744264534E-01   0.1838013507E-04  -0.1668712166E-03
   0.2091837159E+01   0.1101295300E+01  -0.6335455464E-04   0.8529889240E-02  -0.1471089855E-02  -0.6335455464E-04   0.0000000000E+00   0.0000000000E+00   0.0000000000E+00   0.1072085106E+00   0.1658413039E-02  -0.1907026615E-04  -0.1728751396E-01   0.1566456888E-03   0.6171423603E-03
   0.2091832203E+01   0.1101272517E+01   0.1998279812E+00   0.8524933021E-02  -0.1493872595E-02  -0.1720218315E-03   0.0000000000E+00   0.0000000000E+00   0.0000000000E+00   0.1075582006E+00   0.1360339667E-02  -0.3676479745E-04  -0.1593965516E-01  -0.2642027490E-04  -0.1490057495E-03
   0.2294445525E+01   0.1102458031E+01  -0.5752633148E-04   0.8742105431E-02  -0.1431908761E-02  -0.5752633148E-04   0.0000000000E+00   0.0000000000E+00   0.0000000000E+00   0.1064744838E+00   0.4513661479E-02  -0.4308345972E-04  -0.1511544930E-01   0.7721388607E-04   0.4915201914E-03
   0.2294441542E+01   0.1102438891E+01   0.1998315372E+00   0.8738121737E-02  -0.1451048932E-02  -0.1684658424E-03   0.0000000000E+00   0.0000000000E+00   0.0000000000E+00   0.1069415014E+00   0.4245592074E-02  -0.1034634457E-04  -0.1401048291E-01  -0.2799333167E-04  -0.1263784269E-03
   0.2497012600E+01   0.1103624156E+01  -0.5310321951E-04   0.8951409909E-02  -0.1405073803E-02  -0.5310321951E-04   0.0000000000E+00   0.0000000000E+00   0.0000000000E+00   0.1065272509E+00   0.6237814573E-02  -0.1742988096E-04  -0.1269630099E-01   0.7816046579E-04   0.4242764863E-03
   0.2497009812E+01   0.1103608067E+01   0.1998341298E+00   0.8948622019E-02  -0.1421163471E-02  -0.1658731861E-03   0.0000000000E+00   0.0000000000E+00   0.0000000000E+00   0.1069055272E+00   0.5933906687E-02  -0.2898936800E-04  -0.1179254060E-01  -0.2595919332E-04  -0.1066192238E-03
   0.2699567937E+01   0.1104749618E+01  -0.5006264444E-04   0.9159946588E-02  -0.1387661705E-02  -0.5006264444E-04   0.0000000000E+00   0.0000000000E+00   0.0000000000E+00   0.1068786764E+00   0.7073280205E-02  -0.1306190604E-04  -0.1017683848E-01   0.3755801504E-04   0.3475215053E-03
   0.2699566049E+01   0.1104735918E+01   0.1998359474E+00   0.9158058608E-02  -0.1401361533E-02  -0.1640556405E-03   0.0000000000E+00   0.0000000000E+00   0.0000000000E+00   0.1071968295E+00   0.6868133319E-02   0.3751763454E-05  -0.9475285971E-02  -0.1692251854E-04  -0.9292054044E-04
   0.2902122245E+01   0.1105781014E+01  -0.4809061986E-04   0.9368884911E-02  -0.1376455635E-02  -0.4809061986E-04   0.0000000000E+00   0.0000000000E+00   0.0000000000E+00   0.1073202915E+00   0.7434147432E-02  -0.1190811296E-04  -0.7619526024E-02   0.3091051850E-04   0.3039398090E-03
   0.2902121106E+01   0.1105769163E+01   0.1998371059E+00   0.9367745794E-02  -0.1388306963E-02  -0.1628971382E-03   0.0000000000E+00   0.0000000000E+00   0.0000000000E+00   0.1075415921E+00   0.7270835996E-02  -0.1519041633E-04  -0.7101246947E-02  -0.1140520882E-04  -0.8210220477E-04
   0.3104679185E+01   0.1106650117E+01  -0.4690831021E-04   0.9578544653E-02  -0.1369953216E-02  -0.4690831021E-04   0.0000000000E+00   0.0000000000E+00   0.0000000000E+00   0.1077053398E+00   0.7530468049E-02  -0.1286681808E-05  -0.5060451855E-02   0.1391564090E-04   0.2627820092E-03
   0.3104678537E+01   0.1106639544E+01   0.1998378054E+00   0.9577896825E-02  -0.1380526458E-02  -0.1621975972E-03   0.0000000000E+00   0.0000000000E+00   0.0000000000E+00   0.1078719768E+00   0.7436114574E-02   0.1175169484E-04  -0.4719301217E-02  -0.5705225241E-05  -0.7599337548E-04
   0.3307260498E+01   0.1107287795E+01  -0.4630386892E-04   0.9788977812E-02  -0.1366465056E-02  -0.4630386892E-04   0.0000000000E+00   0.0000000000E+00   0.0000000000E+00   0.1079570303E+00   0.7525036095E-02  -0.8872055372E-05  -0.2550027684E-02   0.2636181504E-05   0.2464373693E-03
   0.3307260220E+01   0.1107277996E+01   0.1998381636E+00   0.9788700154E-02  -0.1376263801E-02  -0.1618394234E-03   0.0000000000E+00   0.0000000000E+00   0.0000000000E+00   0.1080759316E+00   0.7452703992E-02  -0.8847052883E-05  -0.2386852603E-02  -0.5620890449E-05  -0.7130372228E-04
   0.3510000000E+01   0.1107637760E+01  -0.4610175127E-04   0.1000000000E-01  -0.1365549544E-02  -0.4610175127E-04   0.0000000000E+00   0.0000000000E+00   0.0000000000E+00   0.1080495525E+00   0.7518755429E-02   0.7529389548E-06   0.8344132266E-04   0.1754259399E-04   0.2349512959E-03
   0.3510000000E+01   0.1107628207E+01   0.1998382807E+00   0.1000000000E-01  -0.1375102769E-02  -0.1617222838E-03   0.0000000000E+00   0.0000000000E+00   0.0000000000E+00   0.1081602734E+00   0.7467250480E-02   0.1228809870E-04   0.1049417868E-03   0.9902844932E-05  -0.7072177286E-04
   0.3314059090E+01   0.8860244384E+00  -0.5951959802E-04   0.9814090213E-02  -0.1270986605E-02  -0.5951959802E-04   0.0000000000E+00   0.0000000000E+00   0.0000000000E+00   0.1000128207E+00   0.1015935348E-01   0.7288509535E-05  -0.2179777277E-02   0.6752341547E-05   0.2174379589E-03
   0.3510000000E+01   0.8862167386E+00  -0.5904488933E-04   0.1000000000E-01  -0.1269719388E-02  -0.5904488933E-04   0.0000000000E+00   0.0000000000E+00   0.0000000000E+00   0.1002235283E+00   0.1013220768E-01   0.2710041705E-05   0.1461202946E-03   0.4398282319E-04   0.2172927539E-03
   0.3314058322E+01   0.8860151757E+00   0.1998302198E+00   0.9813322310E-02  -0.1280249296E-02  -0.1697832268E-03   0.0000000000E+00   0.0000000000E+00   0.0000000000E+00   0.1002753582E+00   0.9906166488E-02   0.2683926474E-05  -0.2051229930E-02  -0.1223005401E-04  -0.5895824987E-04
   0.3510000000E+01   0.8862076864E+00   0.1998305060E+00   0.1000000000E-01  -0.1278771629E-02  -0.1694969666E-03   0.0000000000E+00   0.0000000000E+00   0.0000000000E+00   0.1004706145E+00   0.9891160674E-02  -0.6751977689E-05   0.1695952283E-03   0.2685794227E-04  -0.5656154932E-04
   0.3321184578E+01   0.6648031705E+00  -0.7159936754E-04   0.9835897876E-02  -0.1188970493E-02  -0.7159936754E-04   0.0000000000E+00   0.0000000000E+00   0.0000000000E+00   0.9301583108E-01   0.1226958325E-01  -0.1459226255E-05  -0.1522825954E-02   0.9782258183E-05   0.2033993140E-03
   0.3510000000E+01   0.6648543590E+00  -0.7094064023E-04   0.1000000000E-01  -0.1187551956E-02  -0.7094064023E-04   0.0000000000E+00   0.0000000000E+00   0.0000000000E+00   0.9331639969E-01   0.1223214227E-01  -0.5542537062E-06   0.1294398191E-03   0.6598488467E-04   0.1957450671E-03
   0.3321183462E+01   0.6647950225E+00   0.1998229808E+00   0.9834781574E-02  -0.1197118532E-02  -0.1770221770E-03   0.0000000000E+00   0.0000000000E+00   0.0000000000E+00   0.9342613574E-01   0.1188305931E-01  -0.4771802613E-05  -0.1427637753E-02  -0.1791813271E-04  -0.5072612749E-04
   0.3510000000E+01   0.6648463319E+00   0.1998233767E+00   0.1000000000E-01  -0.1195579074E-02  -0.1766263261E-03   0.0000000000E+00   0.0000000000E+00   0.0000000000E+00   0.9371408933E-01   0.1186373039E-01  -0.5535510774E-07   0.1383383428E-03   0.3989762071E-04  -0.5118659983E-04
   0.3327385105E+01   0.4432518406E+00  -0.8189068635E-04   0.9852324708E-02  -0.1117714356E-02  -0.8189068635E-04   0.0000000000E+00   0.0000000000E+00   0.0000000000E+00   0.8757257526E-01   0.1358382527E-01   0.5532982901E-06  -0.7233642409E-03   0.1087964337E-04   0.1589657737E-03
   0.3510000000E+01   0.4432001855E+00  -0.8113499513E-04   0.1000000000E-01  -0.1115754470E-02  -0.8113499513E-04   0.0000000000E+00   0.0000000000E+00   0.0000000000E+00   0.8793206938E-01   0.1353102286E-01   0.1836310236E-05   0.2206661336E-03   0.7925590020E-04   0.1613645324E-03
   0.3327383770E+01   0.4432451386E+00   0.1998167952E+00   0.9850989557E-02  -0.1124416359E-02  -0.1832078072E-03   0.0000000000E+00   0.0000000000E+00   0.0000000000E+00   0.8806578394E-01   0.1309502034E-01  -0.4572980952E-05  -0.6688919237E-03  -0.2157325256E-04  -0.4203709081E-04
   0.3510000000E+01   0.4431935799E+00   0.1998172474E+00   0.1000000000E-01  -0.1122360056E-02  -0.1827556158E-03   0.0000000000E+00   0.0000000000E+00   0.0000000000E+00   0.8840866095E-01   0.1305740569E-01  -0.4089006212E-05   0.2343688909E-03   0.4719123128E-04  -0.3987508175E-04
   0.3331679142E+01   0.2215653261E+00  -0.8997139767E-04   0.9862222383E-02  -0.1053044856E-02  -0.8997139767E-04   0.0000000000E+00   0.0000000000E+00   0.0000000000E+00   0.8406695829E-01   0.1385005717E-01   0.9690713891E-06   0.1907262365E-03   0.1213077620E-04   0.1239645889E-03
   0.3510000000E+01   0.2213382801E+00  -0.8919131190E-04   0.1000000000E-01  -0.1050746891E-02  -0.8919131190E-04   0.0000000000E+00   0.0000000000E+00   0.0000000000E+00   0.8443998859E-01   0.1378832768E-01  -0.2422674493E-05   0.2250767965E-03   0.8341534844E-04   0.1192638134E-03
   0.3331677715E+01   0.2215603632E+00   0.1998119441E+00   0.9860795067E-02  -0.1058007848E-02  -0.1880588536E-03   0.0000000000E+00   0.0000000000E+00   0.0000000000E+00   0.8461160720E-01   0.1331234594E-01  -0.1445851366E-05   0.2096839694E-03  -0.2295620957E-04  -0.3003650697E-04
   0.3510000000E+01   0.2213333250E+00   0.1998124149E+00   0.1000000000E-01  -0.1055701969E-02  -0.1875880586E-03   0.0000000000E+00   0.0000000000E+00   0.0000000000E+00   0.8496944527E-01   0.1326771179E-01  -0.4644133598E-05   0.2218485670E-03   0.5090293966E-04  -0.3164377369E-04
   0.3334495771E+01   0.9577923288E-05  -0.9560580227E-04   0.9865990622E-02  -0.9905768367E-03  -0.9560580227E-04   0.0000000000E+00   0.0000000000E+00   0.0000000000E+00   0.8271982461E-01   0.1295347901E-01  -0.1576411507E-05   0.1084168239E-02   0.1190363939E-04   0.7486096424E-04
   0.3510000000E+01  -0.3012234633E-03  -0.9484484782E-04   0.1000000000E-01  -0.9876603553E-03  -0.9484484782E-04   0.0000000000E+00   0.0000000000E+00   0.0000000000E+00   0.8307930205E-01   0.1290143407E-01   0.2026705545E-05   0.3250058348E-03   0.8404579672E-04   0.7892764839E-04
   0.3334494372E+01   0.6388904919E-05   0.1998085604E+00   0.9864591790E-02  -0.9937658551E-03  -0.1914425607E-03   0.0000000000E+00   0.0000000000E+00   0.0000000000E+00   0.8325739181E-01   0.1241424392E-01  -0.5495268474E-05   0.1061661687E-02  -0.2200693632E-04  -0.2063650117E-04
   0.3510000000E+01  -0.3044206177E-03   0.1998090149E+00   0.1000000000E-01  -0.9908575097E-03  -0.1909881260E-03   0.0000000000E+00   0.0000000000E+00   0.0000000000E+00   0.8360188772E-01   0.1237822376E-01  -0.7133105461E-06   0.3277482967E-03   0.4982910208E-04  -0.1949792498E-04
   0.3118224310E+01   0.8856605331E+00  -0.6099384567E-04   0.9629180454E-02  -0.1274700871E-02  -0.6099384567E-04   0.0000000000E+00   0.0000000000E+00   0.0000000000E+00   0.9938518016E-01   0.1019460162E-01   0.2317346308E-05  -0.4296972111E-02   0.4286176892E-04   0.2358945066E-03
   0.3118222700E+01   0.8856506870E+00   0.1998293376E+00   0.9627569893E-02  -0.1284546959E-02  -0.1706653731E-03   0.0000000000E+00   0.0000000000E+00   0.0000000000E+00   0.9968260525E-01   0.9896752586E-02  -0.9834021890E-05  -0.4021775547E-02  -0.8535851690E-05  -0.6051465736E-04
   0.3132220265E+01   0.6646834768E+00  -0.7362461675E-04   0.9672874782E-02  -0.1193627236E-02  -0.7362461675E-04   0.0000000000E+00   0.0000000000E+00   0.0000000000E+00   0.9210797749E-01   0.1236368880E-01  -0.1085208605E-05  -0.3005273476E-02   0.6003308560E-04   0.2090342025E-03
   0.3132217942E+01   0.6646748964E+00   0.1998217680E+00   0.9670551880E-02  -0.1202207579E-02  -0.1782349694E-03   0.0000000000E+00   0.0000000000E+00   0.0000000000E+00   0.9256654062E-01   0.1193573519E-01  -0.3158725001E-06  -0.2805627769E-02  -0.1284854124E-04  -0.5564589699E-04
   0.3144368117E+01   0.4432922373E+00  -0.8421437663E-04   0.9705726707E-02  -0.1123302690E-02  -0.8421437663E-04   0.0000000000E+00   0.0000000000E+00   0.0000000000E+00   0.8649447426E-01   0.1372964000E-01   0.1853712775E-05  -0.1342500238E-02   0.7220435997E-04   0.1684888027E-03
   0.3144365357E+01   0.4432853102E+00   0.1998154009E+00   0.9702967353E-02  -0.1130229800E-02  -0.1846021235E-03   0.0000000000E+00   0.0000000000E+00   0.0000000000E+00   0.8703478097E-01   0.1319257439E-01  -0.4552722505E-05  -0.1222074770E-02  -0.1555154732E-04  -0.4201801223E-04
   0.3152846040E+01   0.2217804712E+00  -0.9239514312E-04   0.9725509702E-02  -0.1060135814E-02  -0.9239514312E-04   0.0000000000E+00   0.0000000000E+00   0.0000000000E+00   0.8291796612E-01   0.1401865099E-01  -0.1653939314E-05   0.5118791562E-03   0.7624861033E-04   0.1225758816E-03
   0.3152843092E+01   0.2217754164E+00   0.1998104917E+00   0.9722562108E-02  -0.1065190619E-02  -0.1895112780E-03   0.0000000000E+00   0.0000000000E+00   0.0000000000E+00   0.8351366785E-01   0.1343317768E-01  -0.3365192676E-05   0.5480620123E-03  -0.1612610482E-04  -0.3142870877E-04
   0.3158623076E+01   0.4270818379E-03  -0.9793893628E-04   0.9733056348E-02  -0.9989369321E-03  -0.9793893628E-04   0.0000000000E+00   0.0000000000E+00   0.0000000000E+00   0.8162505956E-01   0.1311070580E-01   0.1571110649E-06   0.2390296606E-02   0.7711328325E-04   0.7732063116E-04
   0.3158620195E+01   0.4239958852E-03   0.1998071596E+00   0.9730175181E-02  -0.1002022885E-02  -0.1928433978E-03   0.0000000000E+00   0.0000000000E+00   0.0000000000E+00   0.8220715496E-01   0.1252299777E-01  -0.4003716330E-05   0.2344199468E-02  -0.1399955819E-04  -0.1785948346E-04
   0.2922408631E+01   0.8851536279E+00  -0.6359551890E-04   0.9445951090E-02  -0.1281642123E-02  -0.6359551890E-04   0.0000000000E+00   0.0000000000E+00   0.0000000000E+00   0.9837354242E-01   0.1017467870E-01   0.7444726232E-05  -0.6540404845E-02   0.6104307044E-04   0.2533567720E-03
   0.2922406009E+01   0.8851427484E+00   0.1998277754E+00   0.9443328841E-02  -0.1292521614E-02  -0.1722276230E-03   0.0000000000E+00   0.0000000000E+00   0.0000000000E+00   0.9873678478E-01   0.9810202230E-02  -0.1478555731E-05  -0.6119569887E-02  -0.1891105650E-04  -0.6851569510E-04
   0.2943150486E+01   0.6644950850E+00  -0.7716685312E-04   0.9512155847E-02  -0.1201417018E-02  -0.7716685312E-04   0.0000000000E+00   0.0000000000E+00   0.0000000000E+00   0.9060162977E-01   0.1244720362E-01  -0.1293386852E-05  -0.4622843436E-02   0.8860559520E-04   0.2321593293E-03
   0.2943146794E+01   0.6644858092E+00   0.1998196451E+00   0.9508463883E-02  -0.1210692825E-02  -0.1803578840E-03   0.0000000000E+00   0.0000000000E+00   0.0000000000E+00   0.9113491686E-01   0.1194008864E-01  -0.5216196346E-05  -0.4312201866E-02  -0.2729965478E-04  -0.5973272644E-04
   0.2961122737E+01   0.4433094983E+00  -0.8826839503E-04   0.9561767134E-02  -0.1132922705E-02  -0.8826839503E-04   0.0000000000E+00   0.0000000000E+00   0.0000000000E+00   0.8466169860E-01   0.1392355520E-01  -0.9087781881E-06  -0.2119792862E-02   0.1024038875E-03   0.1725162739E-03
   0.2961118367E+01   0.4433021322E+00   0.1998129737E+00   0.9557397094E-02  -0.1140288836E-02  -0.1870293461E-03   0.0000000000E+00   0.0000000000E+00   0.0000000000E+00   0.8528643182E-01   0.1330307581E-01  -0.9634725928E-05  -0.1932251841E-02  -0.3281649951E-04  -0.4700993753E-04
   0.2973773950E+01   0.2220148913E+00  -0.9660474996E-04   0.9591570488E-02  -0.1071778673E-02  -0.9660474996E-04   0.0000000000E+00   0.0000000000E+00   0.0000000000E+00   0.8097159724E-01   0.1427543753E-01   0.4312902925E-05   0.7151385400E-03   0.1095758194E-03   0.1310996245E-03
   0.2973769299E+01   0.2220097309E+00   0.1998079643E+00   0.9586919070E-02  -0.1076939122E-02  -0.1920387465E-03   0.0000000000E+00   0.0000000000E+00   0.0000000000E+00   0.8165597484E-01   0.1360225800E-01   0.2803596296E-05   0.7726469728E-03  -0.3443954612E-04  -0.2946944535E-04
   0.2982678715E+01   0.9547822262E-03  -0.1019910744E-03   0.9602845490E-02  -0.1013050224E-02  -0.1019910744E-03   0.0000000000E+00   0.0000000000E+00   0.0000000000E+00   0.7976816344E-01   0.1334921350E-01  -0.3978269299E-05   0.3593809908E-02   0.1074930159E-03   0.7022688328E-04
   0.2982674183E+01   0.9518324919E-03   0.1998047321E+00   0.9598312550E-02  -0.1015999958E-02  -0.1952708570E-03   0.0000000000E+00   0.0000000000E+00   0.0000000000E+00   0.8043269978E-01   0.1267454237E-01  -0.1200554508E-04   0.3518724942E-02  -0.3254509761E-04  -0.1735097226E-04
   0.2726590719E+01   0.8845417762E+00  -0.6757815583E-04   0.9265029366E-02  -0.1292202771E-02  -0.6757815583E-04   0.0000000000E+00   0.0000000000E+00   0.0000000000E+00   0.9702892072E-01   0.9929643900E-02   0.6088972075E-05  -0.8862835543E-02   0.9428245316E-04   0.2912277514E-03
   0.2726586872E+01   0.8845294448E+00   0.1998253898E+00   0.9261181574E-02  -0.1304534241E-02  -0.1746131537E-03   0.0000000000E+00   0.0000000000E+00   0.0000000000E+00   0.9746914958E-01   0.9474856745E-02  -0.1201715831E-04  -0.8277450022E-02  -0.2675743593E-04  -0.7576333099E-04
   0.2754015697E+01   0.6642488665E+00  -0.8248075805E-04   0.9354846907E-02  -0.1213031542E-02  -0.8248075805E-04   0.0000000000E+00   0.0000000000E+00   0.0000000000E+00   0.8849195170E-01   0.1240949174E-01  -0.4550027967E-05  -0.6366220255E-02   0.1241021867E-03   0.2517032171E-03
   0.2754010356E+01   0.6642385165E+00   0.1998164696E+00   0.9349506046E-02  -0.1223381524E-02  -0.1835334093E-03   0.0000000000E+00   0.0000000000E+00   0.0000000000E+00   0.8914325622E-01   0.1180625871E-01  -0.3614442213E-05  -0.5925709373E-02  -0.4023531821E-04  -0.7167650495E-04
   0.2777752303E+01   0.4433024527E+00  -0.9430980177E-04   0.9421963099E-02  -0.1146376321E-02  -0.9430980177E-04   0.0000000000E+00   0.0000000000E+00   0.0000000000E+00   0.8205534384E-01   0.1409016781E-01   0.3374162369E-05  -0.2985728714E-02   0.1476056307E-03   0.1908193775E-03
   0.2777746032E+01   0.4432944829E+00   0.1998093562E+00   0.9415692307E-02  -0.1154346149E-02  -0.1906467634E-03   0.0000000000E+00   0.0000000000E+00   0.0000000000E+00   0.8280822461E-01   0.1335232133E-01  -0.5862007215E-05  -0.2715713101E-02  -0.4881441282E-04  -0.4972911445E-04
   0.2795688211E+01   0.2220083263E+00  -0.1028461515E-03   0.9462890682E-02  -0.1088133702E-02  -0.1028461515E-03   0.0000000000E+00   0.0000000000E+00   0.0000000000E+00   0.7814507663E-01   0.1456016734E-01  -0.1702238023E-05   0.9142605740E-03   0.1563660268E-03   0.1339731968E-03
   0.2795681563E+01   0.2220029629E+00   0.1998042308E+00   0.9456242943E-02  -0.1093497087E-02  -0.1957722407E-03   0.0000000000E+00   0.0000000000E+00   0.0000000000E+00   0.7896730504E-01   0.1376204217E-01  -0.4760530719E-05   0.9960632380E-03  -0.4934896381E-04  -0.3008563589E-04
   0.2808960783E+01   0.1019968711E-02  -0.1079140173E-03   0.9478432674E-02  -0.1032211759E-02  -0.1079140173E-03   0.0000000000E+00   0.0000000000E+00   0.0000000000E+00   0.7705860159E-01   0.1363823155E-01  -0.5597007463E-05   0.4888755022E-02   0.1582317693E-03   0.6924697018E-04
   0.2808954339E+01   0.1017277858E-02   0.1998011858E+00   0.9471989386E-02  -0.1034902612E-02  -0.1988172225E-03   0.0000000000E+00   0.0000000000E+00   0.0000000000E+00   0.7785039758E-01   0.1283767273E-01  -0.1443355179E-04   0.4776583414E-02  -0.4145973028E-04  -0.1231334595E-04
   0.2530768617E+01   0.8838629645E+00  -0.7323932587E-04   0.9086596668E-02  -0.1307852542E-02  -0.7323932587E-04   0.0000000000E+00   0.0000000000E+00   0.0000000000E+00   0.9545096163E-01   0.9259503147E-02   0.6107971395E-05  -0.1134090599E-01   0.1245485330E-03   0.3267797974E-03
   0.2530763248E+01   0.8838486104E+00   0.1998219982E+00   0.9081227893E-02  -0.1322206563E-02  -0.1780048017E-03   0.0000000000E+00   0.0000000000E+00   0.0000000000E+00   0.9598809432E-01   0.8701118179E-02  -0.1440862078E-04  -0.1055976952E-01  -0.4095229161E-04  -0.9367276021E-04
   0.2564845971E+01   0.6639618511E+00  -0.8992045596E-04   0.9201930798E-02  -0.1228547917E-02  -0.8992045596E-04   0.0000000000E+00   0.0000000000E+00   0.0000000000E+00   0.8582561437E-01   0.1208268849E-01   0.3466740744E-05  -0.8339740548E-02   0.1767852205E-03   0.2941193818E-03
   0.2564838646E+01   0.6639500649E+00   0.1998120145E+00   0.9194605643E-02  -0.1240334092E-02  -0.1879884837E-03   0.0000000000E+00   0.0000000000E+00   0.0000000000E+00   0.8661866701E-01   0.1134102568E-01  -0.1061705161E-05  -0.7732361668E-02  -0.5819580733E-04  -0.8361109674E-04
   0.2594855429E+01   0.4431518182E+00  -0.1027227781E-03   0.9288189130E-02  -0.1164032849E-02  -0.1027227781E-03   0.0000000000E+00   0.0000000000E+00   0.0000000000E+00   0.7860224282E-01   0.1412236943E-01  -0.2096129174E-05  -0.4045101738E-02   0.1993461139E-03   0.2019942158E-03
   0.2594846839E+01   0.4431429432E+00   0.1998043273E+00   0.9279599107E-02  -0.1172907832E-02  -0.1956756912E-03   0.0000000000E+00   0.0000000000E+00   0.0000000000E+00   0.7953790078E-01   0.1321662528E-01  -0.2061489812E-04  -0.3666303981E-02  -0.7114100694E-04  -0.6091185366E-04
   0.2616589322E+01   0.2222195081E+00  -0.1115345788E-03   0.9339582108E-02  -0.1109186867E-02  -0.1115345788E-03   0.0000000000E+00   0.0000000000E+00   0.0000000000E+00   0.7438700163E-01   0.1482444957E-01   0.1385325155E-04   0.1007937293E-02   0.2097416183E-03   0.1481756200E-03
   0.2616580231E+01   0.2222139086E+00   0.1997990211E+00   0.9330490757E-02  -0.1114786427E-02  -0.2009819156E-03   0.0000000000E+00   0.0000000000E+00   0.0000000000E+00   0.7541407450E-01   0.1384128048E-01   0.1330646774E-04   0.1124938642E-02  -0.7596780301E-04  -0.2646978351E-04
   0.2632991634E+01   0.1612225703E-02  -0.1162230856E-03   0.9358254336E-02  -0.1057425357E-02  -0.1162230856E-03   0.0000000000E+00   0.0000000000E+00   0.0000000000E+00   0.7345393122E-01   0.1394328335E-01  -0.4675158133E-05   0.6238174262E-02   0.2105955710E-03   0.6295379369E-04
   0.2632982855E+01   0.1609867718E-02   0.1997962099E+00   0.9349475165E-02  -0.1059783342E-02  -0.2037930897E-03   0.0000000000E+00   0.0000000000E+00   0.0000000000E+00   0.7442666751E-01   0.1294750009E-01  -0.2255193381E-04   0.6078206462E-02  -0.6833550731E-04  -0.7168957163E-05
   0.2334939520E+01   0.8831497803E+00  -0.8092156624E-04   0.8910459750E-02  -0.1329563749E-02  -0.8092156624E-04   0.0000000000E+00   0.0000000000E+00   0.0000000000E+00   0.9383939630E-01   0.7831210881E-02   0.2133712958E-04  -0.1400388058E-01   0.1707276164E-03   0.3891711785E-03
   0.2334932360E+01   0.8831328238E+00   0.1998173878E+00   0.8903299746E-02  -0.1346520199E-02  -0.1826152101E-03   0.0000000000E+00   0.0000000000E+00   0.0000000000E+00   0.9445544411E-01   0.7199277404E-02   0.2796611587E-05  -0.1298118655E-01  -0.5035389814E-04  -0.1094352963E-03
   0.2375657880E+01   0.6636501514E+00  -0.9998454188E-04   0.9054030269E-02  -0.1248899622E-02  -0.9998454188E-04   0.0000000000E+00   0.0000000000E+00   0.0000000000E+00   0.8262738119E-01   0.1120110123E-01  -0.1543319850E-04  -0.1066085113E-01   0.2205365652E-03   0.3355808531E-03
   0.2375648093E+01   0.6636363178E+00   0.1998060109E+00   0.9044242947E-02  -0.1262733153E-02  -0.1939921163E-03   0.0000000000E+00   0.0000000000E+00   0.0000000000E+00   0.8361220121E-01   0.1032269079E-01  -0.1452615747E-04  -0.9825960572E-02  -0.7681229100E-04  -0.1062211477E-03
   0.2411254371E+01   0.4431394170E+00  -0.1141140550E-03   0.9160960607E-02  -0.1185791982E-02  -0.1141140550E-03   0.0000000000E+00   0.0000000000E+00   0.0000000000E+00   0.7426173763E-01   0.1383966129E-01   0.9642300344E-05  -0.5425049159E-02   0.2669583398E-03   0.2288906798E-03
   0.2411242858E+01   0.4431293248E+00   0.1997975145E+00   0.9149448486E-02  -0.1195884190E-02  -0.2024885491E-03   0.0000000000E+00   0.0000000000E+00   0.0000000000E+00   0.7545195510E-01   0.1273047570E-01  -0.1033927206E-05  -0.4887202879E-02  -0.9356835980E-04  -0.7035439380E-04
   0.2440043325E+01   0.2219739881E+00  -0.1231207413E-03   0.9225954864E-02  -0.1134526899E-02  -0.1231207413E-03   0.0000000000E+00   0.0000000000E+00   0.0000000000E+00   0.6953224391E-01   0.1493653855E-01   0.8395617022E-05   0.9856132280E-03   0.2724326413E-03   0.1570738109E-03
   0.2440031169E+01   0.2219679982E+00   0.1997920928E+00   0.9213799279E-02  -0.1140516841E-02  -0.2079102282E-03   0.0000000000E+00   0.0000000000E+00   0.0000000000E+00   0.7086542309E-01   0.1371875140E-01   0.1251522414E-04   0.1153465245E-02  -0.9790333465E-04  -0.2815938928E-04
   0.2465630135E+01   0.7747053750E-03  -0.1268308297E-03   0.9250955334E-02  -0.1086125555E-02  -0.1268308297E-03   0.0000000000E+00   0.0000000000E+00   0.0000000000E+00   0.6891760404E-01   0.1415322038E-01  -0.2216942602E-04   0.7617099944E-02   0.2730459304E-03   0.5648465141E-04
   0.2465618551E+01   0.7728627327E-03   0.1997898860E+00   0.9239370668E-02  -0.1087968197E-02  -0.2101169724E-03   0.0000000000E+00   0.0000000000E+00   0.0000000000E+00   0.7016293272E-01   0.1291260178E-01  -0.4360639833E-04   0.7389483218E-02  -0.8864088109E-04  -0.8963044413E-06
   0.2139100075E+01   0.8824244959E+00  -0.9097609711E-04   0.8735415451E-02  -0.1359739125E-02  -0.9097609711E-04   0.0000000000E+00   0.0000000000E+00   0.0000000000E+00   0.9246999908E-01   0.5261551555E-02   0.5444621730E-05  -0.1693730312E-01   0.2176311399E-03   0.4488864153E-03
   0.2139090935E+01   0.8824040219E+00   0.1998113380E+00   0.8726275116E-02  -0.1380213091E-02  -0.1886649635E-03   0.0000000000E+00   0.0000000000E+00   0.0000000000E+00   0.9311163223E-01   0.4576162896E-02  -0.2041381424E-04  -0.1557698504E-01  -0.5380184344E-04  -0.1434602589E-03
   0.2186471962E+01   0.6633140145E+00  -0.1131801268E-03   0.8911392452E-02  -0.1274317452E-02  -0.1131801268E-03   0.0000000000E+00   0.0000000000E+00   0.0000000000E+00   0.7909298207E-01   0.9504912918E-02   0.2827058256E-04  -0.1349240222E-01   0.3086231765E-03   0.4162957369E-03
   0.2186459240E+01   0.6632974233E+00   0.1997980603E+00   0.8898670355E-02  -0.1290908667E-02  -0.2019427120E-03   0.0000000000E+00   0.0000000000E+00   0.0000000000E+00   0.8026573879E-01   0.8457483988E-02   0.4354054404E-04  -0.1231383032E-01  -0.8670348999E-04  -0.1259783547E-03
   0.2228320054E+01   0.4429480176E+00  -0.1292440313E-03   0.9042674005E-02  -0.1211758379E-02  -0.1292440313E-03   0.0000000000E+00   0.0000000000E+00   0.0000000000E+00   0.6893164134E-01   0.1304392945E-01  -0.1170132182E-04  -0.7278218492E-02   0.3544927084E-03   0.2590513024E-03
   0.2228304863E+01   0.4429360973E+00   0.1997884426E+00   0.9027483492E-02  -0.1223678716E-02  -0.2115603992E-03   0.0000000000E+00   0.0000000000E+00   0.0000000000E+00   0.7044965357E-01   0.1162402054E-01  -0.4406737815E-04  -0.6486480089E-02  -0.1086358214E-03  -0.8758629207E-04
   0.2264721825E+01   0.2213570054E+00  -0.1383932258E-03   0.9122804610E-02  -0.1163748582E-02  -0.1383932258E-03   0.0000000000E+00   0.0000000000E+00   0.0000000000E+00   0.6347774310E-01   0.1483220587E-01   0.5363206086E-04   0.7316652366E-03   0.3826639165E-03   0.1801907552E-03
   0.2264705744E+01   0.2213505282E+00   0.1997828921E+00   0.9106724180E-02  -0.1170225793E-02  -0.2171108832E-03   0.0000000000E+00   0.0000000000E+00   0.0000000000E+00   0.6521440389E-01   0.1324687176E-01   0.7464514091E-04   0.9931405724E-03  -0.1114549127E-03  -0.2212739843E-04
   0.2301139999E+01  -0.1118856297E-02  -0.1404068794E-03   0.9153768923E-02  -0.1118856297E-02  -0.1404068794E-03   0.0000000000E+00   0.0000000000E+00   0.0000000000E+00   0.6331198027E-01   0.1425336832E-01  -0.1860840980E-04   0.9132096660E-02   0.3611526073E-03   0.4646987860E-04
   0.2301124918E+01  -0.1120006475E-02   0.1997817293E+00   0.9138687892E-02  -0.1120006475E-02  -0.2182737252E-03   0.0000000000E+00   0.0000000000E+00   0.0000000000E+00   0.6492192949E-01   0.1264511101E-01  -0.5312123938E-04   0.8821829733E-02  -0.1006176422E-03   0.6520988479E-05
   0.1943257146E+01   0.8816029755E+00  -0.1034946462E-03   0.8559276007E-02  -0.1400259523E-02  -0.1034946462E-03   0.0000000000E+00   0.0000000000E+00   0.0000000000E+00   0.9190846707E-01   0.1073837418E-02   0.5973469421E-04  -0.2011369115E-01   0.2794176506E-03   0.5636373694E-03
   0.1943246126E+01   0.8815779513E+00   0.1998037150E+00   0.8548256234E-02  -0.1425283703E-02  -0.1962880148E-03   0.0000000000E+00   0.0000000000E+00   0.0000000000E+00   0.9241191185E-01   0.5512288293E-03   0.1061511807E-03  -0.1831466443E-01  -0.1122761433E-04  -0.1513528603E-03
   0.1997357596E+01   0.6627922685E+00  -0.1303454676E-03   0.8773795531E-02  -0.1306053481E-02  -0.1303454676E-03   0.0000000000E+00   0.0000000000E+00   0.0000000000E+00   0.7533067136E-01   0.6461896364E-02  -0.3286165046E-04  -0.1701989398E-01   0.3834870384E-03   0.5000385687E-03
   0.1997341411E+01   0.6627716131E+00   0.1997877060E+00   0.8757611080E-02  -0.1326708933E-02  -0.2122970191E-03   0.0000000000E+00   0.0000000000E+00   0.0000000000E+00   0.7668000878E-01   0.5311710055E-02   0.2322613972E-04  -0.1531995221E-01  -0.4374819710E-04  -0.1482535991E-03
   0.2045331998E+01   0.4425752628E+00  -0.1491822795E-03   0.8934067782E-02  -0.1241607224E-02  -0.1491822795E-03   0.0000000000E+00   0.0000000000E+00   0.0000000000E+00   0.6263447952E-01   0.1146300160E-01   0.4019878984E-04  -0.9826219828E-02   0.4784696391E-03   0.3214227786E-03
   0.2045312059E+01   0.4425607102E+00   0.1997763583E+00   0.8914128731E-02  -0.1256159793E-02  -0.2236447240E-03   0.0000000000E+00   0.0000000000E+00   0.0000000000E+00   0.6459808044E-01   0.9720933594E-02   0.1057676702E-03  -0.8634262024E-02  -0.6781220055E-04  -0.8807512935E-04
   0.2087611997E+01   0.2209881746E+00  -0.1589483563E-03   0.9030427339E-02  -0.1197377397E-02  -0.1589483563E-03   0.0000000000E+00   0.0000000000E+00   0.0000000000E+00   0.5588129463E-01   0.1425402613E-01   0.1624279508E-04   0.9254222876E-04   0.5033071555E-03   0.2150159309E-03
   0.2087590706E+01   0.2209808092E+00   0.1997704688E+00   0.9009136479E-02  -0.1204742788E-02  -0.2295341786E-03   0.0000000000E+00   0.0000000000E+00   0.0000000000E+00   0.5818221741E-01   0.1218051124E-01   0.8164160810E-04   0.5011952948E-03  -0.7097706213E-04  -0.9903583551E-05
   0.2128431914E+01  -0.1158318372E-02  -0.1591499464E-03   0.9062883840E-02  -0.1158318372E-02  -0.1591499464E-03   0.0000000000E+00   0.0000000000E+00   0.0000000000E+00   0.5605415289E-01   0.1408561024E-01  -0.1432426082E-04   0.1064523880E-01   0.4966060278E-03   0.7670182299E-05
   0.2128411983E+01  -0.1158503827E-02   0.1997704139E+00   0.9042952798E-02  -0.1158503827E-02  -0.2295890595E-03   0.0000000000E+00   0.0000000000E+00   0.0000000000E+00   0.5820221859E-01   0.1199607322E-01   0.2728084134E-04   0.1020251366E-01  -0.6687065956E-04   0.1157937705E-04
   0.1747380275E+01   0.8801563184E+00  -0.1183113635E-03   0.8378524685E-02  -0.1455386627E-02  -0.1183113635E-03   0.0000000000E+00   0.0000000000E+00   0.0000000000E+00   0.9278035932E-01  -0.5203154064E-02  -0.5761318080E-05  -0.2353105809E-01   0.3572140892E-03   0.6995450246E-03
   0.1747368335E+01   0.8801250143E+00   0.1997945318E+00   0.8366584817E-02  -0.1486690674E-02  -0.2054711574E-03   0.0000000000E+00   0.0000000000E+00   0.0000000000E+00   0.9274857444E-01  -0.5470410312E-02   0.4224944213E-04  -0.2106491909E-01   0.8732339918E-04  -0.1582662149E-03
   0.1808486905E+01   0.6614190861E+00  -0.1520053620E-03   0.8640255001E-02  -0.1344747940E-02  -0.1520053620E-03   0.0000000000E+00   0.0000000000E+00   0.0000000000E+00   0.7197029352E-01   0.1856694898E-02   0.1077531912E-03  -0.2144068824E-01   0.5823900202E-03   0.7032879587E-03
   0.1808467137E+01   0.6613926798E+00   0.1997742484E+00   0.8620486893E-02  -0.1371154172E-02  -0.2257545532E-03   0.0000000000E+00   0.0000000000E+00   0.0000000000E+00   0.7321891532E-01   0.5928280501E-03   0.2867275772E-03  -0.1891528560E-01   0.9613354702E-04  -0.1094802311E-03
   0.1862585255E+01   0.4414291187E+00  -0.1756506004E-03   0.8836694516E-02  -0.1275559291E-02  -0.1756506004E-03   0.0000000000E+00   0.0000000000E+00   0.0000000000E+00   0.5529161926E-01   0.8715784493E-02  -0.1971374106E-05  -0.1331594151E-01   0.7344004959E-03   0.4175460061E-03
   0.1862559507E+01   0.4414104188E+00   0.1997600543E+00   0.8810947268E-02  -0.1294259174E-02  -0.2399486824E-03   0.0000000000E+00   0.0000000000E+00   0.0000000000E+00   0.5764034002E-01   0.6344150808E-02   0.9062507075E-04  -0.1143275248E-01   0.1054653908E-03  -0.6895687216E-04
   0.1908700084E+01   0.2205525765E+00  -0.1866090158E-03   0.8951284435E-02  -0.1234742534E-02  -0.1866090158E-03   0.0000000000E+00   0.0000000000E+00   0.0000000000E+00   0.4670439808E-01   0.1308502101E-01   0.1709298986E-03  -0.1100893514E-02   0.7730264504E-03   0.2872702577E-03
   0.1908671878E+01   0.2205438703E+00   0.1997533159E+00   0.8923078336E-02  -0.1243448693E-02  -0.2466871286E-03   0.0000000000E+00   0.0000000000E+00   0.0000000000E+00   0.4969952735E-01   0.1013114521E-01   0.3773925892E-03  -0.4140635947E-03   0.9256329279E-04   0.1741863101E-04
   0.1950315144E+01  -0.1943152934E-03  -0.1851381518E-03   0.8983403678E-02  -0.1203032873E-02  -0.1851381518E-03   0.0000000000E+00   0.0000000000E+00   0.0000000000E+00   0.4694042262E-01   0.1339521532E-01  -0.5237107168E-04   0.1219704649E-01   0.7354551497E-03  -0.2460189834E-04
   0.1950288715E+01  -0.1931468148E-03   0.1997544973E+00   0.8956974886E-02  -0.1201864395E-02  -0.2455056648E-03   0.0000000000E+00   0.0000000000E+00   0.0000000000E+00   0.4974434696E-01   0.1037258627E-01   0.6761062194E-07   0.1158133888E-01   0.3857268965E-04   0.4177328522E-05
   0.1551280528E+01   0.8767777406E+00  -0.1340700889E-03   0.8188758143E-02  -0.1529244391E-02  -0.1340700889E-03   0.0000000000E+00   0.0000000000E+00   0.0000000000E+00   0.9603805592E-01  -0.1365612802E-01   0.1333837970E-03  -0.2669314283E-01   0.3854218585E-03   0.9722445058E-03
   0.1551269727E+01   0.8767382664E+00   0.1997844521E+00   0.8177957272E-02  -0.1568718567E-02  -0.2155508638E-03   0.0000000000E+00   0.0000000000E+00   0.0000000000E+00   0.9486243854E-01  -0.1286316440E-01   0.5216066038E-03  -0.2353352516E-01   0.2951700326E-03  -0.2012538225E-04
   0.1620357894E+01   0.6578152828E+00  -0.1791467911E-03   0.8510493683E-02  -0.1393074237E-02  -0.1791467911E-03   0.0000000000E+00   0.0000000000E+00   0.0000000000E+00   0.6909632177E-01  -0.5155047770E-02  -0.1073502064E-03  -0.2659107312E-01   0.7196152471E-03   0.9766845383E-03
   0.1620335058E+01   0.6577801023E+00   0.1997571850E+00   0.8487657577E-02  -0.1428254650E-02  -0.2428180268E-03   0.0000000000E+00   0.0000000000E+00   0.0000000000E+00   0.6980905848E-01  -0.6337078144E-02   0.2129151178E-03  -0.2282135215E-01   0.4214337000E-03   0.5035275123E-04
   0.1680758534E+01   0.4385075035E+00  -0.2106726587E-03   0.8751924002E-02  -0.1313501455E-02  -0.2106726587E-03   0.0000000000E+00   0.0000000000E+00   0.0000000000E+00   0.4718114058E-01   0.4267898035E-02   0.3878357897E-04  -0.1780093093E-01   0.1086127859E-02   0.6397250692E-03
   0.1680725675E+01   0.4384825229E+00   0.1997379598E+00   0.8719065241E-02  -0.1338482055E-02  -0.2620431770E-03   0.0000000000E+00   0.0000000000E+00   0.0000000000E+00   0.4979753726E-01   0.1206749568E-02   0.5269200575E-03  -0.1487604765E-01   0.5721277148E-03   0.9587289799E-04
   0.1732244093E+01   0.2189035883E+00  -0.2240409096E-03   0.8890353244E-02  -0.1274404694E-02  -0.2240409096E-03   0.0000000000E+00   0.0000000000E+00   0.0000000000E+00   0.3563906389E-01   0.1058630976E-01   0.7334026472E-04  -0.2802369663E-02   0.1215819118E-02   0.3785114996E-03
   0.1732206955E+01   0.2188925751E+00   0.1997297793E+00   0.8853215474E-02  -0.1285417905E-02  -0.2702237217E-03   0.0000000000E+00   0.0000000000E+00   0.0000000000E+00   0.3932248972E-01   0.6414571946E-02   0.5584301069E-03  -0.1689807810E-02   0.6011066310E-03   0.8200188021E-04
   0.1779175730E+01  -0.3310102253E-03  -0.2188546107E-03   0.8922909665E-02  -0.1249101674E-02  -0.2188546107E-03   0.0000000000E+00   0.0000000000E+00   0.0000000000E+00   0.3602893556E-01   0.1178796718E-01  -0.1140619805E-03   0.1366441549E-01   0.1059247920E-02  -0.1193048726E-03
   0.1779140858E+01  -0.3279965168E-03   0.1997334423E+00   0.8888037838E-02  -0.1246087966E-02  -0.2665606871E-03   0.0000000000E+00   0.0000000000E+00   0.0000000000E+00   0.3969558646E-01   0.7640433698E-02   0.2757103386E-03   0.1278857225E-01   0.4612544534E-03  -0.2773329907E-04
   0.1354759571E+01   0.8693778931E+00  -0.1479510235E-03   0.7986420781E-02  -0.1631039934E-02  -0.1479510235E-03   0.0000000000E+00   0.0000000000E+00   0.0000000000E+00   0.1024217560E+00  -0.2418670139E-01  -0.1518263858E-03  -0.2945134286E-01   0.4440367034E-03   0.1363547196E-02
   0.1354755439E+01   0.8693274901E+00   0.1997751647E+00   0.7982289056E-02  -0.1681442900E-02  -0.2248383349E-03   0.0000000000E+00   0.0000000000E+00   0.0000000000E+00   0.9839685942E-01  -0.2215901152E-01   0.1050322573E-03  -0.2529617423E-01   0.4749088019E-03   0.1903981046E-03
   0.1434549441E+01   0.6500786790E+00  -0.2108618226E-03   0.8384811068E-02  -0.1454745985E-02  -0.2108618226E-03   0.0000000000E+00   0.0000000000E+00   0.0000000000E+00   0.6764225417E-01  -0.1370827505E-01   0.3359248846E-03  -0.3234287534E-01   0.1117060612E-02   0.1628973010E-02
   0.1434525551E+01   0.6500309607E+00   0.1997361729E+00   0.8360920658E-02  -0.1502464278E-02  -0.2638300988E-03   0.0000000000E+00   0.0000000000E+00   0.0000000000E+00   0.6679148709E-01  -0.1465356743E-01   0.1071996081E-02  -0.2670738860E-01   0.8925802387E-03   0.5618698397E-03
   0.1502621533E+01   0.4324550029E+00  -0.2562701152E-03   0.8682133421E-02  -0.1357824149E-02  -0.2562701152E-03   0.0000000000E+00   0.0000000000E+00   0.0000000000E+00   0.3861815653E-01  -0.2075432529E-02  -0.5387918451E-04  -0.2265712945E-01   0.1870069269E-02   0.1194474606E-02
   0.1502581609E+01   0.4324204867E+00   0.1997083151E+00   0.8642208953E-02  -0.1392340309E-02  -0.2916879287E-03   0.0000000000E+00   0.0000000000E+00   0.0000000000E+00   0.4048508041E-01  -0.6955204420E-02   0.4743401940E-03  -0.1803896293E-01   0.1366155888E-02   0.4825184048E-03
   0.1557319091E+01   0.2159234722E+00  -0.2744203457E-03   0.8847161151E-02  -0.1316577849E-02  -0.2744203457E-03   0.0000000000E+00   0.0000000000E+00   0.0000000000E+00   0.2353862495E-01   0.6354813491E-02   0.2114367413E-03  -0.5012801502E-02   0.2105730961E-02   0.5414416383E-03
   0.1557271299E+01   0.2159089904E+00   0.1996970418E+00   0.8799369315E-02  -0.1331059585E-02  -0.3029612421E-03   0.0000000000E+00   0.0000000000E+00   0.0000000000E+00   0.2734179683E-01  -0.4523287441E-03   0.9345209880E-03  -0.3185041531E-02   0.1451661439E-02   0.2101675957E-03
   0.1602093555E+01   0.4261664188E-03  -0.2660863997E-03   0.8878805465E-02  -0.1297585471E-02  -0.2660863997E-03   0.0000000000E+00   0.0000000000E+00   0.0000000000E+00   0.2347765248E-01   0.8714237668E-02  -0.1712265843E-05   0.1479318253E-01   0.1929083856E-02  -0.2085601665E-03
   0.1602048180E+01   0.4319142332E-03   0.1997028228E+00   0.8833429504E-02  -0.1291837657E-02  -0.2971802030E-03   0.0000000000E+00   0.0000000000E+00   0.0000000000E+00   0.2744964993E-01   0.1982904300E-02   0.5697351061E-03   0.1355999898E-01   0.1238570821E-02  -0.9479882102E-04
   0.1158806760E+01   0.8548887935E+00  -0.1514923677E-03   0.7773950259E-02  -0.1769367534E-02  -0.1514923677E-03   0.0000000000E+00   0.0000000000E+00   0.0000000000E+00   0.1107625256E+00  -0.3323602673E-01   0.2806351583E-03  -0.3065828757E-01  -0.8894413920E-03   0.1715803078E-02
   0.1158816315E+01   0.8548247902E+00   0.1997718141E+00   0.7783505249E-02  -0.1833370775E-02  -0.2281888691E-03   0.0000000000E+00   0.0000000000E+00   0.0000000000E+00   0.1040631876E+00  -0.2753689561E-01   0.1245628553E-02  -0.2592664035E-01  -0.2846585454E-04   0.9002914099E-03
   0.1255266982E+01   0.6360554882E+00  -0.2476206874E-03   0.8272372035E-02  -0.1538376808E-02  -0.2476206874E-03   0.0000000000E+00   0.0000000000E+00   0.0000000000E+00   0.6432003915E-01  -0.2336136610E-01  -0.6215672506E-03  -0.3599077589E-01   0.1416910580E-02   0.2948856127E-02
   0.1255245849E+01   0.6359896917E+00   0.1997124367E+00   0.8251239433E-02  -0.1604173304E-02  -0.2875662813E-03   0.0000000000E+00   0.0000000000E+00   0.0000000000E+00   0.6042820370E-01  -0.2392310940E-01  -0.1124683638E-03  -0.2790491098E-01   0.1441641377E-02   0.1726567951E-02
   0.1332657151E+01   0.4222798184E+00  -0.3127701836E-03   0.8628421183E-02  -0.1414255630E-02  -0.3127701836E-03   0.0000000000E+00   0.0000000000E+00   0.0000000000E+00   0.2995886298E-01  -0.1164624915E-01  -0.4817737371E-03  -0.2567344825E-01   0.2361824225E-02   0.1741550256E-02
   0.1332610093E+01   0.4222317204E+00   0.1996713068E+00   0.8581362605E-02  -0.1462353563E-02  -0.3286961608E-03   0.0000000000E+00   0.0000000000E+00   0.0000000000E+00   0.3055969660E-01  -0.1870824588E-01   0.5940211603E-03  -0.1892557100E-01   0.2354721319E-02   0.1203261446E-02
   0.1387820851E+01   0.2110647517E+00  -0.3404189792E-03   0.8821500758E-02  -0.1362238291E-02  -0.3404189792E-03   0.0000000000E+00   0.0000000000E+00   0.0000000000E+00   0.1112216378E-01  -0.2829996042E-02  -0.4807571584E-03  -0.6636472464E-02   0.2941027668E-02   0.8102843509E-03
   0.1387760708E+01   0.2110449338E+00   0.1996542360E+00   0.8761358110E-02  -0.1382056225E-02  -0.3457669594E-03   0.0000000000E+00   0.0000000000E+00   0.0000000000E+00   0.1472812346E-01  -0.1296893018E-01   0.7116009244E-03  -0.3806492269E-02   0.2662470935E-02   0.4481753016E-03
   0.1422737556E+01   0.1816376380E-02  -0.3320335891E-03   0.8852915598E-02  -0.1344361070E-02  -0.3320335891E-03   0.0000000000E+00   0.0000000000E+00   0.0000000000E+00   0.9952660485E-02   0.5851869108E-03  -0.5581389525E-03   0.1512605128E-01   0.2622695188E-02  -0.4709904598E-03
   0.1422678624E+01   0.1825574171E-02   0.1996598974E+00   0.8793983513E-02  -0.1335163279E-02  -0.3401055563E-03   0.0000000000E+00   0.0000000000E+00   0.0000000000E+00   0.1415742876E-01  -0.9514446451E-02   0.6435487941E-03   0.1345191558E-01   0.2486501110E-02  -0.2680087239E-03
   0.9709247270E+00   0.8279121267E+00  -0.1389367040E-03   0.7590762959E-02  -0.1954819306E-02  -0.1389367040E-03   0.0000000000E+00   0.0000000000E+00   0.0000000000E+00   0.1160969001E+00  -0.3667431309E-01   0.1273964009E-02  -0.3546763183E-01  -0.1312713688E-03   0.4726352477E-02
   0.9709581302E+00   0.8278316178E+00   0.1997783490E+00   0.7624166241E-02  -0.2035328223E-02  -0.2216539925E-03   0.0000000000E+00   0.0000000000E+00   0.0000000000E+00   0.1032413577E+00  -0.2616531751E-01   0.1829710437E-02  -0.3000394328E-01  -0.1452103024E-03   0.3245386694E-02
   0.1092788715E+01   0.6148156045E+00  -0.2839567629E-03   0.8187195403E-02  -0.1656937494E-02  -0.2839567629E-03   0.0000000000E+00   0.0000000000E+00   0.0000000000E+00   0.5995356166E-01  -0.2994423721E-01  -0.3607778864E-03  -0.3516146010E-01   0.1686672685E-02   0.5199810785E-02
   0.1092775279E+01   0.6147287541E+00   0.1996892047E+00   0.8173759264E-02  -0.1743787927E-02  -0.3107983303E-03   0.0000000000E+00   0.0000000000E+00   0.0000000000E+00   0.5108288668E-01  -0.3111870508E-01  -0.2118387756E-03  -0.2495541399E-01   0.8599912660E-03   0.3351070684E-02
   0.1180393449E+01   0.4086325007E+00  -0.3755034950E-03   0.8591639106E-02  -0.1491413280E-02  -0.3755034950E-03   0.0000000000E+00   0.0000000000E+00   0.0000000000E+00   0.2246040273E-01  -0.2283785909E-01   0.5268289814E-03  -0.2447225963E-01   0.4323864273E-02   0.3365655243E-02
   0.1180342753E+01   0.4085685371E+00   0.1996307137E+00   0.8540943106E-02  -0.1555376934E-02  -0.3692893335E-03   0.0000000000E+00   0.0000000000E+00   0.0000000000E+00   0.1889590192E-01  -0.3401427768E-01   0.1018046287E-02  -0.1512115657E-01   0.2441869166E-02   0.2205321432E-02
   0.1238417266E+01   0.2042006383E+00  -0.4154199588E-03   0.8805516377E-02  -0.1412482684E-02  -0.4154199588E-03   0.0000000000E+00   0.0000000000E+00   0.0000000000E+00   0.2114385481E-02  -0.1713661358E-01   0.7852131065E-04  -0.6332349987E-02   0.5293676486E-02   0.1487664120E-02
   0.1238346604E+01   0.2041743763E+00   0.1996061598E+00   0.8734853860E-02  -0.1438744718E-02  -0.3938432147E-03   0.0000000000E+00   0.0000000000E+00   0.0000000000E+00   0.3054579737E-02  -0.3312611253E-01   0.8549074364E-03  -0.2278311324E-02   0.3103788070E-02   0.7293443826E-03
   0.1266715561E+01   0.1053629732E-02  -0.4074338536E-03   0.8838930592E-02  -0.1376880048E-02  -0.4074338536E-03   0.0000000000E+00   0.0000000000E+00   0.0000000000E+00   0.2787343251E-03  -0.1220605640E-01   0.5436394788E-03   0.1428382451E-01   0.5238703609E-02  -0.7479175302E-03
   0.1266644839E+01   0.1067310547E-02   0.1996107784E+00   0.8768209236E-02  -0.1363199233E-02  -0.3892245758E-03   0.0000000000E+00   0.0000000000E+00   0.0000000000E+00   0.2017686497E-02  -0.2845286491E-01   0.1428750848E-02   0.1194845506E-01   0.3174858618E-02  -0.5951023829E-03
   0.1109337814E+01   0.1926360801E+00  -0.4957721190E-03   0.8789073545E-02  -0.1470632901E-02  -0.4957721190E-03   0.0000000000E+00   0.0000000000E+00   0.0000000000E+00  -0.3868572481E-02  -0.4886056933E-01  -0.4888365956E-02   0.1681033925E-02   0.4742103293E-02   0.1777057687E-02
   0.1132801439E+01  -0.1452705312E-02  -0.4891097603E-03   0.8820559352E-02  -0.1390977950E-02  -0.4891097603E-03   0.0000000000E+00   0.0000000000E+00   0.0000000000E+00  -0.4285899072E-02  -0.4535016793E-01  -0.4609204226E-02   0.9623890678E-02   0.4912289492E-02  -0.1420232924E-02
   0.1109258128E+01   0.1926040378E+00   0.1995611069E+00   0.8709388460E-02  -0.1502675225E-02  -0.4388961182E-03   0.0000000000E+00   0.0000000000E+00   0.0000000000E+00  -0.5590475388E-02  -0.7151169118E-01  -0.7123098810E-02   0.6623799189E-02   0.1516325701E-02   0.8713376509E-03
   0.1132720314E+01  -0.1434910193E-02   0.1995649265E+00   0.8739434409E-02  -0.1373182831E-02  -0.4350765463E-03   0.0000000000E+00   0.0000000000E+00   0.0000000000E+00  -0.5342597766E-02  -0.6842462215E-01  -0.6977769121E-02   0.7515285235E-02   0.1665371344E-02  -0.1311781005E-02
   0.9926705889E+00   0.1770385811E+00  -0.5608749003E-03   0.8746914933E-02  -0.1551045933E-02  -0.5608749003E-03   0.0000000000E+00   0.0000000000E+00   0.0000000000E+00   0.3482836547E-04  -0.9149744365E-01  -0.6226742251E-02   0.1471868002E-01   0.8684397161E-03   0.1835155220E-02
   0.1008767711E+01  -0.1379210827E-02  -0.5566248146E-03   0.8767711202E-02  -0.1379210827E-02  -0.5566248146E-03   0.0000000000E+00   0.0000000000E+00   0.0000000000E+00   0.2354948858E-02  -0.9148659619E-01  -0.5857313696E-02   0.3583726473E-02   0.1086086198E-02  -0.3181879419E-02
   0.9925820297E+00   0.1770035134E+00   0.1995197782E+00   0.8658355691E-02  -0.1586113603E-02  -0.4802248177E-03   0.0000000000E+00   0.0000000000E+00   0.0000000000E+00  -0.2534958097E-02  -0.1169562614E+00  -0.8071735230E-02   0.1990070552E-01  -0.8186956208E-03   0.1258759043E-02
   0.1008677291E+01  -0.1361997988E-02   0.1995221116E+00   0.8677290781E-02  -0.1361997988E-02  -0.4778914026E-03   0.0000000000E+00   0.0000000000E+00   0.0000000000E+00   0.7111657935E-03  -0.1172111122E+00  -0.7287528306E-02   0.1992435774E-02  -0.6255003006E-03  -0.2657194976E-02
   0.1053346900E+01   0.3882216240E+00  -0.4413679645E-03   0.8576419737E-02  -0.1599100978E-02  -0.4413679645E-03   0.0000000000E+00   0.0000000000E+00   0.0000000000E+00   0.8397237521E-02  -0.4139318282E-01  -0.4569226098E-02  -0.7482817249E-02   0.3254540713E-02   0.4962326288E-02
   0.1053293109E+01   0.3881431244E+00   0.1995948159E+00   0.8522628559E-02  -0.1677600597E-02  -0.4051870772E-03   0.0000000000E+00   0.0000000000E+00   0.0000000000E+00   0.1862445336E-02  -0.5810282904E-01  -0.7393875485E-02   0.2832497821E-02   0.3512775070E-03   0.3217570530E-02
   0.9431647766E+00   0.3539854023E+00  -0.4973998136E-03   0.8580099639E-02  -0.1755293664E-02  -0.4973998136E-03   0.0000000000E+00   0.0000000000E+00   0.0000000000E+00  -0.1158144183E-02  -0.6593216751E-01  -0.6182873204E-02   0.1747558569E-01  -0.1451377689E-02   0.7281881408E-02
   0.9431037332E+00   0.3539055386E+00   0.1995599886E+00   0.8519056163E-02  -0.1835157372E-02  -0.4400143588E-03   0.0000000000E+00   0.0000000000E+00   0.0000000000E+00  -0.7246528912E-02  -0.8500413069E-01  -0.7996334412E-02   0.2697215944E-01  -0.2609311392E-02   0.5315637481E-02
   0.9629497560E+00   0.5826354707E+00  -0.3195708994E-03   0.8168342995E-02  -0.1805416318E-02  -0.3195708994E-03   0.0000000000E+00   0.0000000000E+00   0.0000000000E+00   0.3679102543E-01  -0.2617489566E-01  -0.3558652660E-02  -0.2214397304E-01   0.2847304232E-03   0.7530730898E-02
   0.9629449063E+00   0.5825323723E+00   0.1996707336E+00   0.8163493250E-02  -0.1908514654E-02  -0.3292694452E-03   0.0000000000E+00   0.0000000000E+00   0.0000000000E+00   0.2537549899E-01  -0.3052438324E-01  -0.5636903745E-02  -0.1146006360E-01  -0.1206664354E-02   0.5162330947E-02
   0.8587778030E+00   0.5239408733E+00  -0.3631314918E-03   0.8260171993E-02  -0.2005684687E-02  -0.3631314918E-03   0.0000000000E+00   0.0000000000E+00   0.0000000000E+00   0.1094386423E-01  -0.2340309691E-01  -0.4807830097E-02   0.2095682821E-02  -0.5817675486E-02   0.1113098170E-01
   0.8587667702E+00   0.5238365316E+00   0.1996435982E+00   0.8249139240E-02  -0.2110026402E-02  -0.3564048399E-03   0.0000000000E+00   0.0000000000E+00   0.0000000000E+00  -0.2858988486E-03  -0.3167000407E-01  -0.7159104065E-02   0.1226970498E-01  -0.5605314895E-02   0.8396707536E-02
   0.8396298831E+00   0.7714398954E+00  -0.1416347948E-03   0.7574135079E-02  -0.2113297618E-02  -0.1416347948E-03   0.0000000000E+00   0.0000000000E+00   0.0000000000E+00   0.9293866956E-01  -0.1308621387E-01  -0.1591774996E-02  -0.3298422279E-01  -0.2621213558E-02   0.6504969959E-02
   0.8396820154E+00   0.7713448770E+00   0.1997795532E+00   0.7626267436E-02  -0.2208316026E-02  -0.2204497521E-03   0.0000000000E+00   0.0000000000E+00   0.0000000000E+00   0.7778250052E-01  -0.6668812438E-02  -0.3194424252E-02  -0.2862349225E-01  -0.3152243239E-02   0.4767138118E-02
   0.7409055124E+00   0.6778037844E+00  -0.1681385894E-03   0.7792760353E-02  -0.2303391573E-02  -0.1681385894E-03   0.0000000000E+00   0.0000000000E+00   0.0000000000E+00   0.5390205410E-01   0.1306025976E-01  -0.2661365091E-02  -0.3017028786E-01  -0.1166741904E-01   0.1262776445E-01
   0.7409532694E+00   0.6777099464E+00   0.1997642606E+00   0.7840517356E-02  -0.2397229552E-02  -0.2357424276E-03   0.0000000000E+00   0.0000000000E+00   0.0000000000E+00   0.4122526641E-01   0.1636923143E-01  -0.3526028981E-02  -0.2635128219E-01  -0.9862331642E-02   0.9728343090E-02
  -0.6284999517E+00   0.1808520240E+01   0.1089718229E-04   0.4212710311E-02  -0.3435330304E-02   0.1089718229E-04   0.0000000000E+00   0.0000000000E+00   0.0000000000E+00   0.1380586677E+00  -0.5675998126E-03  -0.3754236332E-03  -0.2025204450E-01  -0.1308065685E-02  -0.6680302136E-03
  -0.6369642927E+00   0.1996455334E+01  -0.2111903073E-04   0.4398493349E-02  -0.3544666236E-02  -0.2111903073E-04   0.0000000000E+00   0.0000000000E+00   0.0000000000E+00   0.1248387817E+00   0.7489650883E-03  -0.1373832210E-03  -0.8245418569E-02  -0.4523171781E-02  -0.3015227163E-03
  -0.6284904819E+00   0.1808551690E+01   0.1998731293E+00   0.4222180141E-02  -0.3403880132E-02  -0.1268737309E-03   0.0000000000E+00   0.0000000000E+00   0.0000000000E+00   0.1374872967E+00  -0.8793132848E-03  -0.7494901313E-03  -0.1431808932E-01  -0.1365218560E-02   0.8928007861E-04
  -0.6369510869E+00   0.1996484993E+01   0.1998518754E+00   0.4411699079E-02  -0.3515006506E-02  -0.1481275979E-03   0.0000000000E+00   0.0000000000E+00   0.0000000000E+00   0.1247062658E+00   0.4317095279E-03   0.4617983586E-03  -0.4554818604E-02  -0.4277177257E-02   0.1606372816E-03
  -0.6230625242E+00   0.1620707157E+01   0.5023600852E-04   0.4089680788E-02  -0.3302932712E-02   0.5023600852E-04   0.0000000000E+00   0.0000000000E+00   0.0000000000E+00   0.1553551954E+00  -0.2767569243E-02  -0.1110349853E-03  -0.3054984849E-01   0.3405141358E-04  -0.1349382602E-02
  -0.6230727535E+00   0.1620738043E+01   0.1998970002E+00   0.4079451512E-02  -0.3272046542E-02  -0.1030028171E-03   0.0000000000E+00   0.0000000000E+00   0.0000000000E+00   0.1543563346E+00  -0.1949114893E-02  -0.6156529293E-03  -0.2221320660E-01  -0.3885684965E-03  -0.5387692598E-03
  -0.6190463606E+00   0.1430822688E+01   0.8933309190E-04   0.3966778408E-02  -0.3145382326E-02   0.8933309190E-04   0.0000000000E+00   0.0000000000E+00   0.0000000000E+00   0.1716146316E+00  -0.6629736614E-02   0.3831562002E-03  -0.2880579308E-01   0.1008325624E-02  -0.1156431342E-02
  -0.6190813363E+00   0.1430848340E+01   0.1999221840E+00   0.3931802676E-02  -0.3119730234E-02  -0.7781902057E-04   0.0000000000E+00   0.0000000000E+00   0.0000000000E+00   0.1705754673E+00  -0.3070565993E-02   0.3538895750E-04  -0.1962421151E-01   0.4699594252E-03  -0.1118083341E-02
  -0.6246479252E+00   0.1232919069E+01   0.1150478400E-03   0.3769506803E-02  -0.2934841165E-02   0.1150478400E-03   0.0000000000E+00   0.0000000000E+00   0.0000000000E+00   0.1881775550E+00  -0.1681891451E-01  -0.5107469306E-03  -0.1760363931E-01   0.2417236424E-02  -0.4977634071E-03
  -0.6247105636E+00   0.1232928374E+01   0.1999400451E+00   0.3706868402E-02  -0.2925535655E-02  -0.5995792284E-04   0.0000000000E+00   0.0000000000E+00   0.0000000000E+00   0.1840315722E+00  -0.8130312401E-02  -0.2197977412E-02  -0.6642510565E-02   0.1847950584E-02  -0.4218693416E-03
  -0.6494989597E+00   0.1008238842E+01   0.9154162874E-04   0.3344396265E-02  -0.2643538282E-02   0.9154162874E-04   0.0000000000E+00   0.0000000000E+00   0.0000000000E+00   0.1747712124E+00  -0.1079177048E-01   0.1492927620E-02   0.1957896049E-01   0.5082121488E-02   0.1006772148E-02
  -0.6495929814E+00   0.1008206113E+01   0.1999231766E+00   0.3250374609E-02  -0.2676267144E-02  -0.7682641254E-04   0.0000000000E+00   0.0000000000E+00   0.0000000000E+00   0.1674304568E+00   0.3208423013E-02   0.1961007983E-02   0.2760659600E-01   0.3938983080E-02   0.1348452356E-02
  -0.5243330136E+00   0.8468932530E+00   0.1370915415E-03   0.3032432399E-02  -0.2745327991E-02   0.1370915415E-03   0.0000000000E+00   0.0000000000E+00   0.0000000000E+00   0.1689701909E+00   0.2491143428E-01  -0.2074124659E-03   0.7024816000E-01   0.1530045946E-01   0.1135413936E-01
  -0.5244358053E+00   0.8468628305E+00   0.1999565644E+00   0.2929640678E-02  -0.2775750459E-02  -0.4343864949E-04   0.0000000000E+00   0.0000000000E+00   0.0000000000E+00   0.1642824758E+00   0.3956153441E-01  -0.2014773326E-02   0.7838297037E-01   0.1321864487E-01   0.9250534979E-02
  -0.8159919616E+00   0.7979058591E+00  -0.1083739804E-03   0.2517140385E-02  -0.2153935897E-02  -0.1083739804E-03   0.0000000000E+00   0.0000000000E+00   0.0000000000E+00   0.9762790066E-01  -0.1298064540E-01   0.1397346924E-02   0.3869938327E-01   0.2171934052E-02   0.7614020197E-02
  -0.6982878350E+00   0.7111539788E+00  -0.1185638009E-03   0.2330194012E-02  -0.2382582193E-02  -0.1185638009E-03   0.0000000000E+00   0.0000000000E+00   0.0000000000E+00   0.7127930167E-01   0.1881652529E-01  -0.3374265091E-02   0.3677484115E-01   0.1049564883E-01   0.1231108243E-01
  -0.8160499107E+00   0.7978161346E+00   0.1997989877E+00   0.2459191299E-02  -0.2243660434E-02  -0.2010152587E-03   0.0000000000E+00   0.0000000000E+00   0.0000000000E+00   0.8538326778E-01  -0.1792900678E-02   0.1022602780E-02   0.3453874877E-01   0.2613454581E-02   0.5425464337E-02
  -0.6983457508E+00   0.7110639706E+00   0.1997968465E+00   0.2272278200E-02  -0.2472590363E-02  -0.2031565252E-03   0.0000000000E+00   0.0000000000E+00   0.0000000000E+00   0.5857002738E-01   0.2399324546E-01  -0.6081362992E-02   0.3408198671E-01   0.9770850868E-02   0.9460695475E-02
  -0.9455259743E+00   0.6002534852E+00  -0.3052283880E-03   0.1875787690E-02  -0.1824415781E-02  -0.3052283880E-03   0.0000000000E+00   0.0000000000E+00   0.0000000000E+00   0.3954201903E-01  -0.2494481340E-01  -0.4098634259E-02   0.2305161545E-01   0.6344216427E-04   0.8137731309E-02
  -0.8331839960E+00   0.5482289509E+00  -0.3386089369E-03   0.1797206999E-02  -0.2049534140E-02  -0.3386089369E-03   0.0000000000E+00   0.0000000000E+00   0.0000000000E+00   0.1235243597E-01  -0.1906132914E-01  -0.5242530459E-02   0.1062648317E-02   0.6273346302E-02   0.1201614530E-01
  -0.9455260544E+00   0.6001480724E+00   0.1996804175E+00   0.1875707646E-02  -0.1929828584E-02  -0.3195855493E-03   0.0000000000E+00   0.0000000000E+00   0.0000000000E+00   0.2763708967E-01  -0.2841465455E-01  -0.7053569250E-02   0.1233959658E-01   0.1562576061E-02   0.5497522123E-02
  -0.8331804882E+00   0.5481227833E+00   0.1996605698E+00   0.1800714764E-02  -0.2155701660E-02  -0.3394332420E-03   0.0000000000E+00   0.0000000000E+00   0.0000000000E+00   0.1640255451E-02  -0.2576968436E-01  -0.7932896451E-02  -0.8445453284E-02   0.6084875142E-02   0.9233237372E-02
  -0.1042067448E+01   0.4005121261E+00  -0.4340080151E-03   0.1441442282E-02  -0.1605304884E-02  -0.4340080151E-03   0.0000000000E+00   0.0000000000E+00   0.0000000000E+00   0.9128409535E-02  -0.3959572506E-01  -0.4110904740E-02   0.8925015160E-02  -0.3294518095E-02   0.4923747220E-02
  -0.9271120785E+00   0.3694260659E+00  -0.4881746912E-03   0.1439893495E-02  -0.1776403087E-02  -0.4881746912E-03   0.0000000000E+00   0.0000000000E+00   0.0000000000E+00  -0.1446229417E-04  -0.6287915101E-01  -0.5833770904E-02  -0.1688423614E-01   0.1538623964E-02   0.7333874953E-02
  -0.1042016292E+01   0.4004316810E+00   0.1995992421E+00   0.1492598467E-02  -0.1685749965E-02  -0.4007608870E-03   0.0000000000E+00   0.0000000000E+00   0.0000000000E+00   0.2611260777E-02  -0.5581647685E-01  -0.6654780414E-02  -0.1765873514E-02  -0.5005402337E-03   0.3359890129E-02
  -0.9270543905E+00   0.3693415097E+00   0.1995654946E+00   0.1497581534E-02  -0.1860959267E-02  -0.4345083641E-03   0.0000000000E+00   0.0000000000E+00   0.0000000000E+00  -0.6933984388E-02  -0.8164037597E-01  -0.8170442632E-02  -0.2710523271E-01   0.2771258149E-02   0.5601162053E-02
  -0.1103826154E+01   0.1998570675E+00  -0.4915294557E-03   0.1213206496E-02  -0.1471597501E-02  -0.4915294557E-03   0.0000000000E+00   0.0000000000E+00   0.0000000000E+00  -0.3680163206E-02  -0.4712981534E-01  -0.4992278548E-02  -0.1695983210E-02  -0.4771089177E-02   0.1857418049E-02
  -0.9809456544E+00   0.1862547850E+00  -0.5585830751E-03   0.1258425553E-02  -0.1562087970E-02  -0.5585830751E-03   0.0000000000E+00   0.0000000000E+00   0.0000000000E+00  -0.9110354565E-04  -0.9044571390E-01  -0.6252633620E-02  -0.1474787705E-01  -0.8334368767E-03   0.2059924253E-02
  -0.1103747487E+01   0.1998231847E+00   0.1995638013E+00   0.1291873260E-02  -0.1505480297E-02  -0.4362016977E-03   0.0000000000E+00   0.0000000000E+00   0.0000000000E+00  -0.5635272533E-02  -0.6927908045E-01  -0.7387085314E-02  -0.6685115669E-02  -0.1548228543E-02   0.7966215940E-03
  -0.9808585409E+00   0.1862173136E+00   0.1995213234E+00   0.1345539111E-02  -0.1599559439E-02  -0.4786795648E-03   0.0000000000E+00   0.0000000000E+00   0.0000000000E+00  -0.2661202411E-02  -0.1154993950E+00  -0.7802085341E-02  -0.1991652241E-01   0.8246583141E-03   0.1347080117E-02
  -0.1131418839E+01   0.4158338278E-03  -0.4841890631E-03   0.1177531200E-02  -0.1391667712E-02  -0.4841890631E-03   0.0000000000E+00   0.0000000000E+00   0.0000000000E+00  -0.4251473456E-02  -0.4375522788E-01  -0.4616024786E-02  -0.9638615955E-02  -0.4881489684E-02  -0.1264452659E-02
  -0.9987410792E+00   0.6056329408E-02  -0.5565783529E-03   0.1231204777E-02  -0.1388150092E-02  -0.5565783529E-03   0.0000000000E+00   0.0000000000E+00   0.0000000000E+00   0.2488047953E-02  -0.9146620812E-01  -0.5359581017E-02  -0.3626076284E-02  -0.9648350287E-03  -0.2967345268E-02
  -0.1131338886E+01   0.4323438458E-03   0.1995679667E+00   0.1257483570E-02  -0.1375157694E-02  -0.4320362528E-03   0.0000000000E+00   0.0000000000E+00   0.0000000000E+00  -0.5089964514E-02  -0.6646965766E-01  -0.6760705963E-02  -0.7685268044E-02  -0.1798238921E-02  -0.1065320336E-02
  -0.9986509646E+00   0.6070529303E-02   0.1995216614E+00   0.1321319367E-02  -0.1373950197E-02  -0.4783415537E-03   0.0000000000E+00   0.0000000000E+00   0.0000000000E+00   0.7340752718E-03  -0.1172728394E+00  -0.6718073875E-02  -0.2464006868E-02   0.6378732346E-03  -0.2376772926E-02
  -0.1236951460E+01   0.2076481535E+00  -0.4094523943E-03   0.1195319590E-02  -0.1409624521E-02  -0.4094523943E-03   0.0000000000E+00   0.0000000000E+00   0.0000000000E+00   0.3021902721E-02  -0.1526452726E-01   0.5100432550E-03   0.6622550958E-02  -0.5318292824E-02   0.1430035247E-02
  -0.1273762852E+01   0.8949763129E-03  -0.3984700762E-03   0.1159518271E-02  -0.1373696607E-02  -0.3984700762E-03   0.0000000000E+00   0.0000000000E+00   0.0000000000E+00   0.1540866973E-02  -0.1050451017E-01   0.5580129029E-03  -0.1403597535E-01  -0.5040503714E-02  -0.6147561190E-03
  -0.1236881807E+01   0.2076216930E+00   0.1996095423E+00   0.1264973332E-02  -0.1436085016E-02  -0.3904606983E-03   0.0000000000E+00   0.0000000000E+00   0.0000000000E+00   0.3947763194E-02  -0.3074167616E-01   0.1397571288E-02   0.2624076527E-02  -0.3164877515E-02   0.7138313522E-03
  -0.1273693630E+01   0.9074443135E-03   0.1996163224E+00   0.1228740032E-02  -0.1361228606E-02  -0.3836805624E-03   0.0000000000E+00   0.0000000000E+00   0.0000000000E+00   0.3448036172E-02  -0.2610516228E-01   0.1635933602E-02  -0.1187669730E-01  -0.3140854190E-02  -0.4828752311E-03
  -0.1390116101E+01   0.2112771284E+00  -0.3344713216E-03   0.1177898882E-02  -0.1358627622E-02  -0.3344713216E-03   0.0000000000E+00   0.0000000000E+00   0.0000000000E+00   0.1198404586E-01  -0.2013491614E-02  -0.4512349012E-03   0.6419641924E-02  -0.2811644267E-02   0.6810780772E-03
  -0.1431157004E+01   0.7600532083E-03  -0.3248300044E-03   0.1144396040E-02  -0.1338840772E-02  -0.3248300044E-03   0.0000000000E+00   0.0000000000E+00   0.0000000000E+00   0.1115451252E-01   0.1407287048E-02  -0.6406984027E-03  -0.1481351804E-01  -0.2514541802E-02  -0.2621979338E-03
  -0.1390056905E+01   0.2112574026E+00   0.1996580540E+00   0.1237094783E-02  -0.1378353445E-02  -0.3419490276E-03   0.0000000000E+00   0.0000000000E+00   0.0000000000E+00   0.1572838154E-01  -0.1167538790E-01   0.7739800798E-03   0.3651971106E-02  -0.2648578609E-02   0.4493064103E-03
  -0.1431099412E+01   0.7687611117E-03   0.1996646798E+00   0.1201987721E-02  -0.1330132868E-02  -0.3353232468E-03   0.0000000000E+00   0.0000000000E+00   0.0000000000E+00   0.1543193669E-01  -0.8298687717E-02   0.5111744721E-03  -0.1323564554E-01  -0.2425052439E-02  -0.1561854155E-03
  -0.1555147546E+01   0.2124893456E+00  -0.2717248361E-03   0.1151064053E-02  -0.1314094380E-02  -0.2717248361E-03   0.0000000000E+00   0.0000000000E+00   0.0000000000E+00   0.2417554810E-01   0.6522876708E-02   0.2199814095E-03   0.4677695587E-02  -0.2044840169E-02   0.5374276576E-03
  -0.1597354515E+01   0.5612005084E-03  -0.2646118053E-03   0.1119624997E-02  -0.1295498842E-02  -0.2646118053E-03   0.0000000000E+00   0.0000000000E+00   0.0000000000E+00   0.2390363197E-01   0.8900141165E-02   0.8422231685E-04  -0.1439419861E-01  -0.1940788525E-02  -0.1288662768E-03
  -0.1555100420E+01   0.2124752906E+00   0.1996988475E+00   0.1198190380E-02  -0.1328149422E-02  -0.3011554960E-03   0.0000000000E+00   0.0000000000E+00   0.0000000000E+00   0.2800892914E-01  -0.3607935962E-04   0.8985015591E-03   0.2886137485E-02  -0.1379095271E-02   0.2140960151E-03
  -0.1597309472E+01   0.5665058532E-03   0.1997037402E+00   0.1164667679E-02  -0.1290193497E-02  -0.2962628378E-03   0.0000000000E+00   0.0000000000E+00   0.0000000000E+00   0.2787473061E-01   0.2274086280E-02   0.6612252562E-03  -0.1323517949E-01  -0.1207863157E-02  -0.3770031311E-04
  -0.1726650471E+01   0.2123647466E+00  -0.2232964596E-03   0.1107339385E-02  -0.1272635416E-02  -0.2232964596E-03   0.0000000000E+00   0.0000000000E+00   0.0000000000E+00   0.3585903141E-01   0.1055587180E-01   0.5819829286E-04   0.2346038092E-02  -0.1152848748E-02   0.3189113516E-03
  -0.1767862545E+01   0.4094693709E-03  -0.2190402119E-03   0.1077305078E-02  -0.1249077949E-02  -0.2190402119E-03   0.0000000000E+00   0.0000000000E+00   0.0000000000E+00   0.3601438791E-01   0.1181822196E-01  -0.6917908237E-04  -0.1333328412E-01  -0.1056979872E-02  -0.6291595504E-04
  -0.1726613565E+01   0.2123541919E+00   0.1997303479E+00   0.1144245055E-02  -0.1283190140E-02  -0.2696551435E-03   0.0000000000E+00   0.0000000000E+00   0.0000000000E+00   0.3955903289E-01   0.6473735202E-02   0.5655629339E-03   0.1301018838E-02  -0.5534437940E-03   0.7205092178E-04
  -0.1767827589E+01   0.4123736807E-03   0.1997332597E+00   0.1112261284E-02  -0.1246173639E-02  -0.2667432767E-03   0.0000000000E+00   0.0000000000E+00   0.0000000000E+00   0.3968570253E-01   0.7720871867E-02   0.3580100851E-03  -0.1251300934E-01  -0.4627504139E-03   0.1321848806E-04
  -0.1901401634E+01   0.2115375310E+00  -0.1866797399E-03   0.1046066087E-02  -0.1233110039E-02  -0.1866797399E-03   0.0000000000E+00   0.0000000000E+00   0.0000000000E+00   0.4663145012E-01   0.1306613880E-01   0.1070016508E-03   0.5513388633E-03  -0.7863344848E-03   0.2392825346E-03
  -0.1940038864E+01   0.2932098127E-03  -0.1850509281E-03   0.1017025807E-02  -0.1203028237E-02  -0.1850509281E-03   0.0000000000E+00   0.0000000000E+00   0.0000000000E+00   0.4685226110E-01   0.1342981469E-01   0.1707716451E-04  -0.1197608024E-01  -0.7401265136E-03   0.1005348023E-04
  -0.1901373541E+01   0.2115292007E+00   0.1997533512E+00   0.1074159472E-02  -0.1241440282E-02  -0.2466518277E-03   0.0000000000E+00   0.0000000000E+00   0.0000000000E+00   0.4957738677E-01   0.1011760560E-01   0.2476907832E-03  -0.8805070781E-04  -0.8355980980E-04   0.1673675233E-05
  -0.1940012436E+01   0.2942866786E-03   0.1997544986E+00   0.1043453846E-02  -0.1201951371E-02  -0.2455043924E-03   0.0000000000E+00   0.0000000000E+00   0.0000000000E+00   0.4967642861E-01   0.1043085604E-01   0.8761768600E-04  -0.1138520446E-01  -0.5455103725E-04   0.2485458714E-04
  -0.2077721094E+01   0.2103542487E+00  -0.1593961805E-03   0.9680064378E-03  -0.1195897345E-02  -0.1593961805E-03   0.0000000000E+00   0.0000000000E+00   0.0000000000E+00   0.5577808765E-01   0.1423216275E-01   0.5024380328E-04  -0.5973705995E-03  -0.5073539522E-03   0.1944147183E-03
  -0.2112890634E+01   0.1772102186E-03  -0.1598474848E-03   0.9401656514E-03  -0.1159657821E-02  -0.1598474848E-03   0.0000000000E+00   0.0000000000E+00   0.0000000000E+00   0.5581272589E-01   0.1403912487E-01  -0.4824268918E-04  -0.1051431830E-01  -0.4803558348E-03   0.2147684594E-04
  -0.2077699750E+01   0.2103472621E+00   0.1997701930E+00   0.9893495609E-03  -0.1202883909E-02  -0.2298100287E-03   0.0000000000E+00   0.0000000000E+00   0.0000000000E+00   0.5808188802E-01   0.1215750369E-01   0.1323352122E-03  -0.9630804457E-03   0.7515808561E-04  -0.1449742230E-04
  -0.2112870551E+01   0.1769923491E-03   0.1997700391E+00   0.9602488450E-03  -0.1159875691E-02  -0.2299638510E-03   0.0000000000E+00   0.0000000000E+00   0.0000000000E+00   0.5800234792E-01   0.1196415316E-01  -0.9924941607E-05  -0.1009145865E-01   0.7115112044E-04   0.1165701424E-04
  -0.2254783700E+01   0.2089964326E+00  -0.1388873139E-03   0.8756401168E-03  -0.1161855445E-02  -0.1388873139E-03   0.0000000000E+00   0.0000000000E+00   0.0000000000E+00   0.6333991616E-01   0.1484716047E-01   0.5698480160E-04  -0.1198803056E-02  -0.3803698221E-03   0.1673749893E-03
  -0.2286041427E+01   0.4965196864E-04  -0.1408999018E-03   0.8493234584E-03  -0.1120193491E-02  -0.1408999018E-03   0.0000000000E+00   0.0000000000E+00   0.0000000000E+00   0.6321147345E-01   0.1424428709E-01  -0.3182120119E-04  -0.9039048491E-02  -0.3624657821E-03   0.4199973111E-04
  -0.2254767607E+01   0.2089902245E+00   0.1997825851E+00   0.8917331457E-03  -0.1168063528E-02  -0.2174178954E-03   0.0000000000E+00   0.0000000000E+00   0.0000000000E+00   0.6505670573E-01   0.1324896519E-01   0.6036712073E-04  -0.1424545220E-02   0.1138110370E-03  -0.2415694059E-04
  -0.2286026247E+01   0.4848427151E-04   0.1997814614E+00   0.8645029038E-03  -0.1121361188E-02  -0.2185416054E-03   0.0000000000E+00   0.0000000000E+00   0.0000000000E+00   0.6483415525E-01   0.1263332268E-01  -0.6515811412E-04  -0.8730021520E-02   0.1098205388E-03   0.4468649605E-05
  -0.2431885598E+01   0.2076614962E+00  -0.1235255410E-03   0.7714017475E-03  -0.1131577781E-02  -0.1235255410E-03   0.0000000000E+00   0.0000000000E+00   0.0000000000E+00   0.6941438673E-01   0.1492642847E-01   0.2840806667E-04  -0.1415220272E-02  -0.2723334296E-03   0.1557400421E-03
  -0.2459325069E+01  -0.8597713716E-04  -0.1266014278E-03   0.7469713525E-03  -0.1085392198E-02  -0.1266014278E-03   0.0000000000E+00   0.0000000000E+00   0.0000000000E+00   0.6900470567E-01   0.1413118381E-01  -0.3801629737E-04  -0.7595980325E-02  -0.2735404555E-03   0.5034734908E-04
  -0.2431873446E+01   0.2076558140E+00   0.1997918345E+00   0.7835535802E-03  -0.1137259980E-02  -0.2081685059E-03   0.0000000000E+00   0.0000000000E+00   0.0000000000E+00   0.7073400845E-01   0.1370073998E-01   0.3706370994E-04  -0.1558230535E-02   0.9684230611E-04  -0.2158501677E-04
  -0.2459313553E+01  -0.8782784940E-04   0.1997900474E+00   0.7584871381E-03  -0.1087242910E-02  -0.2099556336E-03   0.0000000000E+00   0.0000000000E+00   0.0000000000E+00   0.7025132685E-01   0.1291370087E-01  -0.5850858861E-04  -0.7375579862E-02   0.8485962672E-04  -0.5104767974E-05
  -0.2607978431E+01   0.2066912418E+00  -0.1120296396E-03   0.6581893273E-03  -0.1105838190E-02  -0.1120296396E-03   0.0000000000E+00   0.0000000000E+00   0.0000000000E+00   0.7422081278E-01   0.1480041830E-01   0.1293029098E-04  -0.1370942948E-02  -0.2105359546E-03   0.1371248408E-03
  -0.2627751597E+01   0.1452591173E-02  -0.1160094577E-03   0.6387134100E-03  -0.1056857507E-02  -0.1160094577E-03   0.0000000000E+00   0.0000000000E+00   0.0000000000E+00   0.7353843386E-01   0.1392386312E-01  -0.1324238533E-04  -0.6187941300E-02  -0.2116008701E-03   0.6163030188E-04
  -0.2607969343E+01   0.2066858517E+00   0.1997987243E+00   0.6672765292E-03  -0.1111228340E-02  -0.2012786965E-03   0.0000000000E+00   0.0000000000E+00   0.0000000000E+00   0.7523866270E-01   0.1381110788E-01   0.1659002968E-05  -0.1468185076E-02   0.7355319824E-04  -0.2696545405E-04
  -0.2627742885E+01   0.1450248375E-02   0.1997963594E+00   0.6474252430E-03  -0.1059200305E-02  -0.2036436368E-03   0.0000000000E+00   0.0000000000E+00   0.0000000000E+00   0.7451834766E-01   0.1293928561E-01  -0.3462027861E-04  -0.6027529406E-02   0.6806407095E-04  -0.1083484025E-04
  -0.2784195693E+01   0.2055668312E+00  -0.1034850093E-03   0.5371270937E-03  -0.1084498850E-02  -0.1034850093E-03   0.0000000000E+00   0.0000000000E+00   0.0000000000E+00   0.7795319572E-01   0.1453471049E-01   0.3661726084E-05  -0.1198236471E-02  -0.1547435813E-03   0.1328896429E-03
  -0.2796873549E+01   0.2132269644E-02  -0.1080172725E-03   0.5231110215E-03  -0.1033094626E-02  -0.1080172725E-03   0.0000000000E+00   0.0000000000E+00   0.0000000000E+00   0.7705219979E-01   0.1363392166E-01  -0.8173384878E-05  -0.4873216687E-02  -0.1555543901E-03   0.6496259278E-04
  -0.2784189015E+01   0.2055616929E+00   0.1998038473E+00   0.5438045494E-03  -0.1089637131E-02  -0.1961556633E-03   0.0000000000E+00   0.0000000000E+00   0.0000000000E+00   0.7877516288E-01   0.1373219269E-01   0.1131077286E-05  -0.1266263571E-02   0.5133141605E-04  -0.2541456129E-04
  -0.2796867086E+01   0.2129559083E-02   0.1998011338E+00   0.5295739877E-03  -0.1035805187E-02  -0.1988692483E-03   0.0000000000E+00   0.0000000000E+00   0.0000000000E+00   0.7784975865E-01   0.1283725763E-01  -0.1678972347E-04  -0.4762330682E-02   0.4674671245E-04  -0.1619141759E-04
  -0.2961897053E+01   0.2042027103E+00  -0.9727840895E-04   0.4089674923E-03  -0.1067624654E-02  -0.9727840895E-04   0.0000000000E+00   0.0000000000E+00   0.0000000000E+00   0.8075084403E-01   0.1424416512E-01   0.4983700337E-06  -0.9468680957E-03  -0.1103794500E-03   0.1205430196E-03
  -0.2971105326E+01   0.1708370062E-02  -0.1020522781E-03   0.3984038845E-03  -0.1013677208E-02  -0.1020522781E-03   0.0000000000E+00   0.0000000000E+00   0.0000000000E+00   0.7974177376E-01   0.1335041356E-01  -0.8435819018E-06  -0.3592477442E-02  -0.1101251514E-03   0.7466886309E-04
  -0.2961892375E+01   0.2041977090E+00   0.1998075634E+00   0.4136447475E-03  -0.1072625982E-02  -0.1924395747E-03   0.0000000000E+00   0.0000000000E+00   0.0000000000E+00   0.8143118859E-01   0.1356543827E-01  -0.7097523300E-05  -0.9937186141E-03   0.3471403731E-04  -0.2979689675E-04
  -0.2971100782E+01   0.1705443992E-02   0.1998046974E+00   0.4029478339E-03  -0.1016603278E-02  -0.1953055590E-03   0.0000000000E+00   0.0000000000E+00   0.0000000000E+00   0.8041024375E-01   0.1267787063E-01  -0.6885415460E-05  -0.3516800721E-02   0.3169129007E-04  -0.1621829623E-04
  -0.3140557016E+01   0.2029680881E+00  -0.9307230616E-04   0.2756442073E-03  -0.1055377896E-02  -0.9307230616E-04   0.0000000000E+00   0.0000000000E+00   0.0000000000E+00   0.8270703475E-01   0.1398362398E-01   0.9720422178E-06  -0.6763062723E-03  -0.7735269769E-04   0.1216417635E-03
  -0.3146778880E+01   0.1136248469E-02  -0.9800044455E-04   0.2683999402E-03  -0.9996392709E-03  -0.9800044455E-04   0.0000000000E+00   0.0000000000E+00   0.0000000000E+00   0.8161998300E-01   0.1310707926E-01  -0.2087288632E-05  -0.2390512208E-02  -0.7569213725E-04   0.7302481926E-04
  -0.3140554043E+01   0.2029632266E+00   0.1998100850E+00   0.2786170713E-03  -0.1060239391E-02  -0.1899179992E-03   0.0000000000E+00   0.0000000000E+00   0.0000000000E+00   0.8330142872E-01   0.1339519690E-01  -0.1844796284E-05  -0.7068775697E-03   0.1646217158E-04  -0.2757343014E-04
  -0.3146775987E+01   0.1133143391E-02   0.1998071268E+00   0.2712926790E-03  -0.1002744349E-02  -0.1928761515E-03   0.0000000000E+00   0.0000000000E+00   0.0000000000E+00   0.8220673803E-01   0.1252278000E-01  -0.4963918703E-05  -0.2343724719E-02   0.1545777551E-04  -0.2030042988E-04
  -0.3319926190E+01   0.2021518114E+00  -0.9063611081E-04   0.1388301662E-03  -0.1048007590E-02  -0.9063611081E-04   0.0000000000E+00   0.0000000000E+00   0.0000000000E+00   0.8386282760E-01   0.1380895563E-01  -0.3821387838E-06  -0.2637017885E-03  -0.1184411528E-04   0.1143498181E-03
  -0.3323105647E+01   0.7816589405E-03  -0.9564808698E-04   0.1351134887E-03  -0.9911433795E-03  -0.9564808698E-04   0.0000000000E+00   0.0000000000E+00   0.0000000000E+00   0.8272418366E-01   0.1295298581E-01   0.3299341694E-06  -0.1095543549E-02  -0.1192951151E-04   0.8043293078E-04
  -0.3319924746E+01   0.2021469876E+00   0.1998115457E+00   0.1402735447E-03  -0.1052831426E-02  -0.1884573284E-03   0.0000000000E+00   0.0000000000E+00   0.0000000000E+00   0.8440550723E-01   0.1326879080E-01  -0.5104628170E-05  -0.2752942981E-03   0.2352764800E-04  -0.3079062272E-04
  -0.3323104240E+01   0.7784941019E-03   0.1998085356E+00   0.1365197061E-03  -0.9943082181E-03  -0.1914673546E-03   0.0000000000E+00   0.0000000000E+00   0.0000000000E+00   0.8326260683E-01   0.1241473646E-01  -0.2616703417E-05  -0.1076645355E-02   0.2276666828E-04  -0.1803698683E-04
  -0.3500000000E+01   0.2015993199E+00  -0.8984314987E-04   0.0000000000E+00  -0.1045430080E-02  -0.8984314987E-04   0.0000000000E+00   0.0000000000E+00   0.0000000000E+00   0.8424661433E-01   0.1374690265E-01   0.9479723429E-06  -0.2641566497E-03  -0.8601224362E-04   0.1190811596E-03
  -0.3500000000E+01   0.4452164869E-03  -0.9488199786E-04   0.0000000000E+00  -0.9882653231E-03  -0.9488199786E-04   0.0000000000E+00   0.0000000000E+00   0.0000000000E+00   0.8308781114E-01   0.1289560044E-01  -0.1210228229E-05  -0.2989032513E-03  -0.8311421087E-04   0.7580426641E-04
  -0.3500000000E+01   0.2015945476E+00   0.1998120211E+00   0.0000000000E+00  -0.1050202412E-02  -0.1879819157E-03   0.0000000000E+00   0.0000000000E+00   0.0000000000E+00   0.8477409707E-01   0.1322514578E-01  -0.1494122148E-05  -0.2750686606E-03  -0.5159176539E-04  -0.2760857278E-04
  -0.3500000000E+01   0.4419981219E-03   0.1998089963E+00   0.0000000000E+00  -0.9914836881E-03  -0.1910066701E-03   0.0000000000E+00   0.0000000000E+00   0.0000000000E+00   0.8361120255E-01   0.1237421914E-01  -0.3626764177E-05  -0.2870581286E-03  -0.5031319772E-04  -0.2130136545E-04
  -0.1175656563E+01   0.4121328330E+00  -0.3714222251E-03   0.1412266938E-02  -0.1489129043E-02  -0.3714222251E-03   0.0000000000E+00   0.0000000000E+00   0.0000000000E+00   0.2301569012E-01  -0.2230381855E-01   0.2416357829E-03   0.2495950650E-01  -0.4131585308E-02   0.3417259244E-02
  -0.1175606537E+01   0.4120689849E+00   0.1996334908E+00   0.1462293050E-02  -0.1552977103E-02  -0.3665121755E-03   0.0000000000E+00   0.0000000000E+00   0.0000000000E+00   0.1952362679E-01  -0.3308256764E-01   0.6808714528E-03   0.1559615448E-01  -0.2456279647E-02   0.2246876081E-02
  -0.1331587325E+01   0.4181259722E+00  -0.3104540780E-03   0.1364934935E-02  -0.1409306811E-02  -0.3104540780E-03   0.0000000000E+00   0.0000000000E+00   0.0000000000E+00   0.2947682875E-01  -0.1097155972E-01  -0.6171448712E-03   0.2543457602E-01  -0.2434578423E-02   0.1863478497E-02
  -0.1331540385E+01   0.4180795203E+00   0.1996730541E+00   0.1411875173E-02  -0.1455758721E-02  -0.3269488996E-03   0.0000000000E+00   0.0000000000E+00   0.0000000000E+00   0.3024015499E-01  -0.1764456513E-01   0.3470605889E-03   0.1883438484E-01  -0.2364127244E-02   0.1194832472E-02
  -0.1500214400E+01   0.4203773538E+00  -0.2561730473E-03   0.1305519980E-02  -0.1353760209E-02  -0.2561730473E-03   0.0000000000E+00   0.0000000000E+00   0.0000000000E+00   0.3798427203E-01  -0.1359094679E-02   0.1394328820E-03   0.2172741533E-01  -0.1818409954E-02   0.1070488236E-02
  -0.1500173998E+01   0.4203444305E+00   0.1997084172E+00   0.1345922179E-02  -0.1386683538E-02  -0.2915857833E-03   0.0000000000E+00   0.0000000000E+00   0.0000000000E+00   0.4018424348E-01  -0.6140083540E-02   0.8378171992E-03   0.1731636787E-01  -0.1295213684E-02   0.3989563041E-03
  -0.1675784508E+01   0.4203922669E+00  -0.2122551517E-03   0.1233771767E-02  -0.1309462141E-02  -0.2122551517E-03   0.0000000000E+00   0.0000000000E+00   0.0000000000E+00   0.4602351746E-01   0.4800742927E-02  -0.3437335868E-04   0.1658387676E-01  -0.1073572061E-02   0.6217652820E-03
  -0.1675751272E+01   0.4203685165E+00   0.1997370514E+00   0.1267007917E-02  -0.1333212477E-02  -0.2629516042E-03   0.0000000000E+00   0.0000000000E+00   0.0000000000E+00   0.4873841500E-01   0.1623430606E-02   0.3881685018E-03   0.1380854624E-01  -0.5521738181E-03   0.6282524198E-04
  -0.1855023231E+01   0.4191713814E+00  -0.1777508250E-03   0.1150169002E-02  -0.1271199628E-02  -0.1777508250E-03   0.0000000000E+00   0.0000000000E+00   0.0000000000E+00   0.5411683377E-01   0.9182167910E-02   0.6205258379E-04   0.1224779915E-01  -0.7437555892E-03   0.4298147314E-03
  -0.1854997014E+01   0.4191537388E+00   0.1997587723E+00   0.1176385545E-02  -0.1288842227E-02  -0.2412306658E-03   0.0000000000E+00   0.0000000000E+00   0.0000000000E+00   0.5657740800E-01   0.6747267858E-02   0.2196157593E-03   0.1048177883E-01  -0.1013640907E-03  -0.6189002150E-04
  -0.2036141118E+01   0.4173092865E+00  -0.1513960117E-03   0.1054561953E-02  -0.1236853454E-02  -0.1513960117E-03   0.0000000000E+00   0.0000000000E+00   0.0000000000E+00   0.6141957768E-01   0.1179018820E-01  -0.4464369483E-05   0.8848850406E-02  -0.4879090944E-03   0.3093551492E-03
  -0.2036120811E+01   0.4172954757E+00   0.1997750599E+00   0.1074869257E-02  -0.1250664298E-02  -0.2249430983E-03   0.0000000000E+00   0.0000000000E+00   0.0000000000E+00   0.6346293425E-01   0.9991760313E-02   0.5024920986E-04   0.7732748227E-02   0.6325689349E-04  -0.8965318155E-04
  -0.2218193183E+01   0.4151304825E+00  -0.1313069692E-03   0.9478266578E-03  -0.1206113494E-02  -0.1313069692E-03   0.0000000000E+00   0.0000000000E+00   0.0000000000E+00   0.6784096564E-01   0.1332572657E-01  -0.5811605815E-06   0.6398127802E-02  -0.3655613396E-03   0.2591054622E-03
  -0.2218177674E+01   0.4151192551E+00   0.1997872159E+00   0.9633362266E-03  -0.1217340881E-02  -0.2127871259E-03   0.0000000000E+00   0.0000000000E+00   0.0000000000E+00   0.6944041303E-01   0.1188881082E-01  -0.1879180760E-05   0.5664449529E-02   0.1095063099E-03  -0.7926390841E-04
  -0.2400544778E+01   0.4128546699E+00  -0.1160939042E-03   0.8312322657E-03  -0.1179250143E-02  -0.1160939042E-03   0.0000000000E+00   0.0000000000E+00   0.0000000000E+00   0.7323462144E-01   0.1405169982E-01  -0.1062559100E-04   0.4629425850E-02  -0.2704837615E-03   0.2155009123E-03
  -0.2400533021E+01   0.4128450893E+00   0.1997963510E+00   0.8429886953E-03  -0.1188830690E-02  -0.2036520116E-03   0.0000000000E+00   0.0000000000E+00   0.0000000000E+00   0.7448040031E-01   0.1292754507E-01  -0.2023492745E-04   0.4136372251E-02   0.9537599781E-04  -0.7067796545E-04
  -0.2582798352E+01   0.4106300473E+00  -0.1046401677E-03   0.7063280743E-03  -0.1156389697E-02  -0.1046401677E-03   0.0000000000E+00   0.0000000000E+00   0.0000000000E+00   0.7766411230E-01   0.1428842797E-01  -0.9170035148E-06   0.3360309568E-02  -0.2060807636E-03   0.2019617649E-03
  -0.2582789557E+01   0.4106216715E+00   0.1998031892E+00   0.7151233665E-03  -0.1164765470E-02  -0.1968138338E-03   0.0000000000E+00   0.0000000000E+00   0.0000000000E+00   0.7864402844E-01   0.1337162648E-01  -0.8864102613E-05   0.3015507763E-02   0.7356780597E-04  -0.5528336214E-04
  -0.2765153453E+01   0.4084166311E+00  -0.9616144888E-04   0.5743073812E-03  -0.1137671909E-02  -0.9616144888E-04   0.0000000000E+00   0.0000000000E+00   0.0000000000E+00   0.8116606306E-01   0.1423784603E-01  -0.7794013294E-06   0.2412906136E-02  -0.1512006009E-03   0.1794801295E-03
  -0.2765147021E+01   0.4084090409E+00   0.1998082551E+00   0.5807385623E-03  -0.1145262095E-02  -0.1917479472E-03   0.0000000000E+00   0.0000000000E+00   0.0000000000E+00   0.8195136559E-01   0.1349073980E-01  -0.6748094202E-05   0.2170869709E-02   0.5039455690E-04  -0.5093123370E-04
  -0.2948032886E+01   0.4062961096E+00  -0.9007006900E-04   0.4362736824E-03  -0.1122976414E-02  -0.9007006900E-04   0.0000000000E+00   0.0000000000E+00   0.0000000000E+00   0.8382113494E-01   0.1405594460E-01   0.1034518011E-05   0.1675971281E-02  -0.1046955492E-03   0.1737299685E-03
  -0.2948028395E+01   0.4062891301E+00   0.1998118971E+00   0.4407654560E-03  -0.1129955950E-02  -0.1881058663E-03   0.0000000000E+00   0.0000000000E+00   0.0000000000E+00   0.8447242395E-01   0.1342655889E-01  -0.1677911582E-05   0.1508207616E-02   0.3472145793E-04  -0.4209862140E-04
  -0.3131477008E+01   0.4045205067E+00  -0.8597402981E-04   0.2936018577E-03  -0.1112466349E-02  -0.8597402981E-04   0.0000000000E+00   0.0000000000E+00   0.0000000000E+00   0.8567969668E-01   0.1385129771E-01  -0.1169469646E-05   0.1040862740E-02  -0.7381127296E-04   0.1584951493E-03
  -0.3131474164E+01   0.4045138853E+00   0.1998143510E+00   0.2964460853E-03  -0.1119087660E-02  -0.1856520404E-03   0.0000000000E+00   0.0000000000E+00   0.0000000000E+00   0.8624044812E-01   0.1330525015E-01  -0.4978766143E-05   0.9348937063E-03   0.1657995715E-04  -0.4290570894E-04
  -0.3315471278E+01   0.4033232892E+00  -0.8360749399E-04   0.1477121257E-03  -0.1106086849E-02  -0.8360749399E-04   0.0000000000E+00   0.0000000000E+00   0.0000000000E+00   0.8678384821E-01   0.1370188525E-01   0.9802050100E-06   0.5654087465E-03  -0.1137970474E-04   0.1586692233E-03
  -0.3315469899E+01   0.4033169223E+00   0.1998157677E+00   0.1490910900E-03  -0.1112453726E-02  -0.1842352930E-03   0.0000000000E+00   0.0000000000E+00   0.0000000000E+00   0.8729496199E-01   0.1320458269E-01  -0.9383409286E-06   0.5132329754E-03   0.2264850158E-04  -0.3818809920E-04
  -0.3500000000E+01   0.4026553327E+00  -0.8284514723E-04   0.0000000000E+00  -0.1103908295E-02  -0.8284514723E-04   0.0000000000E+00   0.0000000000E+00   0.0000000000E+00   0.8714817873E-01   0.1364601090E-01  -0.7360388094E-06  -0.2019125803E-03  -0.8114119892E-04   0.1509067662E-03
  -0.3500000000E+01   0.4026490128E+00   0.1998162256E+00   0.0000000000E+00  -0.1110228170E-02  -0.1837774028E-03   0.0000000000E+00   0.0000000000E+00   0.0000000000E+00   0.8764197491E-01   0.1316451401E-01  -0.3753192986E-05  -0.2001615469E-03  -0.4897183235E-04  -0.4114625623E-04
  -0.1090753980E+01   0.6168090727E+00  -0.2798970076E-03   0.1813340360E-02  -0.1648542270E-02  -0.2798970076E-03   0.0000000000E+00   0.0000000000E+00   0.0000000000E+00   0.6040360582E-01  -0.2910367484E-01   0.1767237343E-03   0.3639152869E-01  -0.2019712311E-02   0.5138951345E-02
  -0.1090740918E+01   0.6167242705E+00   0.1996914314E+00   0.1826401827E-02  -0.1733344512E-02  -0.3085715998E-03   0.0000000000E+00   0.0000000000E+00   0.0000000000E+00   0.5154515659E-01  -0.2930531185E-01   0.4854864939E-03   0.2598637038E-01  -0.9327247046E-03   0.3285947031E-02
  -0.1259141383E+01   0.6217953661E+00  -0.2507814212E-03   0.1696886509E-02  -0.1523365912E-02  -0.2507814212E-03   0.0000000000E+00   0.0000000000E+00   0.0000000000E+00   0.6292673193E-01  -0.2224390228E-01  -0.1787321067E-03   0.3546294241E-01  -0.1171042039E-02   0.2395275894E-02
  -0.1259117954E+01   0.6217320914E+00   0.1997102482E+00   0.1720316235E-02  -0.1586640558E-02  -0.2897547707E-03   0.0000000000E+00   0.0000000000E+00   0.0000000000E+00   0.5987411292E-01  -0.2313097492E-01   0.8222046118E-03   0.2766426767E-01  -0.1357582127E-02   0.1439827232E-02
  -0.1436562967E+01   0.6239892882E+00  -0.2173583060E-03   0.1572652626E-02  -0.1439149776E-02  -0.2173583060E-03   0.0000000000E+00   0.0000000000E+00   0.0000000000E+00   0.6384194259E-01  -0.1219242249E-01  -0.1084042735E-04   0.3115125849E-01  -0.1227229751E-02   0.1498197452E-02
  -0.1436537129E+01   0.6239432325E+00   0.1997323417E+00   0.1598491400E-02  -0.1485205515E-02  -0.2676613260E-03   0.0000000000E+00   0.0000000000E+00   0.0000000000E+00   0.6310377270E-01  -0.1392560561E-01   0.4134252920E-03   0.2566831551E-01  -0.9531903777E-03   0.4596800617E-03
  -0.1618999520E+01   0.6239518184E+00  -0.1852935803E-03   0.1448229921E-02  -0.1378391553E-02  -0.1852935803E-03   0.0000000000E+00   0.0000000000E+00   0.0000000000E+00   0.6542232470E-01  -0.3478203931E-02   0.4808885223E-04   0.2554474165E-01  -0.8244727766E-03   0.9124956536E-03
  -0.1618974806E+01   0.6239180139E+00   0.1997533578E+00   0.1472944003E-02  -0.1412196137E-02  -0.2466452377E-03   0.0000000000E+00   0.0000000000E+00   0.0000000000E+00   0.6643976421E-01  -0.4966642382E-02   0.5097606580E-03   0.2188572717E-01  -0.4647945853E-03   0.4268883429E-04
  -0.1804279764E+01   0.6225472812E+00  -0.1577235959E-03   0.1323265828E-02  -0.1331257835E-02  -0.1577235959E-03   0.0000000000E+00   0.0000000000E+00   0.0000000000E+00   0.6856176029E-01   0.3054190232E-02   0.2280034137E-04   0.2032612977E-01  -0.6067236648E-03   0.6246512192E-03
  -0.1804258682E+01   0.6225218462E+00   0.1997708010E+00   0.1344347996E-02  -0.1356692782E-02  -0.2292020415E-03   0.0000000000E+00   0.0000000000E+00   0.0000000000E+00   0.6996704934E-01   0.1501157542E-02   0.1141220806E-03   0.1786066286E-01  -0.1050881114E-03  -0.1154717514E-03
  -0.1991147716E+01   0.6203950124E+00  -0.1353173604E-03   0.1195353721E-02  -0.1292876618E-02  -0.1353173604E-03   0.0000000000E+00   0.0000000000E+00   0.0000000000E+00   0.7248590438E-01   0.7457039778E-02   0.2761839240E-04   0.1595886396E-01  -0.4224392606E-03   0.4686226762E-03
  -0.1991130541E+01   0.6203753316E+00   0.1997846622E+00   0.1212528577E-02  -0.1312557436E-02  -0.2153407535E-03   0.0000000000E+00   0.0000000000E+00   0.0000000000E+00   0.7392590913E-01   0.6153209732E-02   0.9162887528E-04   0.1431802742E-01   0.4283221471E-04  -0.1319453371E-03
  -0.2178864597E+01   0.6178618762E+00  -0.1176516244E-03   0.1062753301E-02  -0.1261105775E-02  -0.1176516244E-03   0.0000000000E+00   0.0000000000E+00   0.0000000000E+00   0.7658723049E-01   0.1026608794E-01   0.1729717900E-04   0.1246304047E-01  -0.3200299360E-03   0.3675131938E-03
  -0.2178851136E+01   0.6178460273E+00   0.1997953621E+00   0.1076213858E-02  -0.1276954685E-02  -0.2046408949E-03   0.0000000000E+00   0.0000000000E+00   0.0000000000E+00   0.7780956217E-01   0.9103108332E-02  -0.3089282279E-05   0.1133822804E-01   0.8890204767E-04  -0.1239508860E-03
  -0.2366959089E+01   0.6151671432E+00  -0.1040196150E-03   0.9245909594E-03  -0.1234767826E-02  -0.1040196150E-03   0.0000000000E+00   0.0000000000E+00   0.0000000000E+00   0.8042819227E-01   0.1184194040E-01   0.9569197177E-05   0.9701786620E-02  -0.2381156961E-03   0.3138387679E-03
  -0.2366948738E+01   0.6151540446E+00   0.1998035641E+00   0.9349416737E-03  -0.1247866400E-02  -0.1964389117E-03   0.0000000000E+00   0.0000000000E+00   0.0000000000E+00   0.8144533382E-01   0.1088539912E-01   0.6719993953E-06   0.8915085729E-02   0.8017867108E-04  -0.9532673340E-04
  -0.2555179804E+01   0.6124444508E+00  -0.9367067584E-04   0.7808561040E-03  -0.1213381246E-02  -0.9367067584E-04   0.0000000000E+00   0.0000000000E+00   0.0000000000E+00   0.8380596827E-01   0.1262861995E-01   0.3887325751E-05   0.7483178889E-02  -0.1826492165E-03   0.2612806033E-03
  -0.2555172031E+01   0.6124332268E+00   0.1998097565E+00   0.7886294166E-03  -0.1224605152E-02  -0.1902464607E-03   0.0000000000E+00   0.0000000000E+00   0.0000000000E+00   0.8462450909E-01   0.1182952679E-01  -0.1536307503E-04   0.6918886832E-02   0.6205426464E-04  -0.8255097128E-04
  -0.2743520656E+01   0.6097861232E+00  -0.8599633812E-04   0.6318944098E-03  -0.1196354753E-02  -0.8599633812E-04   0.0000000000E+00   0.0000000000E+00   0.0000000000E+00   0.8661715418E-01   0.1290422472E-01   0.1697991143E-05   0.5638888152E-02  -0.1342244384E-03   0.2369730605E-03
  -0.2743514973E+01   0.6097763228E+00   0.1998143508E+00   0.6375768865E-03  -0.1206155189E-02  -0.1856522157E-03   0.0000000000E+00   0.0000000000E+00   0.0000000000E+00   0.8728920654E-01   0.1225250415E-01  -0.6856217745E-05   0.5233814492E-02   0.4278982299E-04  -0.6436507436E-04
  -0.2932119757E+01   0.6073427723E+00  -0.8050327560E-04   0.4783531406E-03  -0.1183457740E-02  -0.8050327560E-04   0.0000000000E+00   0.0000000000E+00   0.0000000000E+00   0.8881967653E-01   0.1291695824E-01   0.1612549741E-05   0.4052202072E-02  -0.9314048144E-04   0.2079521084E-03
  -0.2932115803E+01   0.6073339224E+00   0.1998176364E+00   0.4823065514E-03  -0.1192307611E-02  -0.1823665511E-03   0.0000000000E+00   0.0000000000E+00   0.0000000000E+00   0.8937533710E-01   0.1237168892E-01  -0.7334218326E-05   0.3770297983E-02   0.2975791979E-04  -0.5978654750E-04
  -0.3121068029E+01   0.6053346410E+00  -0.7683007412E-04   0.3211209894E-03  -0.1174329042E-02  -0.7683007412E-04   0.0000000000E+00   0.0000000000E+00   0.0000000000E+00   0.9039689292E-01   0.1281666738E-01   0.1797441365E-05   0.2607696151E-02  -0.6473679655E-04   0.1995771037E-03
  -0.3121065536E+01   0.6053264896E+00   0.1998198372E+00   0.3236138186E-03  -0.1182480393E-02  -0.1801657979E-03   0.0000000000E+00   0.0000000000E+00   0.0000000000E+00   0.9087545676E-01   0.1235084207E-01  -0.3315183423E-05   0.2426255665E-02   0.1428396302E-04  -0.5017003447E-04
  -0.3310387514E+01   0.6039641330E+00  -0.7472560198E-04   0.1612658108E-03  -0.1168923977E-02  -0.7472560198E-04   0.0000000000E+00   0.0000000000E+00   0.0000000000E+00   0.9133891590E-01   0.1271866887E-01   0.1436255209E-05   0.1334683495E-02  -0.9731357740E-05   0.1845470140E-03
  -0.3310386310E+01   0.6039563380E+00   0.1998210981E+00   0.1624700204E-03  -0.1176719036E-02  -0.1789048772E-03   0.0000000000E+00   0.0000000000E+00   0.0000000000E+00   0.9177006067E-01   0.1229767041E-01  -0.3878862260E-05   0.1252790494E-02   0.1982575362E-04  -0.5094237705E-04
  -0.3500000000E+01   0.6032270096E+00  -0.7405305869E-04   0.0000000000E+00  -0.1167009399E-02  -0.7405305869E-04   0.0000000000E+00   0.0000000000E+00   0.0000000000E+00   0.9165232131E-01   0.1267976791E-01   0.1163358503E-05  -0.1742560008E-03  -0.7095388592E-04   0.1874981597E-03
  -0.3500000000E+01   0.6032193729E+00   0.1998215021E+00   0.0000000000E+00  -0.1174646060E-02  -0.1785009153E-03   0.0000000000E+00   0.0000000000E+00   0.0000000000E+00   0.9206863534E-01   0.1227466473E-01  -0.3693319711E-05  -0.1959597622E-03  -0.4276612358E-04  -0.4642376950E-04
  -0.9964222835E+00   0.8147577894E+00  -0.1543662681E-03   0.2342231495E-02  -0.1898561649E-02  -0.1543662681E-03   0.0000000000E+00   0.0000000000E+00   0.0000000000E+00   0.1150046016E+00  -0.3666610975E-01   0.7039136032E-03   0.3232521389E-01   0.2216424927E-02   0.2657940013E-02
  -0.9964486035E+00   0.8146795258E+00   0.1997696581E+00   0.2315911489E-02  -0.1976825207E-02  -0.2303449493E-03   0.0000000000E+00   0.0000000000E+00   0.0000000000E+00   0.1041650376E+00  -0.2729343057E-01   0.2042475303E-02   0.2705419506E-01   0.1327348974E-02   0.1996574108E-02
  -0.1180326553E+01   0.8237748732E+00  -0.1685887130E-03   0.2130056603E-02  -0.1717329798E-02  -0.1685887130E-03   0.0000000000E+00   0.0000000000E+00   0.0000000000E+00   0.1023949040E+00  -0.3117468249E-01  -0.4948518333E-03   0.3197127623E-01  -0.2890804791E-03   0.2157821694E-02
  -0.1180330843E+01   0.8237110089E+00   0.1997616759E+00   0.2125766654E-02  -0.1781194138E-02  -0.2383271161E-03   0.0000000000E+00   0.0000000000E+00   0.0000000000E+00   0.9526476213E-01  -0.2778630812E-01  -0.3027787930E-03   0.2655596176E-01  -0.4990893632E-03   0.8681936321E-03
  -0.1370533207E+01   0.8249320437E+00  -0.1615344458E-03   0.1918332872E-02  -0.1584107288E-02  -0.1615344458E-03   0.0000000000E+00   0.0000000000E+00   0.0000000000E+00   0.9510016662E-01  -0.2163824394E-01   0.1793147871E-03   0.3045805694E-01  -0.5007059750E-03   0.1487042092E-02
  -0.1370524176E+01   0.8248821363E+00   0.1997667816E+00   0.1927363630E-02  -0.1634014726E-02  -0.2332213699E-03   0.0000000000E+00   0.0000000000E+00   0.0000000000E+00   0.9213162891E-01  -0.1995660192E-01   0.8958143262E-03   0.2607236024E-01  -0.5558777824E-03   0.3434114249E-03
  -0.1561445831E+01   0.8244178396E+00  -0.1457897731E-03   0.1726388614E-02  -0.1490582412E-02  -0.1457897731E-03   0.0000000000E+00   0.0000000000E+00   0.0000000000E+00   0.8930843362E-01  -0.1171244867E-01  -0.3316852016E-04   0.2742500296E-01  -0.5231334480E-03   0.1014450120E-02
  -0.1561432225E+01   0.8243789555E+00   0.1997773331E+00   0.1739994502E-02  -0.1529466490E-02  -0.2226698603E-03   0.0000000000E+00   0.0000000000E+00   0.0000000000E+00   0.8856728993E-01  -0.1159400521E-01   0.2083413952E-03   0.2393888792E-01  -0.3443739450E-03  -0.3285872280E-04
  -0.1753463790E+01   0.8227983194E+00  -0.1281186087E-03   0.1548599946E-02  -0.1422457571E-02  -0.1281186087E-03   0.0000000000E+00   0.0000000000E+00   0.0000000000E+00   0.8715956294E-01  -0.3519874439E-02   0.8174211348E-04   0.2355156036E-01  -0.4058410455E-03   0.7548946947E-03
  -0.1753449634E+01   0.8227681005E+00   0.1997886214E+00   0.1562756475E-02  -0.1452676538E-02  -0.2113815508E-03   0.0000000000E+00   0.0000000000E+00   0.0000000000E+00   0.8756004686E-01  -0.3902179607E-02   0.3017642840E-03   0.2104121336E-01  -0.1040518339E-03  -0.1310649597E-03
  -0.1947940857E+01   0.8203149264E+00  -0.1119283951E-03   0.1377312707E-02  -0.1371102642E-02  -0.1119283951E-03   0.0000000000E+00   0.0000000000E+00   0.0000000000E+00   0.8700649119E-01   0.2503368858E-02  -0.9870607613E-05   0.1967295495E-01  -0.3132740527E-03   0.5637149523E-03
  -0.1947928335E+01   0.8202909142E+00   0.1997986957E+00   0.1389835306E-02  -0.1395114808E-02  -0.2013073222E-03   0.0000000000E+00   0.0000000000E+00   0.0000000000E+00   0.8779909434E-01   0.1785873809E-02   0.3682682794E-04   0.1783867761E-01   0.2089792844E-04  -0.1748232481E-03
  -0.2141607908E+01   0.8177218355E+00  -0.9836222971E-04   0.1210542126E-02  -0.1332410549E-02  -0.9836222971E-04   0.0000000000E+00   0.0000000000E+00   0.0000000000E+00   0.8825024674E-01   0.6463721318E-02   0.9563252249E-05   0.1624220425E-01  -0.2484518062E-03   0.4697577154E-03
  -0.2141597592E+01   0.8177024600E+00   0.1998069415E+00   0.1220857994E-02  -0.1351785989E-02  -0.1930615136E-03   0.0000000000E+00   0.0000000000E+00   0.0000000000E+00   0.8910759684E-01   0.5723487877E-02   0.4257913598E-04   0.1491900081E-01   0.5899097833E-04  -0.1389062760E-03
  -0.2335234800E+01   0.8150323893E+00  -0.8757895548E-04   0.1044119779E-02  -0.1303050709E-02  -0.8757895548E-04   0.0000000000E+00   0.0000000000E+00   0.0000000000E+00   0.9008340977E-01   0.8860535527E-02  -0.6935216237E-05   0.1322385981E-01  -0.1885634789E-03   0.3819421202E-03
  -0.2335226718E+01   0.8150162978E+00   0.1998134286E+00   0.1052202360E-02  -0.1319142229E-02  -0.1865744385E-03   0.0000000000E+00   0.0000000000E+00   0.0000000000E+00   0.9086056518E-01   0.8160252165E-02  -0.5340688498E-05   0.1223822431E-01   0.6071690443E-04  -0.1222384320E-03
  -0.2528926308E+01   0.8123276308E+00  -0.7929697689E-04   0.8760124622E-03  -0.1280777181E-02  -0.7929697689E-04   0.0000000000E+00   0.0000000000E+00   0.0000000000E+00   0.9206198989E-01   0.1018715300E-01  -0.3243064399E-06   0.1055655398E-01  -0.1451210254E-03   0.3340136466E-03
  -0.2528920205E+01   0.8123140917E+00   0.1998183850E+00   0.8821152857E-03  -0.1294316267E-02  -0.1816180299E-03   0.0000000000E+00   0.0000000000E+00   0.0000000000E+00   0.9271763700E-01   0.9585130449E-02   0.1410360579E-05   0.9824022061E-02   0.4636558369E-04  -0.9250820026E-04
  -0.2722714779E+01   0.8097115430E+00  -0.7316252928E-04   0.7053605585E-03  -0.1264246969E-02  -0.7316252928E-04   0.0000000000E+00   0.0000000000E+00   0.0000000000E+00   0.9389010830E-01   0.1081348926E-01  -0.2059870286E-05   0.8162615993E-02  -0.1054134977E-03   0.2821374231E-03
  -0.2722710336E+01   0.8096998191E+00   0.1998220541E+00   0.7098035221E-03  -0.1275970950E-02  -0.1779489072E-03   0.0000000000E+00   0.0000000000E+00   0.0000000000E+00   0.9443078695E-01   0.1031194724E-01  -0.2179034847E-05   0.7619969333E-02   0.3305323599E-04  -0.8303267335E-04
  -0.2916673342E+01   0.8073319458E+00  -0.6880759828E-04   0.5319882700E-03  -0.1252267250E-02  -0.6880759828E-04   0.0000000000E+00   0.0000000000E+00   0.0000000000E+00   0.9541680322E-01   0.1103120877E-01  -0.6562537055E-06   0.5969742596E-02  -0.7293785693E-04   0.2564936759E-03
  -0.2916670280E+01   0.8073216148E+00   0.1998246595E+00   0.5350499795E-03  -0.1262598227E-02  -0.1753435479E-03   0.0000000000E+00   0.0000000000E+00   0.0000000000E+00   0.9586029690E-01   0.1061813070E-01  -0.1563197755E-05   0.5585137683E-02   0.2202768120E-04  -0.6711828364E-04
  -0.3110877516E+01   0.8053734089E+00  -0.6592680970E-04   0.3561944570E-03  -0.1244209073E-02  -0.6592680970E-04   0.0000000000E+00   0.0000000000E+00   0.0000000000E+00   0.9654949579E-01   0.1105226361E-01  -0.5697576111E-06   0.3899012959E-02  -0.4976179034E-04   0.2270824176E-03
  -0.3110875600E+01   0.8053639702E+00   0.1998263849E+00   0.3581096925E-03  -0.1253647815E-02  -0.1736181040E-03   0.0000000000E+00   0.0000000000E+00   0.0000000000E+00   0.9692412651E-01   0.1070764070E-01   0.2951788961E-06   0.3650491720E-02   0.1096991934E-04  -0.6460274759E-04
  -0.3305354836E+01   0.8040127216E+00  -0.6429351043E-04   0.1785736280E-03  -0.1239472440E-02  -0.6429351043E-04   0.0000000000E+00   0.0000000000E+00   0.0000000000E+00   0.9723992059E-01   0.1101398595E-01  -0.1889681582E-07   0.1967221664E-02  -0.7776270203E-05   0.2201098792E-03
  -0.3305353919E+01   0.8040038555E+00   0.1998273624E+00   0.1794910520E-03  -0.1248338480E-02  -0.1726405695E-03   0.0000000000E+00   0.0000000000E+00   0.0000000000E+00   0.9757058349E-01   0.1070920396E-01  -0.1149320795E-05   0.1848001821E-02   0.1491241715E-04  -0.5664284792E-04
  -0.3500000000E+01   0.8032303181E+00  -0.6378280780E-04   0.0000000000E+00  -0.1237836877E-02  -0.6378280780E-04   0.0000000000E+00   0.0000000000E+00   0.0000000000E+00   0.9747015709E-01   0.1099421143E-01  -0.2538697680E-06  -0.1260603262E-03  -0.5373989063E-04   0.2096537499E-03
  -0.3500000000E+01   0.8032216020E+00   0.1998276694E+00   0.0000000000E+00  -0.1246552978E-02  -0.1723335865E-03   0.0000000000E+00   0.0000000000E+00   0.0000000000E+00   0.9778768289E-01   0.1070422051E-01   0.5585118973E-06  -0.1343068983E-03  -0.3247820944E-04  -0.5919099946E-04
  -0.9002091041E+00   0.1019434955E+01  -0.4146266559E-04   0.2909982901E-02  -0.2239675458E-02  -0.4146266559E-04   0.0000000000E+00   0.0000000000E+00   0.0000000000E+00   0.1556743234E+00  -0.3626581128E-01  -0.1485799706E-02   0.8759200154E-02   0.3048348478E-02   0.9937745207E-03
  -0.9002593395E+00   0.1019383830E+01   0.1998424596E+00   0.2859747513E-02  -0.2290799532E-02  -0.1575433997E-03   0.0000000000E+00   0.0000000000E+00   0.0000000000E+00   0.1446089255E+00  -0.2628081631E-01  -0.1611906895E-02   0.1009384340E-01   0.1894607304E-02   0.4557716161E-03
  -0.1110112980E+01   0.1024107283E+01  -0.8577989077E-04   0.2577230347E-02  -0.1970817215E-02  -0.8577989077E-04   0.0000000000E+00   0.0000000000E+00   0.0000000000E+00   0.1360713281E+00  -0.3218848941E-01   0.3218651609E-03   0.1821066949E-01  -0.7821254596E-04   0.1896756690E-02
  -0.1110134932E+01   0.1024056636E+01   0.1998126273E+00   0.2555278284E-02  -0.2021463739E-02  -0.1873757186E-03   0.0000000000E+00   0.0000000000E+00   0.0000000000E+00   0.1279657559E+00  -0.2730523073E-01   0.3857018558E-03   0.1699195908E-01  -0.1073226595E-03   0.5354332290E-03
  -0.1305515530E+01   0.1025688193E+01  -0.1004005497E-03   0.2295969578E-02  -0.1786447263E-02  -0.1004005497E-03   0.0000000000E+00   0.0000000000E+00   0.0000000000E+00   0.1226416317E+00  -0.2587000201E-01  -0.2964463126E-03   0.2104626030E-01   0.1836153977E-03   0.1105366408E-02
  -0.1305520371E+01   0.1025642294E+01   0.1998046580E+00   0.2291128925E-02  -0.1832346128E-02  -0.1953449801E-03   0.0000000000E+00   0.0000000000E+00   0.0000000000E+00   0.1185470334E+00  -0.2269030666E-01   0.7337923330E-04   0.1879740013E-01  -0.3209594204E-03   0.1275237107E-03
  -0.1504189086E+01   0.1024347416E+01  -0.9956915293E-04   0.2039483974E-02  -0.1647953521E-02  -0.9956915293E-04   0.0000000000E+00   0.0000000000E+00   0.0000000000E+00   0.1127371009E+00  -0.1604212707E-01   0.3892798925E-04   0.2216396938E-01  -0.3157674654E-03   0.1005801620E-02
  -0.1504185612E+01   0.1024308726E+01   0.1998053512E+00   0.2042957719E-02  -0.1686643963E-02  -0.1946517793E-03   0.0000000000E+00   0.0000000000E+00   0.0000000000E+00   0.1106247491E+00  -0.1502366776E-01   0.9421681244E-04   0.1980365724E-01  -0.2260119821E-03  -0.6197535503E-04
  -0.1702852640E+01   0.1022270046E+01  -0.9232451839E-04   0.1807299602E-02  -0.1548563955E-02  -0.9232451839E-04   0.0000000000E+00   0.0000000000E+00   0.0000000000E+00   0.1061952242E+00  -0.7968798753E-02  -0.6568687857E-04   0.2152987482E-01  -0.1930506637E-03   0.7098715962E-03
  -0.1702845488E+01   0.1022237697E+01   0.1998102988E+00   0.1814452205E-02  -0.1580912910E-02  -0.1897042145E-03   0.0000000000E+00   0.0000000000E+00   0.0000000000E+00   0.1057052344E+00  -0.7638237159E-02   0.5463572434E-04   0.1949084194E-01  -0.1138019494E-03  -0.1647658580E-03
  -0.1908146900E+01   0.1018897088E+01  -0.8296901869E-04   0.1585080198E-02  -0.1474351661E-02  -0.8296901869E-04   0.0000000000E+00   0.0000000000E+00   0.0000000000E+00   0.1028570265E+00  -0.1324246603E-02   0.2294709529E-04   0.1962744458E-01  -0.2293977380E-03   0.6203346374E-03
  -0.1908139454E+01   0.1018870641E+01   0.1998160420E+00   0.1592525772E-02  -0.1500799247E-02  -0.1839610199E-03   0.0000000000E+00   0.0000000000E+00   0.0000000000E+00   0.1029559481E+00  -0.1656329949E-02  -0.1274198378E-04   0.1793082587E-01   0.1580233788E-06  -0.1575946146E-03
  -0.2106623475E+01   0.1016463716E+01  -0.7444956673E-04   0.1381575143E-02  -0.1423753855E-02  -0.7444956673E-04   0.0000000000E+00   0.0000000000E+00   0.0000000000E+00   0.1014516466E+00   0.3050090314E-02  -0.2312998472E-05   0.1736404296E-01  -0.1511269900E-03   0.4909713419E-03
  -0.2106616855E+01   0.1016441704E+01   0.1998212763E+00   0.1388195032E-02  -0.1445765827E-02  -0.1787267266E-03   0.0000000000E+00   0.0000000000E+00   0.0000000000E+00   0.1018696525E+00   0.2624437898E-02   0.5483046009E-06   0.1601126961E-01   0.2709415422E-04  -0.1503388107E-03
  -0.2305256041E+01   0.1013949713E+01  -0.6737522693E-04   0.1183359225E-02  -0.1387516706E-02  -0.6737522693E-04   0.0000000000E+00   0.0000000000E+00   0.0000000000E+00   0.1013378304E+00   0.5901480009E-02   0.1291517505E-04   0.1480846387E-01  -0.1338152932E-03   0.4279029270E-03
  -0.2305250820E+01   0.1013931424E+01   0.1998255097E+00   0.1188580029E-02  -0.1405806240E-02  -0.1744932677E-03   0.0000000000E+00   0.0000000000E+00   0.0000000000E+00   0.1017729018E+00   0.5400082192E-02  -0.2381967156E-04   0.1372378424E-01   0.3623308230E-04  -0.1192655792E-03
  -0.2503969262E+01   0.1011433909E+01  -0.6198095321E-04   0.9872180040E-03  -0.1362020776E-02  -0.6198095321E-04   0.0000000000E+00   0.0000000000E+00   0.0000000000E+00   0.1017885196E+00   0.7510467684E-02   0.1842526888E-05   0.1224313919E-01  -0.8843322599E-04   0.3514468291E-03
  -0.2503965325E+01   0.1011418455E+01   0.1998287597E+00   0.9911547149E-03  -0.1377474801E-02  -0.1712433367E-03   0.0000000000E+00   0.0000000000E+00   0.0000000000E+00   0.1022020832E+00   0.7093128411E-02  -0.9119047059E-05   0.1139397943E-01   0.2890254946E-04  -0.1060366849E-03
  -0.2702757529E+01   0.1008996098E+01  -0.5805462328E-04   0.7913810106E-03  -0.1344231960E-02  -0.5805462328E-04   0.0000000000E+00   0.0000000000E+00   0.0000000000E+00   0.1024942776E+00   0.8354797669E-02   0.6381784961E-05   0.9696008792E-02  -0.7034621492E-04   0.3114672689E-03
  -0.2702754762E+01   0.1008982941E+01   0.1998310977E+00   0.7941481664E-03  -0.1357388508E-02  -0.1689052603E-03   0.0000000000E+00   0.0000000000E+00   0.0000000000E+00   0.1028263097E+00   0.7998416044E-02  -0.1372360441E-04   0.9043869043E-02   0.2009837416E-04  -0.8534830020E-04
  -0.2901660621E+01   0.1006750969E+01  -0.5537148374E-04   0.5949187571E-03  -0.1332250800E-02  -0.5537148374E-04   0.0000000000E+00   0.0000000000E+00   0.0000000000E+00   0.1031918985E+00   0.8704246347E-02   0.4409445413E-05   0.7208002490E-02  -0.4192991832E-04   0.2655014417E-03
  -0.2901658759E+01   0.1006739461E+01   0.1998327088E+00   0.5967808730E-03  -0.1343759054E-02  -0.1672942422E-03   0.0000000000E+00   0.0000000000E+00   0.0000000000E+00   0.1034630220E+00   0.8437476309E-02  -0.3434758062E-06   0.6736179598E-02   0.1367869909E-04  -0.7941547776E-04
  -0.3100755637E+01   0.1004852814E+01  -0.5366134914E-04   0.3975030564E-03  -0.1324496095E-02  -0.5366134914E-04   0.0000000000E+00   0.0000000000E+00   0.0000000000E+00   0.1037627426E+00   0.8811994316E-02   0.4295462827E-05   0.4759543701E-02  -0.3080902277E-04   0.2461347496E-03
  -0.3100754519E+01   0.1004842511E+01   0.1998337290E+00   0.3986210903E-03  -0.1334799058E-02  -0.1662740023E-03   0.0000000000E+00   0.0000000000E+00   0.0000000000E+00   0.1039725946E+00   0.8597479330E-02  -0.6152498096E-05   0.4448802573E-02   0.6240007709E-05  -0.6806735753E-04
  -0.3300151526E+01   0.1003469670E+01  -0.5272715958E-04   0.1991436190E-03  -0.1320159719E-02  -0.5272715958E-04   0.0000000000E+00   0.0000000000E+00   0.0000000000E+00   0.1041218741E+00   0.8818255372E-02   0.5524233293E-05   0.2406096687E-02  -0.3896946407E-05   0.2240473491E-03
  -0.3300150997E+01   0.1003460031E+01   0.1998342902E+00   0.1996727254E-03  -0.1329799366E-02  -0.1657128217E-03   0.0000000000E+00   0.0000000000E+00   0.0000000000E+00   0.1043020764E+00   0.8648797730E-02   0.4613875121E-05   0.2262103261E-02   0.8529283436E-05  -0.6759598937E-04
  -0.3500000000E+01   0.1002742237E+01  -0.5244552835E-04   0.0000000000E+00  -0.1318623321E-02  -0.5244552835E-04   0.0000000000E+00   0.0000000000E+00   0.0000000000E+00   0.1042445782E+00   0.8814142708E-02   0.3774577434E-05  -0.1201975403E-03  -0.3039579298E-04   0.2247858803E-03
  -0.3500000000E+01   0.1002732854E+01   0.1998344577E+00   0.0000000000E+00  -0.1328005736E-02  -0.1655452510E-03   0.0000000000E+00   0.0000000000E+00   0.0000000000E+00   0.1044083489E+00   0.8651392065E-02  -0.3845266785E-05  -0.1503456640E-03  -0.1777778729E-04  -0.6267244695E-04
  -0.3297155015E+01   0.1202548495E+01  -0.4056555581E-04   0.2194748326E-03  -0.1412405008E-02  -0.4056555581E-04   0.0000000000E+00   0.0000000000E+00   0.0000000000E+00   0.1114947892E+00   0.6357191697E-02  -0.6340383007E-05   0.2593253597E-02  -0.3895509115E-06   0.2439250640E-03
  -0.3500000000E+01   0.1201957777E+01  -0.4058109381E-04   0.0000000000E+00  -0.1411002709E-02  -0.4058109381E-04   0.0000000000E+00   0.0000000000E+00   0.0000000000E+00   0.1114929627E+00   0.6361209556E-02  -0.2275959720E-05  -0.9643720766E-04  -0.1661425618E-05   0.2311721216E-03
  -0.3297154981E+01   0.1202538614E+01   0.1998415814E+00   0.2195089269E-03  -0.1422286322E-02  -0.1584215868E-03   0.0000000000E+00   0.0000000000E+00   0.0000000000E+00   0.1115288526E+00   0.6349999580E-02   0.1389102504E-06   0.2419449375E-02   0.1742655099E-05  -0.7872841037E-04
  -0.3500000000E+01   0.1201948144E+01   0.1998415705E+00   0.0000000000E+00  -0.1420636425E-02  -0.1584325224E-03   0.0000000000E+00   0.0000000000E+00   0.0000000000E+00   0.1115198736E+00   0.6369540476E-02   0.1288479727E-04  -0.1153465779E-03  -0.8937439498E-06  -0.8048697623E-04
  -0.3295775822E+01   0.1401474076E+01  -0.2835727965E-04   0.2384882863E-03  -0.1516864407E-02  -0.2835727965E-04   0.0000000000E+00   0.0000000000E+00   0.0000000000E+00   0.1189744895E+00   0.3946068454E-02   0.1924237798E-04   0.2483721820E-02   0.6160987046E-05   0.2022167851E-03
  -0.3500000000E+01   0.1401047574E+01  -0.2873823182E-04   0.0000000000E+00  -0.1515406068E-02  -0.2873823182E-04   0.0000000000E+00   0.0000000000E+00   0.0000000000E+00   0.1188264354E+00   0.3943713955E-02   0.1087417947E-04  -0.1143942418E-03   0.3545885107E-04   0.1994852881E-03
  -0.3295776347E+01   0.1401464324E+01   0.1998488236E+00   0.2379633693E-03  -0.1526615835E-02  -0.1511793688E-03   0.0000000000E+00   0.0000000000E+00   0.0000000000E+00   0.1187862722E+00   0.4068941420E-02   0.3504240791E-04   0.2296818969E-02  -0.4034350289E-05  -0.9805225950E-04
  -0.3500000000E+01   0.1401038145E+01   0.1998485943E+00   0.0000000000E+00  -0.1524834740E-02  -0.1514086890E-03   0.0000000000E+00   0.0000000000E+00   0.0000000000E+00   0.1186232777E+00   0.4069602728E-02   0.1704131821E-04  -0.1483945795E-03   0.2091722600E-04  -0.9556411210E-04
  -0.3295411373E+01   0.1600371015E+01  -0.1687232196E-04   0.2550874945E-03  -0.1633035002E-02  -0.1687232196E-04   0.0000000000E+00   0.0000000000E+00   0.0000000000E+00   0.1258207924E+00   0.1786610501E-02  -0.3753126443E-04   0.2103011756E-02   0.1505963643E-04   0.2081752216E-03
  -0.3500000000E+01   0.1600100778E+01  -0.1763021920E-04   0.0000000000E+00  -0.1631471686E-02  -0.1763021920E-04   0.0000000000E+00   0.0000000000E+00   0.0000000000E+00   0.1255354542E+00   0.1795332544E-02  -0.2656317855E-04  -0.1232107456E-03   0.6914062410E-04   0.1943647742E-03
  -0.3295412501E+01   0.1600361959E+01   0.1998556622E+00   0.2539589736E-03  -0.1642091138E-02  -0.1443408406E-03   0.0000000000E+00   0.0000000000E+00   0.0000000000E+00   0.1254618449E+00   0.2067571245E-02  -0.8256454295E-05   0.1895813568E-02  -0.4896406166E-05  -0.1434778657E-03
  -0.3500000000E+01   0.1600092033E+01   0.1998551942E+00   0.0000000000E+00  -0.1640216739E-02  -0.1448087591E-03   0.0000000000E+00   0.0000000000E+00   0.0000000000E+00   0.1251706538E+00   0.2084527579E-02   0.1624968065E-04  -0.1501110248E-03   0.4323305590E-04  -0.1452073828E-03
  -0.3295447794E+01   0.1799259694E+01  -0.6447122111E-05   0.2682557793E-03  -0.1759016076E-02  -0.6447122111E-05   0.0000000000E+00   0.0000000000E+00   0.0000000000E+00   0.1318192541E+00   0.4557228501E-03   0.4893694862E-04   0.1210010813E-02   0.3338190614E-04   0.8264085785E-04
  -0.3500000000E+01   0.1799131041E+01  -0.7643967496E-05   0.0000000000E+00  -0.1757139220E-02  -0.7643967496E-05   0.0000000000E+00   0.0000000000E+00   0.0000000000E+00   0.1313444729E+00   0.4500254776E-03   0.3334958533E-04  -0.1648365561E-03   0.1142419159E-03   0.7579153890E-04
  -0.3295449491E+01   0.1799251531E+01   0.1998616333E+00   0.2665585721E-03  -0.1767178556E-02  -0.1383696710E-03   0.0000000000E+00   0.0000000000E+00   0.0000000000E+00   0.1311698317E+00   0.6867791856E-03   0.1130190173E-03   0.1051612658E-02   0.7183162716E-05  -0.1790301411E-03
  -0.3500000000E+01   0.1799123215E+01   0.1998609173E+00   0.0000000000E+00  -0.1764964970E-02  -0.1390857096E-03   0.0000000000E+00   0.0000000000E+00   0.0000000000E+00   0.1306792781E+00   0.6692472873E-03   0.8318325613E-04  -0.1979047215E-03   0.6765451636E-04  -0.1758616166E-03
  -0.3295547562E+01   0.1998108179E+01   0.1865243076E-05   0.2762483464E-03  -0.1891820674E-02   0.1865243076E-05   0.0000000000E+00   0.0000000000E+00   0.0000000000E+00   0.1352865969E+00  -0.1338909405E-03  -0.1157597803E-03   0.4442142933E-03   0.1151407930E-03   0.1608926791E-04
  -0.3500000000E+01   0.1998110529E+01   0.3270197617E-06   0.0000000000E+00  -0.1889471478E-02   0.3270197617E-06   0.0000000000E+00   0.0000000000E+00   0.0000000000E+00   0.1346744868E+00  -0.1175462418E-03  -0.1049430918E-03  -0.2145765311E-03   0.1425685580E-03   0.1797839298E-04
  -0.3295549378E+01   0.1998101070E+01   0.1998671300E+00   0.2744321347E-03  -0.1898929771E-02  -0.1328729700E-03   0.0000000000E+00   0.0000000000E+00   0.0000000000E+00   0.1344581500E+00  -0.1304446273E-04  -0.3546166836E-03   0.3462572374E-03   0.8664523540E-04  -0.6099624212E-04
  -0.3500000000E+01   0.1998103725E+01   0.1998661769E+00   0.0000000000E+00  -0.1896274671E-02  -0.1338260636E-03   0.0000000000E+00   0.0000000000E+00   0.0000000000E+00   0.1338471727E+00   0.1309164714E-05  -0.3184258834E-03  -0.2407381803E-03   0.8929653158E-04  -0.5803220621E-04
  -0.3094791991E+01   0.1203642653E+01  -0.4058858402E-04   0.4385891854E-03  -0.1416637117E-02  -0.4058858402E-04   0.0000000000E+00   0.0000000000E+00   0.0000000000E+00   0.1115101546E+00   0.6329956701E-02  -0.3934566376E-05   0.5125141750E-02  -0.1758972192E-05   0.2606280433E-03
  -0.3094791849E+01   0.1203631934E+01   0.1998415742E+00   0.4387309928E-03  -0.1427355945E-02  -0.1584287582E-03   0.0000000000E+00   0.0000000000E+00   0.0000000000E+00   0.1115850942E+00   0.6297898408E-02   0.1103864368E-04   0.4763832596E-02   0.4366982903E-05  -0.8503788431E-04
  -0.3091914753E+01   0.1402259734E+01  -0.2730642826E-04   0.4772171631E-03  -0.1521205605E-02  -0.2730642826E-04   0.0000000000E+00   0.0000000000E+00   0.0000000000E+00   0.1194046527E+00   0.3922326625E-02   0.1492009767E-04   0.4881464387E-02   0.3056048229E-04   0.2280212342E-03
  -0.3091915753E+01   0.1402249084E+01   0.1998494664E+00   0.4762168073E-03  -0.1531856281E-02  -0.1505366057E-03   0.0000000000E+00   0.0000000000E+00   0.0000000000E+00   0.1192391054E+00   0.4011896674E-02   0.1582875027E-04   0.4484727323E-02   0.4308294455E-05  -0.9563891756E-04
  -0.3091016272E+01   0.1600868924E+01  -0.1461918870E-04   0.5111877446E-03  -0.1637955809E-02  -0.1461918870E-04   0.0000000000E+00   0.0000000000E+00   0.0000000000E+00   0.1266880773E+00   0.1771169049E-02  -0.3527419809E-04   0.4117219182E-02   0.7341477634E-04   0.2394387536E-03
  -0.3091018461E+01   0.1600858880E+01   0.1998570456E+00   0.5089990940E-03  -0.1648000456E-02  -0.1429573794E-03   0.0000000000E+00   0.0000000000E+00   0.0000000000E+00   0.1263719436E+00   0.2054920153E-02   0.8983758262E-06   0.3684314740E-02   0.2025416712E-04  -0.1439905377E-03
  -0.3090949809E+01   0.1799496064E+01  -0.2919287698E-05   0.5383107732E-03  -0.1764886220E-02  -0.2919287698E-05   0.0000000000E+00   0.0000000000E+00   0.0000000000E+00   0.1332124189E+00   0.4447505903E-03   0.5500175157E-04   0.2313824747E-02   0.1356022599E-03   0.1070595042E-03
  -0.3090953169E+01   0.1799486913E+01   0.1998637589E+00   0.5349513735E-03  -0.1774037209E-02  -0.1362441080E-03   0.0000000000E+00   0.0000000000E+00   0.0000000000E+00   0.1325911392E+00   0.6790291227E-03   0.1113919430E-03   0.1971923436E-02   0.5776465238E-04  -0.1851794969E-03
  -0.3091050260E+01   0.1998100735E+01   0.6524519435E-05   0.5551599143E-03  -0.1899264553E-02   0.6524519435E-05   0.0000000000E+00   0.0000000000E+00   0.0000000000E+00   0.1371504074E+00  -0.1638164787E-03  -0.1000421316E-03   0.7682370702E-03   0.3229033656E-03   0.2323635606E-04
  -0.3091053831E+01   0.1998092647E+01   0.1998699983E+00   0.5515885489E-03  -0.1907353278E-02  -0.1300047476E-03   0.0000000000E+00   0.0000000000E+00   0.0000000000E+00   0.1363575299E+00  -0.2376329148E-04  -0.3495588361E-03   0.5619921341E-03   0.2358522655E-03  -0.6949893058E-04
  -0.2892723898E+01   0.1205123144E+01  -0.4077881451E-04   0.6577017363E-03  -0.1424355603E-02  -0.4077881451E-04   0.0000000000E+00   0.0000000000E+00   0.0000000000E+00   0.1115582825E+00   0.6196266560E-02  -0.1068815749E-04   0.7689621936E-02  -0.8996572939E-05   0.3047302855E-03
  -0.2892723543E+01   0.1205111085E+01   0.1998414722E+00   0.6580567540E-03  -0.1436415325E-02  -0.1585308147E-03   0.0000000000E+00   0.0000000000E+00   0.0000000000E+00   0.1116838293E+00   0.6110388230E-02  -0.6747587248E-05   0.7143452208E-02   0.6789109145E-05  -0.8693387502E-04
  -0.2888279547E+01   0.1403319089E+01  -0.2567232107E-04   0.7170528089E-03  -0.1529490979E-02  -0.2567232107E-04   0.0000000000E+00   0.0000000000E+00   0.0000000000E+00   0.1201384132E+00   0.3829458070E-02   0.2820128199E-04   0.7284666192E-02   0.4127556436E-04   0.2592105796E-03
  -0.2888280879E+01   0.1403306881E+01   0.1998504641E+00   0.7157208506E-03  -0.1541698581E-02  -0.1495389005E-03   0.0000000000E+00   0.0000000000E+00   0.0000000000E+00   0.1200262457E+00   0.3879777008E-02   0.3364908268E-04   0.6691873701E-02   0.8498353719E-05  -0.9691938848E-04
  -0.2886750993E+01   0.1601540537E+01  -0.1100366317E-04   0.7695565047E-03  -0.1647263418E-02  -0.1100366317E-04   0.0000000000E+00   0.0000000000E+00   0.0000000000E+00   0.1280979045E+00   0.1694792947E-02  -0.5794246723E-04   0.6136772717E-02   0.9691471257E-04   0.3016244579E-03
  -0.2886754146E+01   0.1601528871E+01   0.1998592824E+00   0.7664040466E-03  -0.1658929158E-02  -0.1407206345E-03   0.0000000000E+00   0.0000000000E+00   0.0000000000E+00   0.1278431538E+00   0.1964156363E-02  -0.4504814405E-04   0.5486598659E-02   0.2802240836E-04  -0.1378495308E-03
  -0.2886500837E+01   0.1799814641E+01   0.2902594733E-05   0.8120527266E-03  -0.1775918829E-02   0.2902594733E-05   0.0000000000E+00   0.0000000000E+00   0.0000000000E+00   0.1355170167E+00   0.4343453559E-03   0.9740485494E-04   0.3472857962E-02   0.1938914906E-03   0.1481179041E-03
  -0.2886505718E+01   0.1799803805E+01   0.1998672609E+00   0.8071723781E-03  -0.1786754911E-02  -0.1327420682E-03   0.0000000000E+00   0.0000000000E+00   0.0000000000E+00   0.1349723981E+00   0.6966885538E-03   0.1776000902E-03   0.2962908328E-02   0.8943538393E-04  -0.1960265692E-03
  -0.2886541385E+01   0.1998087081E+01   0.1420084144E-04   0.8392146049E-03  -0.1912919049E-02   0.1420084144E-04   0.0000000000E+00   0.0000000000E+00   0.0000000000E+00   0.1402153696E+00  -0.2322325945E-03  -0.1055322154E-03   0.1165404185E-02   0.4715506242E-03   0.2588023039E-04
  -0.2886546624E+01   0.1998077370E+01   0.1998747447E+00   0.8339761486E-03  -0.1922630133E-02  -0.1252583236E-03   0.0000000000E+00   0.0000000000E+00   0.0000000000E+00   0.1394732843E+00  -0.6780727632E-04  -0.4180572177E-03   0.8420255531E-03   0.3540563392E-03  -0.8460226364E-04
  -0.2690830755E+01   0.1206865664E+01  -0.4131110075E-04   0.8773354559E-03  -0.1437075962E-02  -0.4131110075E-04   0.0000000000E+00   0.0000000000E+00   0.0000000000E+00   0.1117152919E+00   0.5818564521E-02  -0.1104126728E-04   0.1020053444E-01  -0.1424069212E-04   0.3513347068E-03
  -0.2690829982E+01   0.1206851640E+01   0.1998411728E+00   0.8781082024E-03  -0.1451100224E-02  -0.1588301922E-03   0.0000000000E+00   0.0000000000E+00   0.0000000000E+00   0.1119200790E+00   0.5679263595E-02   0.1819056150E-05   0.9464359258E-02   0.1395987699E-04  -0.9723390920E-04
  -0.2684779723E+01   0.1404565480E+01  -0.2366557310E-04   0.9588368130E-03  -0.1543380497E-02  -0.2366557310E-04   0.0000000000E+00   0.0000000000E+00   0.0000000000E+00   0.1211919439E+00   0.3544907736E-02   0.2781664029E-04   0.9560807975E-02   0.4679875664E-04   0.3162891757E-03
  -0.2684781240E+01   0.1404551139E+01   0.1998517032E+00   0.9573202244E-03  -0.1557720590E-02  -0.1482997893E-03   0.0000000000E+00   0.0000000000E+00   0.0000000000E+00   0.1211380163E+00   0.3531307442E-02   0.1015749607E-04   0.8770311447E-02   0.1375987262E-04  -0.8941892169E-04
  -0.2682566990E+01   0.1602331367E+01  -0.6177836470E-05   0.1031529504E-02  -0.1663003469E-02  -0.6177836470E-05   0.0000000000E+00   0.0000000000E+00   0.0000000000E+00   0.1300469396E+00   0.1519169998E-02  -0.6429222988E-04   0.8020528691E-02   0.1310748415E-03   0.3843941333E-03
  -0.2682570867E+01   0.1602317396E+01   0.1998622759E+00   0.1027652784E-02  -0.1676973987E-02  -0.1377271232E-03   0.0000000000E+00   0.0000000000E+00   0.0000000000E+00   0.1299049123E+00   0.1787355114E-02  -0.5217594618E-04   0.7158179007E-02   0.5113236509E-04  -0.1292551737E-03
  -0.2682087490E+01   0.1800188542E+01   0.1080617165E-04   0.1091169861E-02  -0.1794097989E-02   0.1080617165E-04   0.0000000000E+00   0.0000000000E+00   0.0000000000E+00   0.1386421907E+00   0.3755362920E-03   0.1301505884E-03   0.4539368190E-02   0.2597147586E-03   0.2121838945E-03
  -0.2682093713E+01   0.1800175354E+01   0.1998720346E+00   0.1084946889E-02  -0.1807285905E-02  -0.1279684455E-03   0.0000000000E+00   0.0000000000E+00   0.0000000000E+00   0.1382165982E+00   0.6560950831E-03   0.2101911961E-03   0.3854983207E-02   0.1322203453E-03  -0.2057772609E-03
  -0.2682032422E+01   0.1998065178E+01   0.2480338567E-04   0.1130977763E-02  -0.1934821595E-02   0.2480338567E-04   0.0000000000E+00   0.0000000000E+00   0.0000000000E+00   0.1444627448E+00  -0.3203581616E-03  -0.7060543220E-04   0.1549719080E-02   0.6432335085E-03   0.3992633644E-04
  -0.2682039059E+01   0.1998053126E+01   0.1998812940E+00   0.1124340947E-02  -0.1946874031E-02  -0.1187089699E-03   0.0000000000E+00   0.0000000000E+00   0.0000000000E+00   0.1438469298E+00  -0.1115419044E-03  -0.4211753456E-03   0.1132418718E-02   0.4969829133E-03  -0.1067260467E-03
  -0.2489038133E+01   0.1208761386E+01  -0.4242844276E-04   0.1098247399E-02  -0.1456803543E-02  -0.4242844276E-04   0.0000000000E+00   0.0000000000E+00   0.0000000000E+00   0.1121024557E+00   0.4980143435E-02  -0.1983796036E-04   0.1259571120E-01  -0.3303520686E-04   0.4311350174E-03
  -0.2489036789E+01   0.1208744883E+01   0.1998405292E+00   0.1099590552E-02  -0.1473307284E-02  -0.1594737712E-03   0.0000000000E+00   0.0000000000E+00   0.0000000000E+00   0.1123722822E+00   0.4781479219E-02  -0.2012562466E-04   0.1166605511E-01   0.1796841023E-04  -0.1006950786E-03
  -0.2481356448E+01   0.1405923950E+01  -0.2150836786E-04   0.1203711915E-02  -0.1565710279E-02  -0.2150836786E-04   0.0000000000E+00   0.0000000000E+00   0.0000000000E+00   0.1226453845E+00   0.2923775197E-02   0.4939913498E-04   0.1159739639E-01   0.5375661749E-04   0.3760838251E-03
  -0.2481357879E+01   0.1405906839E+01   0.1998530420E+00   0.1202280646E-02  -0.1582821265E-02  -0.1469610200E-03   0.0000000000E+00   0.0000000000E+00   0.0000000000E+00   0.1226716235E+00   0.2853604386E-02   0.3096711822E-04   0.1062875782E-01   0.2650921449E-04  -0.8283106586E-04
  -0.2478430912E+01   0.1603193641E+01  -0.4814120399E-06   0.1298267635E-02  -0.1688118918E-02  -0.4814120399E-06   0.0000000000E+00   0.0000000000E+00   0.0000000000E+00   0.1324678702E+00   0.1124240162E-02  -0.1036673340E-03   0.9633404653E-02   0.1497467584E-03   0.5045237161E-03
  -0.2478435270E+01   0.1603176793E+01   0.1998658481E+00   0.1293910193E-02  -0.1704966745E-02  -0.1341548587E-03   0.0000000000E+00   0.0000000000E+00   0.0000000000E+00   0.1324677823E+00   0.1379115500E-02  -0.1296882050E-03   0.8584328211E-02   0.7114702941E-04  -0.1052023336E-03
  -0.2477696164E+01   0.1800593406E+01   0.2050545933E-04   0.1377356491E-02  -0.1822564283E-02   0.2050545933E-04   0.0000000000E+00   0.0000000000E+00   0.0000000000E+00   0.1424996733E+00   0.2754786247E-03   0.2146898650E-03   0.5460798502E-02   0.3243023613E-03   0.2988475822E-03
  -0.2477703301E+01   0.1800577207E+01   0.1998778915E+00   0.1370218959E-02  -0.1838762754E-02  -0.1221114645E-03   0.0000000000E+00   0.0000000000E+00   0.0000000000E+00   0.1422852423E+00   0.6041621079E-03   0.3370629342E-03   0.4633664735E-02   0.1859978178E-03  -0.2151507990E-03
  -0.2477523340E+01   0.1998032046E+01   0.3789055766E-04   0.1432639991E-02  -0.1967954442E-02   0.3789055766E-04   0.0000000000E+00   0.0000000000E+00   0.0000000000E+00   0.1497139765E+00  -0.4640971461E-03  -0.5650435923E-04   0.1850504175E-02   0.7907298552E-03   0.4683260937E-04
  -0.2477531046E+01   0.1998017027E+01   0.1998894090E+00   0.1424933687E-02  -0.1982973382E-02  -0.1105939773E-03   0.0000000000E+00   0.0000000000E+00   0.0000000000E+00   0.1492860693E+00  -0.2039736034E-03  -0.4986392045E-03   0.1314418875E-02   0.6273210014E-03  -0.1363611319E-03
  -0.2287305315E+01   0.1210728403E+01  -0.4434407615E-04   0.1321835125E-02  -0.1486786677E-02  -0.4434407615E-04   0.0000000000E+00   0.0000000000E+00   0.0000000000E+00   0.1129371220E+00   0.3394780929E-02  -0.2535316417E-04   0.1473476908E-01  -0.4403723792E-04   0.5077449986E-03
  -0.2287303206E+01   0.1210708775E+01   0.1998394133E+00   0.1323943768E-02  -0.1506415169E-02  -0.1605896602E-03   0.0000000000E+00   0.0000000000E+00   0.0000000000E+00   0.1132598092E+00   0.3179671486E-02  -0.1279895496E-04   0.1362216383E-01   0.2578006367E-04  -0.1129110744E-03
  -0.2277977172E+01   0.1407337028E+01  -0.1952086364E-04   0.1452977506E-02  -0.1600192009E-02  -0.1952086364E-04   0.0000000000E+00   0.0000000000E+00   0.0000000000E+00   0.1245870763E+00   0.1728854163E-02   0.5363295267E-04   0.1316700635E-01   0.4588542261E-04   0.4652784532E-03
  -0.2277978357E+01   0.1407316702E+01   0.1998543012E+00   0.1451793416E-02  -0.1620518257E-02  -0.1457018234E-03   0.0000000000E+00   0.0000000000E+00   0.0000000000E+00   0.1246646546E+00   0.1615074715E-02   0.4153702445E-05   0.1205975036E-01   0.3060175903E-04  -0.6020818546E-04
  -0.2274320620E+01   0.1604089579E+01   0.5703881170E-05   0.1571159542E-02  -0.1727021073E-02   0.5703881170E-05   0.0000000000E+00   0.0000000000E+00   0.0000000000E+00   0.1353439965E+00   0.4152999542E-03  -0.1174619980E-03   0.1073099810E-01   0.1679150228E-03   0.6435155662E-03
  -0.2274325005E+01   0.1604069349E+01   0.1998697520E+00   0.1566774578E-02  -0.1747251495E-02  -0.1302510314E-03   0.0000000000E+00   0.0000000000E+00   0.0000000000E+00   0.1355387441E+00   0.6888493028E-03  -0.1506398925E-03   0.9566012715E-02   0.1010270233E-03  -0.7093745082E-04
  -0.2273316443E+01   0.1801008711E+01   0.3134866732E-04   0.1671727236E-02  -0.1865618575E-02   0.3134866732E-04   0.0000000000E+00   0.0000000000E+00   0.0000000000E+00   0.1468414811E+00   0.4903957191E-04   0.2826622561E-03   0.6044495643E-02   0.3651918997E-03   0.4142973002E-03
  -0.2273323996E+01   0.1800989036E+01   0.1998844681E+00   0.1664174039E-02  -0.1885293860E-02  -0.1155348621E-03   0.0000000000E+00   0.0000000000E+00   0.0000000000E+00   0.1469201154E+00   0.4144510829E-03   0.4187058753E-03   0.5119650704E-02   0.2282456424E-03  -0.2146043758E-03
  -0.2273010873E+01   0.1997983452E+01   0.5281424140E-04   0.1746277337E-02  -0.2016547503E-02   0.5281424140E-04   0.0000000000E+00   0.0000000000E+00   0.0000000000E+00   0.1557593991E+00  -0.6328568730E-03   0.2987536863E-04   0.2093140403E-02   0.9041928974E-03   0.7026299496E-04
  -0.2273018955E+01   0.1997964890E+01   0.1998986436E+00   0.1738194921E-02  -0.2035110109E-02  -0.1013593703E-03   0.0000000000E+00   0.0000000000E+00   0.0000000000E+00   0.1556558382E+00  -0.2976895782E-03  -0.4437652027E-03   0.1521007543E-02   0.7363960767E-03  -0.1743414240E-03
  -0.2085623708E+01   0.1212706953E+01  -0.4715446306E-04   0.1550231631E-02  -0.1530977470E-02  -0.4715446306E-04   0.0000000000E+00   0.0000000000E+00   0.0000000000E+00   0.1145663970E+00   0.7041660066E-03  -0.3175976230E-04   0.1640336124E-01  -0.7400439618E-04   0.6274721336E-03
  -0.2085620946E+01   0.1212683758E+01   0.1998377437E+00   0.1552994294E-02  -0.1554171757E-02  -0.1622593494E-03   0.0000000000E+00   0.0000000000E+00   0.0000000000E+00   0.1148244308E+00   0.5594996908E-03  -0.2259392345E-04   0.1512413311E-01   0.1507838815E-04  -0.1116889793E-03
  -0.2074627708E+01   0.1408761264E+01  -0.1790152054E-04   0.1708672464E-02  -0.1652236429E-02  -0.1790152054E-04   0.0000000000E+00   0.0000000000E+00   0.0000000000E+00   0.1272294959E+00  -0.2786080816E-03   0.8765140522E-04   0.1395107235E-01   0.4137697212E-04   0.5452982059E-03
  -0.2074628469E+01   0.1408737351E+01   0.1998553327E+00   0.1707911033E-02  -0.1676149157E-02  -0.1446702568E-03   0.0000000000E+00   0.0000000000E+00   0.0000000000E+00   0.1273076512E+00  -0.3684379796E-03   0.3774564352E-04   0.1279464415E-01   0.3864229558E-04  -0.3494778480E-04
  -0.2070226212E+01   0.1604989242E+01   0.1176877448E-04   0.1851297547E-02  -0.1785328132E-02   0.1176877448E-04   0.0000000000E+00   0.0000000000E+00   0.0000000000E+00   0.1385718626E+00  -0.7977954103E-03  -0.1795468272E-03   0.1093600090E-01   0.1600698237E-03   0.8175634563E-03
  -0.2070230286E+01   0.1604965510E+01   0.1998736428E+00   0.1847223653E-02  -0.1809059730E-02  -0.1263601667E-03   0.0000000000E+00   0.0000000000E+00   0.0000000000E+00   0.1389567315E+00  -0.4873322071E-03  -0.2661751772E-03   0.9784165818E-02   0.1107085739E-03  -0.9393233481E-05
  -0.2068941403E+01   0.1801416786E+01   0.4247347957E-04   0.1975247002E-02  -0.1929133966E-02   0.4247347957E-04   0.0000000000E+00   0.0000000000E+00   0.0000000000E+00   0.1513968439E+00  -0.2931377921E-03   0.4260148324E-03   0.6078413924E-02   0.3834758977E-03   0.5500765002E-03
  -0.2068948476E+01   0.1801393453E+01   0.1998912016E+00   0.1968174113E-02  -0.1952467318E-02  -0.1088013789E-03   0.0000000000E+00   0.0000000000E+00   0.0000000000E+00   0.1518868475E+00   0.1548536723E-03   0.6427938403E-03   0.5186122429E-02   0.2614631499E-03  -0.2059458158E-03
  -0.2068491709E+01   0.1997914014E+01   0.6815306521E-04   0.2072801472E-02  -0.2085986429E-02   0.6815306521E-04   0.0000000000E+00   0.0000000000E+00   0.0000000000E+00   0.1620498000E+00  -0.8742244868E-03   0.8705061927E-04   0.2053408753E-02   0.9116163743E-03   0.7871598833E-04
  -0.2068499405E+01   0.1997891753E+01   0.1999081526E+00   0.2065104922E-02  -0.2108247310E-02  -0.9185038501E-04   0.0000000000E+00   0.0000000000E+00   0.0000000000E+00   0.1623610990E+00  -0.4598129645E-03  -0.4632212337E-03   0.1451779729E-02   0.7490108334E-03  -0.2170077407E-03
  -0.1884029524E+01   0.1214644502E+01  -0.5060411950E-04   0.1786816496E-02  -0.1595187905E-02  -0.5060411950E-04   0.0000000000E+00   0.0000000000E+00   0.0000000000E+00   0.1174721949E+00  -0.3387108672E-02  -0.4283408475E-04   0.1724277517E-01  -0.7821259757E-04   0.7338846567E-03
  -0.1884026535E+01   0.1214617240E+01   0.1998356514E+00   0.1789804736E-02  -0.1622450002E-02  -0.1643516180E-03   0.0000000000E+00   0.0000000000E+00   0.0000000000E+00   0.1174804765E+00  -0.3307787554E-02  -0.5019619915E-05   0.1586783360E-01  -0.3639145168E-05  -0.1092184065E-03
  -0.1871324225E+01   0.1410167603E+01  -0.1669986073E-04   0.1973224858E-02  -0.1728266512E-02  -0.1669986073E-04   0.0000000000E+00   0.0000000000E+00   0.0000000000E+00   0.1307947629E+00  -0.3364018098E-02   0.8779793961E-04   0.1348211620E-01   0.3024912763E-04   0.6534337618E-03
  -0.1871324845E+01   0.1410140255E+01   0.1998561152E+00   0.1972604907E-02  -0.1755615319E-02  -0.1438877906E-03   0.0000000000E+00   0.0000000000E+00   0.0000000000E+00   0.1307263917E+00  -0.3289520276E-02   0.1400053437E-04   0.1242788403E-01   0.1758685445E-04   0.1658161064E-04
  -0.1866152517E+01   0.1605880399E+01   0.1721069592E-04   0.2140173255E-02  -0.1870491107E-02   0.1721069592E-04   0.0000000000E+00   0.0000000000E+00   0.0000000000E+00   0.1421512597E+00  -0.2581976094E-02  -0.1856066364E-03   0.9778023838E-02   0.1401056791E-03   0.9781013030E-03
  -0.1866155824E+01   0.1605853485E+01   0.1998771468E+00   0.2136865514E-02  -0.1897405146E-02  -0.1228562258E-03   0.0000000000E+00   0.0000000000E+00   0.0000000000E+00   0.1426905621E+00  -0.2139509445E-02  -0.2684965345E-03   0.8875370095E-02   0.1098380582E-03   0.6275727342E-04
  -0.1864572743E+01   0.1801816607E+01   0.5243277941E-04   0.2287647373E-02  -0.2020213136E-02   0.5243277941E-04   0.0000000000E+00   0.0000000000E+00   0.0000000000E+00   0.1556260400E+00  -0.8757546056E-03   0.5119700223E-03   0.5189885649E-02   0.3319671890E-03   0.7013998578E-03
  -0.1864578476E+01   0.1801790122E+01   0.1998972584E+00   0.2281914010E-02  -0.2046697633E-02  -0.1027446120E-03   0.0000000000E+00   0.0000000000E+00   0.0000000000E+00   0.1565732115E+00  -0.3625562199E-03   0.7602821154E-03   0.4509973014E-02   0.2304731218E-03  -0.1740917870E-03
  -0.1863964988E+01   0.1997817045E+01   0.8202609519E-04   0.2412362354E-02  -0.2182954572E-02   0.8202609519E-04   0.0000000000E+00   0.0000000000E+00   0.0000000000E+00   0.1679201503E+00  -0.1114240102E-02   0.2647081235E-03   0.1768075465E-02   0.7613894744E-03   0.1136903814E-03
  -0.1863971056E+01   0.1997791419E+01   0.1999166616E+00   0.2406293924E-02  -0.2208580692E-02  -0.8334139209E-04   0.0000000000E+00   0.0000000000E+00   0.0000000000E+00   0.1687876193E+00  -0.6041924690E-03  -0.2228934564E-03   0.1347905562E-02   0.6194362129E-03  -0.2626241808E-03
  -0.1680812513E+01   0.1216780097E+01  -0.5355730233E-04   0.2038797029E-02  -0.1687142570E-02  -0.5355730233E-04   0.0000000000E+00   0.0000000000E+00   0.0000000000E+00   0.1223796984E+00  -0.9231769161E-02  -0.2309882140E-04   0.1690221706E-01  -0.7839846728E-04   0.9170980294E-03
  -0.1680810702E+01   0.1216748735E+01   0.1998337345E+00   0.2040608095E-02  -0.1718505276E-02  -0.1662685437E-03   0.0000000000E+00   0.0000000000E+00   0.0000000000E+00   0.1217576476E+00  -0.8578885944E-02   0.6442552962E-04   0.1555047277E-01  -0.7911518757E-04  -0.6021807611E-04
  -0.1667642866E+01   0.1411654171E+01  -0.1530623868E-04   0.2250873815E-02  -0.1837078806E-02  -0.1530623868E-04   0.0000000000E+00   0.0000000000E+00   0.0000000000E+00   0.1356688557E+00  -0.7569773543E-02   0.1403098759E-03   0.1124561877E-01   0.1951978984E-04   0.7045037772E-03
  -0.1667644055E+01   0.1411623997E+01   0.1998569374E+00   0.2249685455E-02  -0.1867252556E-02  -0.1430656186E-03   0.0000000000E+00   0.0000000000E+00   0.0000000000E+00   0.1351952250E+00  -0.7107295718E-02   0.9496226383E-04   0.1056127602E-01  -0.1245348008E-04   0.6819514291E-04
  -0.1661985215E+01   0.1606854195E+01   0.2151142368E-04   0.2438964648E-02  -0.1990805458E-02   0.2151142368E-04   0.0000000000E+00   0.0000000000E+00   0.0000000000E+00   0.1459409794E+00  -0.5060519670E-02  -0.2760392897E-03   0.6703640895E-02   0.9124838751E-04   0.1136345773E-02
  -0.1661987852E+01   0.1606825443E+01   0.1998799680E+00   0.2436327815E-02  -0.2019557023E-02  -0.1200350411E-03   0.0000000000E+00   0.0000000000E+00   0.0000000000E+00   0.1464590764E+00  -0.4416016951E-02  -0.4300383271E-03   0.6399248929E-02   0.5485976285E-04   0.1678062524E-03
  -0.1660168547E+01   0.1802271176E+01   0.5970517719E-04   0.2608402981E-02  -0.2147263849E-02   0.5970517719E-04   0.0000000000E+00   0.0000000000E+00   0.0000000000E+00   0.1590091782E+00  -0.1604068337E-02   0.6909012316E-03   0.3053046141E-02   0.2142738933E-03   0.8323427798E-03
  -0.1660171739E+01   0.1802242960E+01   0.1999016372E+00   0.2605210870E-02  -0.2175480008E-02  -0.9836580228E-04   0.0000000000E+00   0.0000000000E+00   0.0000000000E+00   0.1604335991E+00  -0.9535232305E-03   0.1068220037E-02   0.2912807422E-02   0.1420648770E-03  -0.1298588337E-03
  -0.1659426142E+01   0.1997685421E+01   0.9138443844E-04   0.2762387745E-02  -0.2314578846E-02   0.9138443844E-04   0.0000000000E+00   0.0000000000E+00   0.0000000000E+00   0.1721078501E+00  -0.1395979872E-02   0.3593352428E-03   0.8495522316E-03   0.3336802130E-03   0.1105863386E-03
  -0.1659429548E+01   0.1997657954E+01   0.1999223437E+00   0.2758982107E-02  -0.2342045875E-02  -0.7765932912E-04   0.0000000000E+00   0.0000000000E+00   0.0000000000E+00   0.1735049101E+00  -0.8053882925E-03  -0.1045672653E-03   0.6980677738E-03   0.2182539797E-03  -0.2970357173E-03
  -0.1478714407E+01   0.1218705630E+01  -0.5379315427E-04   0.2308662824E-02  -0.1815100487E-02  -0.5379315427E-04   0.0000000000E+00   0.0000000000E+00   0.0000000000E+00   0.1300130989E+00  -0.1631446994E-01   0.1977972538E-06   0.1445296583E-01  -0.2386813832E-04   0.1030241741E-02
  -0.1478716400E+01   0.1218670614E+01   0.1998333194E+00   0.2306669799E-02  -0.1850116198E-02  -0.1666836219E-03   0.0000000000E+00   0.0000000000E+00   0.0000000000E+00   0.1281803287E+00  -0.1478026040E-01   0.1480818967E-03   0.1346445444E-01  -0.1389230814E-03   0.3437866616E-04
  -0.1463989634E+01   0.1413353641E+01  -0.1233265083E-04   0.2544975849E-02  -0.1987139314E-02  -0.1233265083E-04   0.0000000000E+00   0.0000000000E+00   0.0000000000E+00   0.1419896869E+00  -0.1267672838E-01   0.5169591370E-04   0.6643381418E-02   0.7347845193E-04   0.7881764340E-03
  -0.1463993257E+01   0.1413322564E+01   0.1998587467E+00   0.2541352830E-02  -0.2018216170E-02  -0.1412563096E-03   0.0000000000E+00   0.0000000000E+00   0.0000000000E+00   0.1407602992E+00  -0.1151004210E-01  -0.3214914671E-04   0.6738176459E-02  -0.6776657894E-04   0.1678648353E-03
  -0.1457680087E+01   0.1608162099E+01   0.2502126543E-04   0.2749342605E-02  -0.2155610811E-02   0.2502126543E-04   0.0000000000E+00   0.0000000000E+00   0.0000000000E+00   0.1499544890E+00  -0.7842455860E-02  -0.2058781634E-03   0.1221813423E-02   0.5635988754E-04   0.1179201410E-02
  -0.1457682332E+01   0.1608133945E+01   0.1998821500E+00   0.2747097502E-02  -0.2183764647E-02  -0.1178530295E-03   0.0000000000E+00   0.0000000000E+00   0.0000000000E+00   0.1502541063E+00  -0.6802999315E-02  -0.3112733798E-03   0.2021094389E-02  -0.1112710146E-04   0.2514983684E-03
  -0.1455681956E+01   0.1802947674E+01   0.6231376656E-04   0.2934894085E-02  -0.2318226102E-02   0.6231376656E-04   0.0000000000E+00   0.0000000000E+00   0.0000000000E+00   0.1606300091E+00  -0.2537061656E-02   0.6770196534E-03  -0.6959682120E-03  -0.2810480109E-04   0.8905447618E-03
  -0.1455681973E+01   0.1802920660E+01   0.1999032691E+00   0.2934877339E-02  -0.2345240033E-02  -0.9673392494E-04   0.0000000000E+00   0.0000000000E+00   0.0000000000E+00   0.1623529522E+00  -0.1796934587E-02   0.1048123191E-02   0.7114346300E-04  -0.7643846561E-04  -0.6290313461E-04
  -0.1454880737E+01   0.1997512455E+01   0.9307330418E-04   0.3118492853E-02  -0.2487545151E-02   0.9307330418E-04   0.0000000000E+00   0.0000000000E+00   0.0000000000E+00   0.1733311810E+00  -0.1528887687E-02   0.6047202072E-03  -0.5091733584E-03  -0.3986380854E-03   0.1543904580E-03
  -0.1454880166E+01   0.1997485885E+01   0.1999230874E+00   0.3119064223E-02  -0.2514115401E-02  -0.7691558409E-04   0.0000000000E+00   0.0000000000E+00   0.0000000000E+00   0.1752177337E+00  -0.9062781588E-03   0.3844271918E-03  -0.6557878976E-05  -0.4661404412E-03  -0.3143317618E-03
  -0.1270732160E+01   0.1220623148E+01  -0.4649998700E-04   0.2613309627E-02  -0.1994482288E-02  -0.4649998700E-04   0.0000000000E+00   0.0000000000E+00   0.0000000000E+00   0.1407252680E+00  -0.2380828039E-01  -0.7642443155E-04   0.9471473222E-02   0.1755852263E-03   0.1238874142E-02
  -0.1270742646E+01   0.1220586468E+01   0.1998375938E+00   0.2602823512E-02  -0.2031162110E-02  -0.1624092184E-03   0.0000000000E+00   0.0000000000E+00   0.0000000000E+00   0.1370266092E+00  -0.2066330247E-01   0.4016576385E-04   0.9395449475E-02  -0.1573672910E-03   0.1819518503E-03
  -0.1258113949E+01   0.1415799836E+01  -0.4209738312E-05   0.2863561221E-02  -0.2190964438E-02  -0.4209738312E-05   0.0000000000E+00   0.0000000000E+00   0.0000000000E+00   0.1500970804E+00  -0.1753349880E-01   0.1922109151E-03  -0.7196995054E-03   0.2055738966E-03   0.7640172438E-03
  -0.1258122700E+01   0.1415771172E+01   0.1998634963E+00   0.2854810249E-02  -0.2219628266E-02  -0.1365067379E-03   0.0000000000E+00   0.0000000000E+00   0.0000000000E+00   0.1477778905E+00  -0.1527346627E-01   0.1934202792E-03   0.8240554452E-03  -0.6124114079E-04   0.2524658146E-03
  -0.1252415696E+01   0.1610349068E+01   0.2839237224E-04   0.3072343988E-02  -0.2372611957E-02   0.2839237224E-04   0.0000000000E+00   0.0000000000E+00   0.0000000000E+00   0.1535509547E+00  -0.1033136736E-01  -0.2970158416E-03  -0.6720117673E-02   0.5570980719E-05   0.1049245164E-02
  -0.1252418839E+01   0.1610325906E+01   0.1998842420E+00   0.3069200944E-02  -0.2395774407E-02  -0.1157609660E-03   0.0000000000E+00   0.0000000000E+00   0.0000000000E+00   0.1533733710E+00  -0.8849884627E-02  -0.5069579040E-03  -0.4232740068E-02  -0.1178012294E-03   0.3117250787E-03
  -0.1250929491E+01   0.1804167950E+01   0.5908673505E-04   0.3264529392E-02  -0.2539070287E-02   0.5908673505E-04   0.0000000000E+00   0.0000000000E+00   0.0000000000E+00   0.1598904838E+00  -0.3223565461E-02   0.7455898763E-03  -0.5911242650E-02  -0.3207878161E-03   0.8223381578E-03
  -0.1250925669E+01   0.1804146592E+01   0.1999013233E+00   0.3268350722E-02  -0.2560427510E-02  -0.9867973357E-04   0.0000000000E+00   0.0000000000E+00   0.0000000000E+00   0.1616804608E+00  -0.2380874700E-02   0.1189342072E-02  -0.3782070184E-02  -0.3648610137E-03  -0.1340033066E-04
  -0.1250468130E+01   0.1997294994E+01   0.8332924068E-04   0.3471379779E-02  -0.2705005632E-02   0.8332924068E-04   0.0000000000E+00   0.0000000000E+00   0.0000000000E+00   0.1696962527E+00  -0.1522043306E-02   0.6040604589E-03  -0.2713633163E-02  -0.1509755418E-02   0.9129240689E-04
  -0.1250463225E+01   0.1997273965E+01   0.1999168006E+00   0.3476285042E-02  -0.2726034867E-02  -0.8320236859E-04   0.0000000000E+00   0.0000000000E+00   0.0000000000E+00   0.1717416194E+00  -0.9217347873E-03   0.5445042413E-03  -0.1457568171E-02  -0.1506662579E-02  -0.2831812421E-03
  -0.1066178122E+01   0.1223273348E+01  -0.2356061258E-04   0.2946817553E-02  -0.2231762135E-02  -0.2356061258E-04   0.0000000000E+00   0.0000000000E+00   0.0000000000E+00   0.1545819805E+00  -0.2869169707E-01  -0.1274968831E-03   0.1125510801E-02   0.7368086729E-03   0.1174956773E-02
  -0.1066203401E+01   0.1223239513E+01   0.1998515589E+00   0.2921539444E-02  -0.2265596619E-02  -0.1484440744E-03   0.0000000000E+00   0.0000000000E+00   0.0000000000E+00   0.1485381972E+00  -0.2362591805E-01  -0.2808329744E-04   0.3118968001E-02   0.1699236115E-03   0.4167524179E-03
  -0.1051108351E+01   0.1419505234E+01   0.1305386166E-04   0.3206259036E-02  -0.2453566205E-02   0.1305386166E-04   0.0000000000E+00   0.0000000000E+00   0.0000000000E+00   0.1587195226E+00  -0.2005487583E-01   0.3092381070E-04  -0.1060430127E-01   0.5211919234E-03   0.6591079936E-03
  -0.1051125664E+01   0.1419485281E+01   0.1998742595E+00   0.3188946427E-02  -0.2473518804E-02  -0.1257435249E-03   0.0000000000E+00   0.0000000000E+00   0.0000000000E+00   0.1554636692E+00  -0.1663053424E-01  -0.2393149586E-03  -0.6751309124E-02   0.1431494945E-03   0.2622357825E-03
  -0.1046076115E+01   0.1613519276E+01   0.3340345725E-04   0.3406705023E-02  -0.2644454136E-02   0.3340345725E-04   0.0000000000E+00   0.0000000000E+00   0.0000000000E+00   0.1563030167E+00  -0.1108560790E-01  -0.1102426117E-03  -0.1642216405E-01   0.6496717138E-04   0.5929640175E-03
  -0.1046081105E+01   0.1613506977E+01   0.1998871271E+00   0.3401714777E-02  -0.2656752995E-02  -0.1128758531E-03   0.0000000000E+00   0.0000000000E+00   0.0000000000E+00   0.1557275231E+00  -0.9110595608E-02  -0.1839870103E-03  -0.1171222442E-01  -0.2072157321E-03   0.1877100710E-03
  -0.1045822097E+01   0.1805623218E+01   0.4880774939E-04   0.3590393011E-02  -0.2808052172E-02   0.4880774939E-04   0.0000000000E+00   0.0000000000E+00   0.0000000000E+00   0.1557480976E+00  -0.3363364939E-02   0.4756256135E-03  -0.1203452984E-01  -0.7606591289E-03   0.5201149673E-03
  -0.1045815070E+01   0.1805613554E+01   0.1998952946E+00   0.3597420160E-02  -0.2817716000E-02  -0.1047084355E-03   0.0000000000E+00   0.0000000000E+00   0.0000000000E+00   0.1571258520E+00  -0.2624654924E-02   0.7019937565E-03  -0.8326939182E-02  -0.7836431240E-03   0.2159036025E-04
  -0.1046709321E+01   0.1997036614E+01   0.6037619679E-04   0.3809908979E-02  -0.2963385933E-02   0.6037619679E-04   0.0000000000E+00   0.0000000000E+00   0.0000000000E+00   0.1604234532E+00  -0.1111656507E-02   0.6513960351E-03  -0.4870284790E-02  -0.2740325125E-02   0.7191956664E-04
  -0.1046699967E+01   0.1997026823E+01   0.1999022423E+00   0.3819262707E-02  -0.2973176555E-02  -0.9776074829E-04   0.0000000000E+00   0.0000000000E+00   0.0000000000E+00   0.1622926710E+00  -0.7017165407E-03   0.9502318857E-03  -0.2542694369E-02  -0.2677563432E-02  -0.1933079654E-03
  -0.8568145183E+00   0.1225244152E+01   0.2609711002E-04   0.3319129749E-02  -0.2536428394E-02   0.2609711002E-04   0.0000000000E+00   0.0000000000E+00   0.0000000000E+00   0.1696070400E+00  -0.2593738032E-01   0.2875968489E-03  -0.7165880675E-02   0.1905863216E-02   0.1329332982E-02
  -0.8568598780E+00   0.1225222821E+01   0.1998828251E+00   0.3273769978E-02  -0.2557758822E-02  -0.1171778800E-03   0.0000000000E+00   0.0000000000E+00   0.0000000000E+00   0.1631920873E+00  -0.1891002227E-01  -0.2288823288E-03  -0.1364863413E-02   0.1165395074E-02   0.3325887393E-03
  -0.8406415494E+00   0.1423435437E+01   0.4444816038E-04   0.3573009603E-02  -0.2774842594E-02   0.4444816038E-04   0.0000000000E+00   0.0000000000E+00   0.0000000000E+00   0.1669401208E+00  -0.1765834336E-01   0.9034543806E-04  -0.2167603683E-01   0.1021417772E-02  -0.2368956654E-03
  -0.8406685345E+00   0.1423432427E+01   0.1998939867E+00   0.3546024528E-02  -0.2777852544E-02  -0.1060162930E-03   0.0000000000E+00   0.0000000000E+00   0.0000000000E+00   0.1642869778E+00  -0.1284533462E-01   0.5046100954E-04  -0.1484407063E-01   0.3841456029E-03  -0.2142552921E-03
  -0.8373299228E+00   0.1616347985E+01   0.4068738784E-04   0.3745974165E-02  -0.2961675491E-02   0.4068738784E-04   0.0000000000E+00   0.0000000000E+00   0.0000000000E+00   0.1568951005E+00  -0.8428013992E-02  -0.6609257489E-05  -0.2540291366E-01  -0.7489494585E-04  -0.1846684399E-03
  -0.8373380910E+00   0.1616354203E+01   0.1998912557E+00   0.3737806034E-02  -0.2955456838E-02  -0.1087473249E-03   0.0000000000E+00   0.0000000000E+00   0.0000000000E+00   0.1557388864E+00  -0.6755499783E-02  -0.3900022325E-03  -0.1847499776E-01  -0.4022462694E-03  -0.1419232152E-03
  -0.8390668231E+00   0.1806809660E+01   0.3200252891E-04   0.3907958856E-02  -0.3114470244E-02   0.3200252891E-04   0.0000000000E+00   0.0000000000E+00   0.0000000000E+00   0.1482342533E+00  -0.2613490981E-02   0.8829890279E-04  -0.1742087300E-01  -0.1068637708E-02  -0.4993344701E-05
  -0.8390573574E+00   0.1806817972E+01   0.1998854747E+00   0.3917424564E-02  -0.3106157880E-02  -0.1145282832E-03   0.0000000000E+00   0.0000000000E+00   0.0000000000E+00   0.1489390386E+00  -0.2168152391E-02   0.1775267136E-03  -0.1219023121E-01  -0.1141067379E-02   0.8198333826E-04
  -0.8445792240E+00   0.1996751915E+01   0.2454034417E-04   0.4118914955E-02  -0.3248084727E-02   0.2454034417E-04   0.0000000000E+00   0.0000000000E+00   0.0000000000E+00   0.1451209349E+00  -0.3539334406E-03   0.3995679663E-03  -0.7214885660E-02  -0.3961816380E-02  -0.6401154386E-04
  -0.8445669906E+00   0.1996759404E+01   0.1998799212E+00   0.4131148369E-02  -0.3240596302E-02  -0.1200818195E-03   0.0000000000E+00   0.0000000000E+00   0.0000000000E+00   0.1461118506E+00  -0.2667998584E-03   0.8118659798E-03  -0.4119549771E-02  -0.3774708284E-02  -0.8538553338E-04
   0.6336832516E+00  -0.1762217521E+01   0.1688420750E-03   0.5903052592E-02  -0.1256413196E-03   0.1688420750E-03   0.0000000000E+00   0.0000000000E+00   0.0000000000E+00   0.1696206237E+00   0.3036328165E-01  -0.3784767732E-03  -0.6775365454E-03  -0.7690818335E-03   0.2868668916E-03
   0.4249323436E+00  -0.1769881145E+01   0.2061605977E-03   0.5588663576E-02  -0.8584549474E-04   0.2061605977E-03   0.0000000000E+00   0.0000000000E+00   0.0000000000E+00   0.1690173242E+00   0.4578250936E-01  -0.2491423247E-03  -0.1546094467E-02  -0.6728990020E-03   0.4033574421E-03
   0.4157508505E+00  -0.2000000000E+01   0.2001490729E-03   0.5562563472E-02   0.0000000000E+00   0.2001490729E-03   0.0000000000E+00   0.0000000000E+00   0.0000000000E+00   0.1668925826E+00   0.4726845247E-01   0.6813833941E-04   0.9542398965E-03  -0.4960253482E-03   0.4925810874E-03
   0.6236122488E+00  -0.2000000000E+01   0.1670500311E-03   0.5867504812E-02   0.0000000000E+00   0.1670500311E-03   0.0000000000E+00   0.0000000000E+00   0.0000000000E+00   0.1679383056E+00   0.3270086396E-01   0.1954258330E-03   0.1546632108E-02  -0.6215251581E-03   0.1440562410E-03
   0.6337146291E+00  -0.1762222436E+01   0.1999680627E+00   0.5934430052E-02  -0.1305560979E-03  -0.3194034353E-04   0.0000000000E+00   0.0000000000E+00   0.0000000000E+00   0.1709751595E+00   0.2928545913E-01  -0.6950029071E-03   0.9203262952E-03   0.1370394124E-03   0.1656694102E-03
   0.4249575078E+00  -0.1769890563E+01   0.1999906416E+00   0.5613827824E-02  -0.9526258638E-04  -0.9361419615E-05   0.0000000000E+00   0.0000000000E+00   0.0000000000E+00   0.1722707293E+00   0.4340109473E-01  -0.2291656171E-03  -0.1001166588E-03   0.1275373565E-03   0.1626068215E-03
   0.4157728005E+00  -0.2000000000E+01   0.1999858007E+00   0.5584513545E-02   0.0000000000E+00  -0.1420231300E-04   0.0000000000E+00   0.0000000000E+00   0.0000000000E+00   0.1689962169E+00   0.4390757197E-01  -0.3338403096E-03   0.1220058961E-02   0.1330373337E-03   0.5668043829E-03
   0.6236411788E+00  -0.2000000000E+01   0.1999659875E+00   0.5896434830E-02   0.0000000000E+00  -0.3401553616E-04   0.0000000000E+00   0.0000000000E+00   0.0000000000E+00   0.1691899715E+00   0.3091084085E-01   0.1182916249E-03   0.1595264839E-02   0.2871455772E-03   0.2999596087E-03
   0.2161036676E+00  -0.1777856107E+01   0.2317009353E-03   0.5290651618E-02  -0.5685694926E-04   0.2317009353E-03   0.0000000000E+00   0.0000000000E+00   0.0000000000E+00   0.1679026361E+00   0.5722144064E-01  -0.2177620988E-03  -0.1277193598E-02  -0.3416141608E-03   0.4535082660E-03
   0.2069477994E+00  -0.2000000000E+01   0.2226506881E-03   0.5271833394E-02   0.0000000000E+00   0.2226506881E-03   0.0000000000E+00   0.0000000000E+00   0.0000000000E+00   0.1654676717E+00   0.5780553239E-01   0.2193934463E-04   0.5465457327E-03  -0.2730498270E-03   0.7394572789E-03
   0.2161175519E+00  -0.1777869167E+01   0.2000060110E+00   0.5304535858E-02  -0.6991689392E-04   0.6007975738E-05   0.0000000000E+00   0.0000000000E+00   0.0000000000E+00   0.1722859153E+00   0.5333126685E-01  -0.4538637639E-03  -0.3665126648E-03   0.3136972556E-04   0.2602061641E-03
   0.2069598013E+00  -0.2000000000E+01   0.1999994562E+00   0.5283835331E-02   0.0000000000E+00  -0.5467512662E-06   0.0000000000E+00   0.0000000000E+00   0.0000000000E+00   0.1687174699E+00   0.5358601788E-01  -0.1584347840E-03   0.6338952825E-03   0.1015310253E-03   0.6496741993E-03
   0.6254112692E-02  -0.1782699814E+01   0.2405005262E-03   0.5001800942E-02  -0.4600385561E-04   0.2405005262E-03   0.0000000000E+00   0.0000000000E+00   0.0000000000E+00   0.1669819547E+00   0.6139878486E-01  -0.4324665729E-03  -0.2142237316E-04  -0.1823029785E-04   0.5920149442E-03
  -0.5393403960E-02  -0.2000000000E+01   0.2304391710E-03   0.4985930040E-02   0.0000000000E+00   0.2304391710E-03   0.0000000000E+00   0.0000000000E+00   0.0000000000E+00   0.1651197960E+00   0.6179362002E-01   0.1883105620E-03   0.3059111788E-04   0.3345438378E-04   0.6774779046E-03
   0.6254149013E-02  -0.1782714012E+01   0.2000115701E+00   0.5001837263E-02  -0.6020172446E-04   0.1156710109E-04   0.0000000000E+00   0.0000000000E+00   0.0000000000E+00   0.1719555531E+00   0.5720971234E-01  -0.5376632346E-03   0.7175631940E-05   0.7106380235E-05   0.3273281190E-03
  -0.5394042711E-02  -0.2000000000E+01   0.2000039207E+00   0.4985291289E-02   0.0000000000E+00   0.3917721876E-05   0.0000000000E+00   0.0000000000E+00   0.0000000000E+00   0.1685927055E+00   0.5690351852E-01  -0.1707126211E-03   0.6151349544E-05   0.1113619994E-04   0.7428284578E-03
  -0.2014564975E+00  -0.1784583314E+01   0.2314117887E-03   0.4716192520E-02  -0.5458449696E-04   0.2314117887E-03   0.0000000000E+00   0.0000000000E+00   0.0000000000E+00   0.1676437655E+00   0.5747266758E-01  -0.2315701210E-03   0.1281170999E-02   0.3725392614E-03   0.4778850039E-03
  -0.2151540107E+00  -0.2000000000E+01   0.2210813103E-03   0.4703250267E-02   0.0000000000E+00   0.2210813103E-03   0.0000000000E+00   0.0000000000E+00   0.0000000000E+00   0.1655701660E+00   0.5747070089E-01   0.1688060001E-04  -0.5726378873E-03   0.3001789829E-03   0.6870793970E-03
  -0.2014700141E+00  -0.1784596082E+01   0.2000057788E+00   0.4702675882E-02  -0.6735215667E-04   0.5775770978E-05   0.0000000000E+00   0.0000000000E+00   0.0000000000E+00   0.1720266512E+00   0.5356309028E-01  -0.4553887786E-03   0.4362212542E-03   0.3147442513E-05   0.2467743427E-03
  -0.2151671354E+00  -0.2000000000E+01   0.1999984639E+00   0.4690125649E-02   0.0000000000E+00  -0.1539090237E-05   0.0000000000E+00   0.0000000000E+00   0.0000000000E+00   0.1687070650E+00   0.5323108888E-01  -0.1569805573E-03  -0.6464413900E-03  -0.9227800326E-04   0.6341141589E-03
  -0.4109386457E+00  -0.1783981418E+01   0.2056841703E-03   0.4418884259E-02  -0.7972816536E-04   0.2056841703E-03   0.0000000000E+00   0.0000000000E+00   0.0000000000E+00   0.1684309376E+00   0.4619735876E-01  -0.3849554084E-03   0.1493806929E-02   0.6181488202E-03   0.5005514211E-03
  -0.4214937581E+00  -0.2000000000E+01   0.1979320914E-03   0.4414598937E-02   0.0000000000E+00   0.1979320914E-03   0.0000000000E+00   0.0000000000E+00   0.0000000000E+00   0.1671305361E+00   0.4688042349E-01   0.1797626015E-03  -0.8394653063E-03   0.5207530243E-03   0.3382720559E-03
  -0.4109634496E+00  -0.1783990313E+01   0.1999903823E+00   0.4394080427E-02  -0.8862320355E-04  -0.9620675150E-05   0.0000000000E+00   0.0000000000E+00   0.0000000000E+00   0.1718441505E+00   0.4384641425E-01  -0.2812758371E-03   0.1737006778E-03  -0.1559434231E-03   0.1388831479E-03
  -0.4215162725E+00  -0.2000000000E+01   0.1999842908E+00   0.4392084480E-02   0.0000000000E+00  -0.1571215366E-04   0.0000000000E+00   0.0000000000E+00   0.0000000000E+00   0.1689631323E+00   0.4345045284E-01  -0.2575151332E-03  -0.1157838683E-02  -0.1285309422E-03   0.5725727824E-03
   0.6502960638E+00  -0.1523331136E+01   0.1776043090E-03   0.5999059750E-02  -0.2683062337E-03   0.1776043090E-03   0.0000000000E+00   0.0000000000E+00   0.0000000000E+00   0.1761290807E+00   0.2634078026E-01   0.5099479590E-03   0.2550476252E-02  -0.1016188531E-02   0.2975814208E-03
   0.4394094169E+00  -0.1542163870E+01   0.2268634409E-03   0.5656969948E-02  -0.1849100829E-03   0.2268634409E-03   0.0000000000E+00   0.0000000000E+00   0.0000000000E+00   0.1785332238E+00   0.4300063302E-01   0.4196393618E-03  -0.2703108611E-03  -0.8513800158E-03   0.5833549434E-03
   0.6503374514E+00  -0.1523337841E+01   0.1999737501E+00   0.6040447417E-02  -0.2750114593E-03  -0.2625292991E-04   0.0000000000E+00   0.0000000000E+00   0.0000000000E+00   0.1771125400E+00   0.2616959216E-01   0.2967290868E-03   0.5986214571E-02   0.1053687607E-04   0.7110220804E-03
   0.4394431060E+00  -0.1542182068E+01   0.2000041214E+00   0.5690659044E-02  -0.2031082784E-03   0.4118431745E-05   0.0000000000E+00   0.0000000000E+00   0.0000000000E+00   0.1812387293E+00   0.4033269869E-01  -0.5027466974E-03   0.3134233812E-02  -0.2577914487E-03   0.1192710073E-02
   0.2297555116E+00  -0.1559674894E+01   0.2614265085E-03   0.5332713647E-02  -0.1232935455E-03   0.2614265085E-03   0.0000000000E+00   0.0000000000E+00   0.0000000000E+00   0.1785551944E+00   0.5569704267E-01   0.3013154493E-03  -0.7981240449E-03  -0.6673160536E-03   0.1069434462E-02
   0.2297754468E+00  -0.1559701250E+01   0.2000258473E+00   0.5352648821E-02  -0.1496499167E-03   0.2584429051E-04   0.0000000000E+00   0.0000000000E+00   0.0000000000E+00   0.1836017277E+00   0.5163252035E-01  -0.5059991627E-03   0.1420169660E-02  -0.2764829575E-03   0.1622086644E-02
   0.2167240701E-01  -0.1569933259E+01   0.2748709918E-03   0.5024565205E-02  -0.9783897718E-04   0.2748709918E-03   0.0000000000E+00   0.0000000000E+00   0.0000000000E+00   0.1785400903E+00   0.6106794853E-01   0.7027665967E-03  -0.5286368482E-04  -0.3055711593E-04   0.1195888730E-02
   0.2167394149E-01  -0.1569962922E+01   0.2000338689E+00   0.5026099692E-02  -0.1275019755E-03   0.3386589948E-04   0.0000000000E+00   0.0000000000E+00   0.0000000000E+00   0.1846320339E+00   0.5622306709E-01  -0.1080742347E-03   0.1193691034E-03  -0.1974801582E-04   0.1762634663E-02
  -0.1858574831E+00  -0.1572668389E+01   0.2630092227E-03   0.4719963891E-02  -0.1127291752E-03   0.2630092227E-03   0.0000000000E+00   0.0000000000E+00   0.0000000000E+00   0.1778996829E+00   0.5729245618E-01   0.3499630732E-03   0.8481224543E-03   0.5995247574E-03   0.1012696032E-02
  -0.1858742817E+00  -0.1572695027E+01   0.2000266688E+00   0.4703165295E-02  -0.1393667393E-03   0.2666579130E-04   0.0000000000E+00   0.0000000000E+00   0.0000000000E+00   0.1830150422E+00   0.5296185900E-01  -0.4410310147E-03  -0.1013992560E-02   0.2569252623E-03   0.1633262491E-02
  -0.3944843555E+00  -0.1568850041E+01   0.2306840831E-03   0.4404739544E-02  -0.1616506350E-03   0.2306840831E-03   0.0000000000E+00   0.0000000000E+00   0.0000000000E+00   0.1776819065E+00   0.4610983502E-01   0.6076504739E-03   0.7313561345E-03   0.7866642892E-03   0.3757759097E-03
  -0.3945148882E+00  -0.1568869242E+01   0.2000060558E+00   0.4374206830E-02  -0.1808523839E-03   0.6052830357E-05   0.0000000000E+00   0.0000000000E+00   0.0000000000E+00   0.1804283539E+00   0.4275972787E-01  -0.3575524320E-03  -0.2286256936E-02   0.2480965762E-03   0.1166045625E-02
   0.6755903647E+00  -0.1279967694E+01   0.1790429141E-03   0.6197659673E-02  -0.4476640492E-03   0.1790429141E-03   0.0000000000E+00   0.0000000000E+00   0.0000000000E+00   0.1831956788E+00   0.1513548110E-01  -0.9172898390E-03   0.1242200956E-01  -0.1810660886E-02   0.7493848682E-03
   0.4549306800E+00  -0.1319003516E+01   0.2563007842E-03   0.5787360032E-02  -0.3096363221E-03   0.2563007842E-03   0.0000000000E+00   0.0000000000E+00   0.0000000000E+00   0.1900169250E+00   0.3498608573E-01  -0.1319248464E-02   0.7000375335E-02  -0.2461418612E-02   0.2295539363E-02
   0.6756464924E+00  -0.1279968435E+01   0.1999784760E+00   0.6253787436E-02  -0.4484050426E-03  -0.2152702023E-04   0.0000000000E+00   0.0000000000E+00   0.0000000000E+00   0.1825378237E+00   0.1888631585E-01  -0.2511964721E-02   0.1789138254E-01  -0.9192816629E-03   0.1157749056E-02
   0.4549809616E+00  -0.1319023783E+01   0.2000273335E+00   0.5837641591E-02  -0.3299028468E-03   0.2733047275E-04   0.0000000000E+00   0.0000000000E+00   0.0000000000E+00   0.1941896548E+00   0.3689150363E-01  -0.2525732476E-02   0.1319165316E-01  -0.1314881440E-02   0.1946129949E-02
   0.2420765434E+00  -0.1350447037E+01   0.3101656629E-03   0.5408120424E-02  -0.2124073122E-03   0.3101656629E-03   0.0000000000E+00   0.0000000000E+00   0.0000000000E+00   0.1954537688E+00   0.4893244741E-01  -0.8463799994E-03   0.3543190161E-02  -0.1408721407E-02   0.3572013001E-02
   0.2421073453E+00  -0.1350483611E+01   0.2000607606E+00   0.5438922274E-02  -0.2489806586E-03   0.6075759274E-04   0.0000000000E+00   0.0000000000E+00   0.0000000000E+00   0.2049696868E+00   0.4830838235E-01  -0.2007978487E-02   0.7727620975E-02  -0.8150645413E-03   0.2780389738E-02
   0.3418547052E-01  -0.1366953952E+01   0.3298429234E-03   0.5049876421E-02  -0.1734321363E-03   0.3298429234E-03   0.0000000000E+00   0.0000000000E+00   0.0000000000E+00   0.1971344089E+00   0.5378696961E-01  -0.1308337909E-02   0.1801297056E-03  -0.2171390452E-03   0.3833960187E-02
   0.3418937454E-01  -0.1366996711E+01   0.2000734085E+00   0.5053780441E-02  -0.2161912814E-03   0.7340548276E-04   0.0000000000E+00   0.0000000000E+00   0.0000000000E+00   0.2083642700E+00   0.5189779227E-01  -0.2728369454E-02   0.6902292918E-03  -0.1290784395E-03   0.3023962541E-02
  -0.1743488862E+00  -0.1367752823E+01   0.3156796597E-03   0.4696373785E-02  -0.1895734463E-03   0.3156796597E-03   0.0000000000E+00   0.0000000000E+00   0.0000000000E+00   0.1943562854E+00   0.5184522715E-01  -0.9340752143E-03  -0.2734807300E-02   0.1050195636E-02   0.3781943747E-02
  -0.1743722459E+00  -0.1367791504E+01   0.2000643449E+00   0.4673014117E-02  -0.2282541454E-03   0.6434189316E-04   0.0000000000E+00   0.0000000000E+00   0.0000000000E+00   0.2044912166E+00   0.5075530879E-01  -0.2181216938E-02  -0.5918052613E-02   0.5273840230E-03   0.2934973315E-02
  -0.3837036297E+00  -0.1355263990E+01   0.2682098742E-03   0.4340072285E-02  -0.2613501354E-03   0.2682098742E-03   0.0000000000E+00   0.0000000000E+00   0.0000000000E+00   0.1885638322E+00   0.4014667110E-01  -0.1818085114E-02  -0.4467459272E-02   0.2190979416E-02   0.2830406726E-02
  -0.3837472345E+00  -0.1355288970E+01   0.2000354756E+00   0.4296467499E-02  -0.2863304723E-03   0.3547261357E-04   0.0000000000E+00   0.0000000000E+00   0.0000000000E+00   0.1939387737E+00   0.4110110865E-01  -0.3305427158E-02  -0.9970257271E-02   0.1121866019E-02   0.2358181971E-02
   0.7082609391E+00  -0.1013777706E+01   0.1578084391E-03   0.6603525060E-02  -0.6673061960E-03   0.1578084391E-03   0.0000000000E+00   0.0000000000E+00   0.0000000000E+00   0.1703312335E+00   0.1899215844E-01   0.1472705227E-02   0.4247072149E-01  -0.3514483476E-02   0.5551458406E-04
   0.4623661715E+00  -0.1104336646E+01   0.2974195902E-03   0.6030597496E-02  -0.4560062639E-03   0.2974195902E-03   0.0000000000E+00   0.0000000000E+00   0.0000000000E+00   0.2084096801E+00   0.3436842655E-01   0.3784420466E-02   0.3691641907E-01  -0.4212212943E-02   0.2299469339E-02
   0.7083403115E+00  -0.1013750982E+01   0.1999629735E+00   0.6682897509E-02  -0.6405818885E-03  -0.3702950116E-04   0.0000000000E+00   0.0000000000E+00   0.0000000000E+00   0.1682510194E+00   0.2881519262E-01   0.2114493131E-02   0.4799424615E-01  -0.1926291754E-02  -0.3682692728E-04
   0.4624393176E+00  -0.1104351555E+01   0.2000477710E+00   0.6103743554E-02  -0.4709153363E-03   0.4776800862E-04   0.0000000000E+00   0.0000000000E+00   0.0000000000E+00   0.2159077215E+00   0.4057473103E-01   0.5908272437E-02   0.4500713170E-01  -0.2598379941E-02   0.1155760132E-02
   0.2469988555E+00  -0.1157456715E+01   0.3793363449E-03   0.5535790521E-02  -0.3403047669E-03   0.3793363449E-03   0.0000000000E+00   0.0000000000E+00   0.0000000000E+00   0.2367283171E+00   0.3543955305E-01   0.4000850280E-02   0.2452231485E-01  -0.2248015060E-02   0.3046005716E-02
   0.2470439249E+00  -0.1157498689E+01   0.2000988872E+00   0.5580859885E-02  -0.3822793502E-03   0.9888420000E-04   0.0000000000E+00   0.0000000000E+00   0.0000000000E+00   0.2517859310E+00   0.3868032221E-01   0.5739070728E-02   0.2989679593E-01  -0.1537299870E-02   0.1436642444E-02
   0.4220395558E-01  -0.1180174965E+01   0.4097264868E-03   0.5081996578E-02  -0.2927953923E-03   0.4097264868E-03   0.0000000000E+00   0.0000000000E+00   0.0000000000E+00   0.2462753638E+00   0.3579989102E-01   0.4188747152E-02   0.4476743955E-02  -0.3951240267E-03   0.3731460947E-02
   0.4221111952E-01  -0.1180227976E+01   0.2001179121E+00   0.5089160519E-02  -0.3458059296E-03   0.1179091151E-03   0.0000000000E+00   0.0000000000E+00   0.0000000000E+00   0.2640351457E+00   0.3734670591E-01   0.5855881999E-02   0.5301600793E-02  -0.2213255325E-03   0.1786130929E-02
  -0.1620582137E+00  -0.1176223096E+01   0.3938342088E-03   0.4637232258E-02  -0.3092858672E-03   0.3938342088E-03   0.0000000000E+00   0.0000000000E+00   0.0000000000E+00   0.2410252554E+00   0.3571855162E-01   0.4257619719E-02  -0.1600802157E-01   0.1401831360E-02   0.3349456282E-02
  -0.1620895157E+00  -0.1176269866E+01   0.2001077634E+00   0.4605930305E-02  -0.3560559931E-03   0.1077603646E-03   0.0000000000E+00   0.0000000000E+00   0.0000000000E+00   0.2572903961E+00   0.3846264224E-01   0.6022344028E-02  -0.1993449119E-01   0.1021258352E-02   0.1659772995E-02
  -0.3746313445E+00  -0.1145700216E+01   0.3299779284E-03   0.4176170482E-02  -0.3890958601E-03   0.3299779284E-03   0.0000000000E+00   0.0000000000E+00   0.0000000000E+00   0.2171436702E+00   0.3529071470E-01   0.4331354511E-02  -0.2955743428E-01   0.3375350212E-02   0.2783030297E-02
  -0.3746938198E+00  -0.1145725781E+01   0.2000677507E+00   0.4113695213E-02  -0.4146614725E-03   0.6774766948E-04   0.0000000000E+00   0.0000000000E+00   0.0000000000E+00   0.2274092920E+00   0.4061192195E-01   0.6564083187E-02  -0.3666150084E-01   0.2039023911E-02   0.1482701524E-02
  -0.1294929961E+00  -0.9915108464E+00   0.4542404663E-03   0.4564853923E-02  -0.5373144282E-03   0.4542404663E-03   0.0000000000E+00   0.0000000000E+00   0.0000000000E+00   0.3104317979E+00   0.8685274037E-02   0.2115851480E-02  -0.3672532402E-01   0.2966375214E-02  -0.1036144049E-02
  -0.3064446873E+00  -0.9511698020E+00   0.3859294010E-03   0.3984170675E-02  -0.5731709721E-03   0.3859294010E-03   0.0000000000E+00   0.0000000000E+00   0.0000000000E+00   0.2655000462E+00   0.2269445677E-01   0.1698220867E-02  -0.7264228970E-01   0.5971036335E-02  -0.3472518656E-02
  -0.1295251932E+00  -0.9915645959E+00   0.2001514394E+00   0.4532656828E-02  -0.5910638530E-03   0.1514363802E-03   0.0000000000E+00   0.0000000000E+00   0.0000000000E+00   0.3305700620E+00   0.1253110660E-01   0.1245414631E-02  -0.4129037603E-01   0.2154591399E-02  -0.9940521811E-03
  -0.3065116523E+00  -0.9511981326E+00   0.2001092317E+00   0.3917205662E-02  -0.6015015775E-03   0.1092287298E-03   0.0000000000E+00   0.0000000000E+00   0.0000000000E+00   0.2787432693E+00   0.3075066836E-01   0.4576292009E-03  -0.8039433032E-01   0.4596481064E-02  -0.2513949490E-02
   0.4575575920E-01  -0.9997041092E+00   0.4700475494E-03   0.5135037297E-02  -0.5294551749E-03   0.4700475494E-03   0.0000000000E+00   0.0000000000E+00   0.0000000000E+00   0.3209321946E+00   0.4932778809E-02   0.2773570808E-02   0.1025385008E-01  -0.5330686206E-03  -0.4487237207E-03
   0.4576555450E-01  -0.9997639970E+00   0.2001603337E+00   0.5144832598E-02  -0.5893429606E-03   0.1603307171E-03   0.0000000000E+00   0.0000000000E+00   0.0000000000E+00   0.3421963249E+00   0.7555815002E-02   0.1987852406E-02   0.1124417921E-01  -0.5239984293E-03  -0.7324381775E-03
   0.2220110828E+00  -0.9768747999E+00   0.4326023556E-03   0.5711071759E-02  -0.5478578888E-03   0.4326023556E-03   0.0000000000E+00   0.0000000000E+00   0.0000000000E+00   0.2967078238E+00   0.1436866312E-01   0.2324711812E-02   0.5521227729E-01  -0.4251663092E-02  -0.1213057286E-02
   0.2220610049E+00  -0.9769220103E+00   0.2001370394E+00   0.5760993924E-02  -0.5950683364E-03   0.1370364179E-03   0.0000000000E+00   0.0000000000E+00   0.0000000000E+00   0.3149362709E+00   0.1872193759E-01   0.1845618094E-02   0.6131650029E-01  -0.3234286171E-02  -0.1256578043E-02
   0.4014065226E+00  -0.9192367164E+00   0.3390987509E-03   0.6306465594E-02  -0.5986063957E-03   0.3390987509E-03   0.0000000000E+00   0.0000000000E+00   0.0000000000E+00   0.2378325208E+00   0.3155769094E-01   0.1791212292E-02   0.8380938406E-01  -0.7001052095E-02  -0.4032843819E-02
   0.4014864661E+00  -0.9192515138E+00   0.2000788164E+00   0.6386409114E-02  -0.6134038140E-03   0.7881344112E-04   0.0000000000E+00   0.0000000000E+00   0.0000000000E+00   0.2477483869E+00   0.4068057135E-01   0.1194174630E-02   0.9200491346E-01  -0.5520883261E-02  -0.3060518099E-02
   0.5804739881E+00  -0.8198585959E+00   0.1830440864E-03   0.6923466052E-02  -0.6884188737E-03   0.1830440864E-03   0.0000000000E+00   0.0000000000E+00   0.0000000000E+00   0.1696224156E+00   0.4734321867E-01   0.7282219193E-03   0.8965531641E-01  -0.8927586044E-02  -0.6815705542E-02
   0.5805610881E+00  -0.8198276367E+00   0.1999819029E+00   0.7010566068E-02  -0.6574596550E-03  -0.1810013311E-04   0.0000000000E+00   0.0000000000E+00   0.0000000000E+00   0.1691361839E+00   0.5872042543E-01   0.2829205731E-03   0.9573876778E-01  -0.7132858517E-02  -0.5526082927E-02
   0.8643293912E+00  -0.7845434036E+00  -0.4185089138E-05   0.7342153167E-02  -0.9262055535E-03  -0.4185089138E-05   0.0000000000E+00   0.0000000000E+00   0.0000000000E+00   0.1091995730E+00   0.1682702676E-01   0.2401567509E-02   0.5632560798E-01  -0.2418486127E-02  -0.4854077494E-02
   0.7402507576E+00  -0.6813432344E+00  -0.7090391863E-05   0.7541826618E-02  -0.8011233575E-03  -0.7090391863E-05   0.0000000000E+00   0.0000000000E+00   0.0000000000E+00   0.9033765851E-01   0.5098181393E-01  -0.5705395156E-03   0.6398413322E-01  -0.7840193350E-02  -0.9023879060E-02
   0.8643931083E+00  -0.7844715989E+00   0.1998621574E+00   0.7405870281E-02  -0.8544009254E-03  -0.1378455588E-03   0.0000000000E+00   0.0000000000E+00   0.0000000000E+00   0.1023802537E+00   0.2850998967E-01   0.3450679825E-02   0.5521199690E-01  -0.1664956226E-02  -0.3462260993E-02
   0.7403151860E+00  -0.6812702765E+00   0.1998629001E+00   0.7606255038E-02  -0.7281654959E-03  -0.1371029243E-03   0.0000000000E+00   0.0000000000E+00   0.0000000000E+00   0.8334446092E-01   0.5808329814E-01  -0.1254369527E-02   0.6396241992E-01  -0.6739934491E-02  -0.7092946255E-02
   0.9854410661E+00  -0.5800698982E+00  -0.1871788475E-03   0.7948137131E-02  -0.1108526166E-02  -0.1871788475E-03   0.0000000000E+00   0.0000000000E+00   0.0000000000E+00   0.5817821735E-01   0.1800038863E-02  -0.2031470411E-02   0.4453809840E-01  -0.1377849256E-02  -0.7007753893E-02
   0.8628721988E+00  -0.5198576521E+00  -0.2055190161E-03   0.8046880822E-02  -0.9417600993E-03  -0.2055190161E-03   0.0000000000E+00   0.0000000000E+00   0.0000000000E+00   0.3141925344E-01   0.2215873598E-01  -0.2056057361E-02   0.3036655246E-01  -0.6747295710E-02  -0.1210238584E-01
   0.9854636542E+00  -0.5799732452E+00   0.1997521899E+00   0.7970725226E-02  -0.1011873234E-02  -0.2478130737E-03   0.0000000000E+00   0.0000000000E+00   0.0000000000E+00   0.4888190251E-01   0.4579221457E-02  -0.3521150124E-02   0.3690550361E-01  -0.1521224642E-02  -0.5002611004E-02
   0.8628927389E+00  -0.5197620224E+00   0.1997407573E+00   0.8067420906E-02  -0.8461304069E-03  -0.2592456723E-03   0.0000000000E+00   0.0000000000E+00   0.0000000000E+00   0.2342056909E-01   0.2205744684E-01  -0.2926109513E-02   0.2430333663E-01  -0.5646400040E-02  -0.9416515519E-02
   0.1071631490E+01  -0.3840620338E+00  -0.3332740428E-03   0.8397160261E-02  -0.1239668804E-02  -0.3332740428E-03   0.0000000000E+00   0.0000000000E+00   0.0000000000E+00   0.2445115568E-01  -0.1677832821E-01  -0.2553645174E-02   0.3059648387E-01   0.1629604360E-02  -0.5971348135E-02
   0.9461226268E+00  -0.3485244869E+00  -0.3737175523E-03   0.8419970805E-02  -0.1085733860E-02  -0.3737175523E-03   0.0000000000E+00   0.0000000000E+00   0.0000000000E+00   0.1002713601E-01  -0.2394064027E-01  -0.3842483585E-02   0.4508248872E-02  -0.2955678346E-02  -0.1070458656E-01
   0.1071607047E+01  -0.3839715147E+00   0.1996611521E+00   0.8372716770E-02  -0.1149149687E-02  -0.3388509161E-03   0.0000000000E+00   0.0000000000E+00   0.0000000000E+00   0.1787767802E-01  -0.2541477879E-01  -0.4155370640E-02   0.2026946163E-01  -0.1033389765E-03  -0.4515511450E-02
   0.9460932164E+00  -0.3484326105E+00   0.1996358252E+00   0.8390560383E-02  -0.9938574996E-03  -0.3641777740E-03   0.0000000000E+00   0.0000000000E+00   0.0000000000E+00   0.3556396880E-02  -0.3535095050E-01  -0.5239858495E-02  -0.4565318150E-02  -0.3460142179E-02  -0.8491348410E-02
   0.1120799904E+01  -0.1929028010E+00  -0.4338270416E-03   0.8686543544E-02  -0.1324814961E-02  -0.4338270416E-03   0.0000000000E+00   0.0000000000E+00   0.0000000000E+00   0.4620573379E-02  -0.3415825213E-01  -0.4209831939E-02   0.1889694676E-01   0.3652477909E-02  -0.4291554699E-02
   0.9933688251E+00  -0.1754226323E+00  -0.4924108234E-03   0.8657297080E-02  -0.1229682325E-02  -0.4924108234E-03   0.0000000000E+00   0.0000000000E+00   0.0000000000E+00   0.3717582439E-02  -0.6653049605E-01  -0.4925598549E-02  -0.2155391032E-02  -0.4084602254E-03  -0.7797629333E-02
   0.1120738876E+01  -0.1928415033E+00   0.1995993669E+00   0.8625515663E-02  -0.1263517312E-02  -0.4006361151E-03   0.0000000000E+00   0.0000000000E+00   0.0000000000E+00   0.1929863285E-02  -0.5175834615E-01  -0.6121261407E-02   0.1105741165E-01   0.1073168172E-02  -0.3135972946E-02
   0.9933000023E+00  -0.1753608789E+00   0.1995619699E+00   0.8588474285E-02  -0.1167928938E-02  -0.4380331300E-03   0.0000000000E+00   0.0000000000E+00   0.0000000000E+00   0.6054703888E-03  -0.8712602444E-01  -0.6135310102E-02  -0.8937015386E-02  -0.1550691912E-02  -0.6085015626E-02
   0.1256482522E+01  -0.1990769323E+00  -0.3667903198E-03   0.8710902308E-02  -0.1350265302E-02  -0.3667903198E-03   0.0000000000E+00   0.0000000000E+00   0.0000000000E+00   0.1389691670E-01  -0.1175700799E-01   0.3805309762E-03   0.3385746322E-01   0.4250128761E-02  -0.2539251357E-02
   0.1256427060E+01  -0.1990288435E+00   0.1996367217E+00   0.8655439968E-02  -0.1302176484E-02  -0.3632813397E-03   0.0000000000E+00   0.0000000000E+00   0.0000000000E+00   0.1374228236E-01  -0.2365857834E-01   0.1292696766E-02   0.2633678499E-01   0.2546163332E-02  -0.1776589505E-02
   0.1411444742E+01  -0.2034262927E+00  -0.3050034977E-03   0.8741691974E-02  -0.1332646668E-02  -0.3050034977E-03   0.0000000000E+00   0.0000000000E+00   0.0000000000E+00   0.2231171917E-01  -0.1877932749E-02  -0.3736111947E-03   0.3474020778E-01   0.2262938663E-02  -0.1250659322E-02
   0.1411396580E+01  -0.2033915962E+00   0.1996768665E+00   0.8693529767E-02  -0.1297950226E-02  -0.3231365070E-03   0.0000000000E+00   0.0000000000E+00   0.0000000000E+00   0.2489489897E-01  -0.9464040757E-02   0.6922738623E-03   0.2933233976E-01   0.2155175774E-02  -0.7863312418E-03
   0.1580504030E+01  -0.2067715800E+00  -0.2519041314E-03   0.8784260207E-02  -0.1289722960E-02  -0.2519041314E-03   0.0000000000E+00   0.0000000000E+00   0.0000000000E+00   0.3306365462E-01   0.4925787910E-02   0.2294862464E-03   0.3238286058E-01   0.1699491303E-02  -0.7892970683E-03
   0.1580465241E+01  -0.2067481927E+00   0.1997113631E+00   0.8745471444E-02  -0.1266335734E-02  -0.2886399387E-03   0.0000000000E+00   0.0000000000E+00   0.0000000000E+00   0.3593115080E-01  -0.2566435812E-03   0.8276485765E-03   0.2861743189E-01   0.1128470826E-02  -0.2958795921E-03
   0.1754408067E+01  -0.2092170347E+00  -0.2110669793E-03   0.8843366864E-02  -0.1236431704E-02  -0.2110669793E-03   0.0000000000E+00   0.0000000000E+00   0.0000000000E+00   0.4322239953E-01   0.7865580378E-02   0.9671345403E-04   0.2832477380E-01   0.9501639330E-03  -0.4392940261E-03
   0.1754377413E+01  -0.2092015122E+00   0.1997379201E+00   0.8812713419E-02  -0.1220909236E-02  -0.2620829096E-03   0.0000000000E+00   0.0000000000E+00   0.0000000000E+00   0.4616685479E-01   0.4608653897E-02   0.5346951284E-03   0.2579277666E-01   0.4501047889E-03  -0.6624986209E-04
   0.1928641509E+01  -0.2109357755E+00  -0.1805283718E-03   0.8917519180E-02  -0.1181844454E-02  -0.1805283718E-03   0.0000000000E+00   0.0000000000E+00   0.0000000000E+00   0.5246510350E-01   0.9822798880E-02   0.1166718741E-03   0.2425239003E-01   0.6402035152E-03  -0.2870588892E-03
   0.1928618026E+01  -0.2109256848E+00   0.1997571009E+00   0.8894035592E-02  -0.1171753808E-02  -0.2429021036E-03   0.0000000000E+00   0.0000000000E+00   0.0000000000E+00   0.5484109371E-01   0.7394959598E-02   0.2407753930E-03   0.2251913167E-01   0.5356389447E-04   0.5319508493E-05
   0.2111206747E+01  -0.2135813539E+00  -0.1568191471E-03   0.9010056642E-02  -0.1127421903E-02  -0.1568191471E-03   0.0000000000E+00   0.0000000000E+00   0.0000000000E+00   0.6048691518E-01   0.1070485620E-01   0.3137390387E-04   0.2031644186E-01   0.4071091521E-03  -0.1731488907E-03
   0.2111188957E+01  -0.2135751060E+00   0.1997717532E+00   0.8992267121E-02  -0.1121173968E-02  -0.2282498359E-03   0.0000000000E+00   0.0000000000E+00   0.0000000000E+00   0.6232645479E-01   0.8985317353E-02   0.9692144019E-04   0.1914604223E-01  -0.6969159969E-04   0.6865724362E-05
   0.2294985375E+01  -0.2159030286E+00  -0.1390869149E-03   0.9116254538E-02  -0.1077904582E-02  -0.1390869149E-03   0.0000000000E+00   0.0000000000E+00   0.0000000000E+00   0.6684805017E-01   0.1124294169E-01   0.9793028111E-05   0.1680886066E-01   0.3297810336E-03  -0.1176083709E-03
   0.2294972005E+01  -0.2158993766E+00   0.1997824949E+00   0.9102885442E-02  -0.1074252596E-02  -0.2175080964E-03   0.0000000000E+00   0.0000000000E+00   0.0000000000E+00   0.6824144433E-01   0.9900936043E-02  -0.5194227037E-05   0.1599417201E-01  -0.8323989066E-04   0.2359446326E-05
   0.2457714303E+01  -0.2152996387E+00  -0.1271817076E-03   0.9219872549E-02  -0.1039790742E-02  -0.1271817076E-03   0.0000000000E+00   0.0000000000E+00   0.0000000000E+00   0.7166868404E-01   0.1134699327E-01  -0.1530518263E-06   0.1387049760E-01   0.2246436912E-03  -0.7015793239E-04
   0.2457703918E+01  -0.2152976861E+00   0.1997896535E+00   0.9209487749E-02  -0.1037838055E-02  -0.2103495122E-03   0.0000000000E+00   0.0000000000E+00   0.0000000000E+00   0.7276414206E-01   0.1029601459E-01  -0.1631727822E-05   0.1328717769E-01  -0.9170195428E-04  -0.2980894679E-05
   0.2628082896E+01  -0.2157902077E+00  -0.1175338626E-03   0.9335185854E-02  -0.1005078723E-02  -0.1175338626E-03   0.0000000000E+00   0.0000000000E+00   0.0000000000E+00   0.7547217210E-01   0.1138459183E-01   0.7946132831E-06   0.1115499909E-01   0.1911116160E-03  -0.2188158004E-04
   0.2628075009E+01  -0.2157894962E+00   0.1997954180E+00   0.9327299183E-02  -0.1004367220E-02  -0.2045850414E-03   0.0000000000E+00   0.0000000000E+00   0.0000000000E+00   0.7632399246E-01   0.1051327668E-01  -0.1508380959E-04   0.1073462157E-01  -0.5998921637E-04  -0.4243337635E-05
   0.2802943465E+01  -0.2169827710E+00  -0.1100826988E-03   0.9459734820E-02  -0.9756579513E-03  -0.1100826988E-03   0.0000000000E+00   0.0000000000E+00   0.0000000000E+00   0.7859884307E-01   0.1126467109E-01  -0.1597907525E-05   0.8635386660E-02   0.1406067945E-03  -0.1044147466E-05
   0.2802937626E+01  -0.2169829889E+00   0.1997998805E+00   0.9453895582E-02  -0.9758759404E-03  -0.2001225386E-03   0.0000000000E+00   0.0000000000E+00   0.0000000000E+00   0.7930372751E-01   0.1055998491E-01  -0.4422001251E-05   0.8341577065E-02  -0.4052183739E-04  -0.6953528584E-05
   0.2978612238E+01  -0.2182282844E+00  -0.1046462695E-03   0.9589727550E-02  -0.9523963722E-03  -0.1046462695E-03   0.0000000000E+00   0.0000000000E+00   0.0000000000E+00   0.8092532721E-01   0.1114180331E-01   0.3193192903E-05   0.6298866937E-02   0.9823987059E-04   0.2075871851E-04
   0.2978608121E+01  -0.2182291115E+00   0.1998031332E+00   0.9585611356E-02  -0.9532235279E-03  -0.1968698239E-03   0.0000000000E+00   0.0000000000E+00   0.0000000000E+00   0.8152093145E-01   0.1054050330E-01  -0.7958373411E-06   0.6100958777E-02  -0.2833137211E-04  -0.7357324358E-05
   0.3155234770E+01  -0.2194741222E+00  -0.1009565753E-03   0.9724099740E-02  -0.9357041870E-03  -0.1009565753E-03   0.0000000000E+00   0.0000000000E+00   0.0000000000E+00   0.8253984175E-01   0.1100300704E-01  -0.3130630269E-05   0.4151161520E-02   0.6886458316E-04   0.2661737598E-04
   0.3155232142E+01  -0.2194753781E+00   0.1998053513E+00   0.9721472258E-02  -0.9369601061E-03  -0.1946516572E-03   0.0000000000E+00   0.0000000000E+00   0.0000000000E+00   0.8306641975E-01   0.1047637333E-01  -0.5662472494E-05   0.4027465304E-02  -0.1325540854E-04  -0.1081062732E-04
   0.3332349550E+01  -0.2203487052E+00  -0.9880460916E-04   0.9861239728E-02  -0.9255001915E-03  -0.9880460916E-04   0.0000000000E+00   0.0000000000E+00   0.0000000000E+00   0.8349348314E-01   0.1092150620E-01   0.1698910917E-05   0.1951309958E-02   0.1156711389E-04   0.3743842648E-04
   0.3332348270E+01  -0.2203501747E+00   0.1998066399E+00   0.9859959549E-02  -0.9269697414E-03  -0.1933630668E-03   0.0000000000E+00   0.0000000000E+00   0.0000000000E+00   0.8398041466E-01   0.1043490497E-01  -0.3881819595E-06   0.1896407608E-02  -0.2009613537E-04  -0.9974886379E-05
   0.3510000000E+01  -0.2211465980E+00  -0.9810474478E-04   0.1000000000E-01  -0.9220239563E-03  -0.9810474478E-04   0.0000000000E+00   0.0000000000E+00   0.0000000000E+00   0.8380546618E-01   0.1088242883E-01  -0.1666123790E-05   0.3352227088E-03   0.7573975989E-04   0.3497775801E-04
   0.3510000000E+01  -0.2211481569E+00   0.1998070620E+00   0.1000000000E-01  -0.9235829173E-03  -0.1929410262E-03   0.0000000000E+00   0.0000000000E+00   0.0000000000E+00   0.8428153888E-01   0.1041150154E-01  -0.2816615790E-05   0.3211552350E-03   0.4622294225E-04  -0.1183698475E-04
   0.1210741096E+01  -0.3972181536E+00  -0.2939327686E-03   0.8435066050E-02  -0.1297340619E-02  -0.2939327686E-03   0.0000000000E+00   0.0000000000E+00   0.0000000000E+00   0.4091734339E-01  -0.1348897185E-01   0.3341477637E-03   0.4832189177E-01   0.2405178322E-02  -0.3667003468E-02
   0.1210713597E+01  -0.3971458393E+00   0.1996826392E+00   0.8407566637E-02  -0.1225026344E-02  -0.3173638310E-03   0.0000000000E+00   0.0000000000E+00   0.0000000000E+00   0.3662526931E-01  -0.1844807253E-01   0.8501802369E-03   0.3820043692E-01   0.1519348393E-02  -0.2600499661E-02
   0.1373649122E+01  -0.4071390392E+00  -0.2542433755E-03   0.8501532090E-02  -0.1296109237E-02  -0.2542433755E-03   0.0000000000E+00   0.0000000000E+00   0.0000000000E+00   0.4653382161E-01  -0.8460175309E-02  -0.4735274779E-03   0.4899470177E-01   0.1429943961E-02  -0.2127585395E-02
   0.1373620923E+01  -0.4070865221E+00   0.1997089837E+00   0.8473333156E-02  -0.1243592112E-02  -0.2910192875E-03   0.0000000000E+00   0.0000000000E+00   0.0000000000E+00   0.4598847555E-01  -0.1162858061E-01   0.2045794272E-03   0.4154895059E-01   0.1515784201E-02  -0.1269045823E-02
   0.1544086976E+01  -0.4130610757E+00  -0.2189772704E-03   0.8584545502E-02  -0.1258336664E-02  -0.2189772704E-03   0.0000000000E+00   0.0000000000E+00   0.0000000000E+00   0.5315458378E-01  -0.3347656824E-02   0.8253311105E-04   0.4547960782E-01   0.1138262951E-02  -0.1219152016E-02
   0.1544061330E+01  -0.4130243197E+00   0.1997320690E+00   0.8558899644E-02  -0.1221580681E-02  -0.2679340103E-03   0.0000000000E+00   0.0000000000E+00   0.0000000000E+00   0.5402296906E-01  -0.5821138138E-02   0.5887924660E-03   0.4012072930E-01   0.8099625626E-03  -0.4349947545E-03
   0.1719302612E+01  -0.4171963183E+00  -0.1899350040E-03   0.8679582276E-02  -0.1204237342E-02  -0.1899350040E-03   0.0000000000E+00   0.0000000000E+00   0.0000000000E+00   0.5868580976E-01   0.4127584374E-03  -0.8910437144E-04   0.3952619340E-01   0.6968563315E-03  -0.6963334921E-03
   0.1719280752E+01  -0.4171709795E+00   0.1997510413E+00   0.8657722195E-02  -0.1178898453E-02  -0.2489617215E-03   0.0000000000E+00   0.0000000000E+00   0.0000000000E+00   0.6018221821E-01  -0.1354435623E-02   0.1697139407E-03   0.3584968136E-01   0.3533795457E-03  -0.7899209476E-04
   0.1896849831E+01  -0.4205123389E+00  -0.1665970498E-03   0.8784250996E-02  -0.1145114875E-02  -0.1665970498E-03   0.0000000000E+00   0.0000000000E+00   0.0000000000E+00   0.6431476121E-01   0.3282722837E-02   0.2919147227E-04   0.3361142088E-01   0.5067961041E-03  -0.4387596751E-03
   0.1896832153E+01  -0.4204950680E+00   0.1997656691E+00   0.8766572639E-02  -0.1127844050E-02  -0.2343339289E-03   0.0000000000E+00   0.0000000000E+00   0.0000000000E+00   0.6580652161E-01   0.1844446160E-02   0.1368301574E-03   0.3108784156E-01   0.5909380515E-04   0.3810268697E-04
   0.2074568182E+01  -0.4234293749E+00  -0.1486109456E-03   0.8897212417E-02  -0.1087372852E-02  -0.1486109456E-03   0.0000000000E+00   0.0000000000E+00   0.0000000000E+00   0.6931210662E-01   0.5077398660E-02  -0.1916483765E-04   0.2810322036E-01   0.3337711423E-03  -0.2781680199E-03
   0.2074554162E+01  -0.4234176014E+00   0.1997767622E+00   0.8883192476E-02  -0.1075599406E-02  -0.2232407547E-03   0.0000000000E+00   0.0000000000E+00   0.0000000000E+00   0.7059617687E-01   0.3968034826E-02   0.8339050343E-05   0.2636639528E-01  -0.5102426904E-04   0.6293126807E-04
   0.2255451133E+01  -0.4264396488E+00  -0.1343617532E-03   0.9019782696E-02  -0.1033013838E-02  -0.1343617532E-03   0.0000000000E+00   0.0000000000E+00   0.0000000000E+00   0.7370561714E-01   0.6250065190E-02   0.2571973585E-04   0.2321317341E-01   0.2747681625E-03  -0.1883697559E-03
   0.2255440250E+01  -0.4264318317E+00   0.1997853388E+00   0.9008900498E-02  -0.1025196696E-02  -0.2146641682E-03   0.0000000000E+00   0.0000000000E+00   0.0000000000E+00   0.7474557007E-01   0.5335005796E-02   0.2588551782E-04   0.2200003517E-01  -0.7130822909E-04   0.4592385990E-04
   0.2432013190E+01  -0.4287470041E+00  -0.1237031012E-03   0.9145889573E-02  -0.9859261470E-03  -0.1237031012E-03   0.0000000000E+00   0.0000000000E+00   0.0000000000E+00   0.7733045214E-01   0.7020991638E-02   0.1890266391E-04   0.1893914846E-01   0.1814293638E-03  -0.1210754096E-03
   0.2432004775E+01  -0.4287418169E+00   0.1997917364E+00   0.9137474710E-02  -0.9807388795E-03  -0.2082665701E-03   0.0000000000E+00   0.0000000000E+00   0.0000000000E+00   0.7817904157E-01   0.6289291382E-02   0.2668870504E-04   0.1808329294E-01  -0.7193701702E-04   0.3069183172E-04
   0.2609432025E+01  -0.4311341215E+00  -0.1155745010E-03   0.9278344879E-02  -0.9454065341E-03  -0.1155745010E-03   0.0000000000E+00   0.0000000000E+00   0.0000000000E+00   0.8021842962E-01   0.7418883479E-02  -0.9168154149E-05   0.1514810910E-01   0.1425274512E-03  -0.9060657403E-04
   0.2609425613E+01  -0.4311308739E+00   0.1997966161E+00   0.9271932544E-02  -0.9421589166E-03  -0.2033869082E-03   0.0000000000E+00   0.0000000000E+00   0.0000000000E+00   0.8088480953E-01   0.6786561498E-02  -0.2090704109E-04   0.1453492136E-01  -0.5920470464E-04   0.1179374761E-04
   0.2788309766E+01  -0.4337162008E+00  -0.1093345182E-03   0.9416296329E-02  -0.9113178132E-03  -0.1093345182E-03   0.0000000000E+00   0.0000000000E+00   0.0000000000E+00   0.8248464925E-01   0.7706281737E-02   0.3006526792E-05   0.1170349130E-01   0.1135785817E-03  -0.4670762550E-04
   0.2788304987E+01  -0.4337142908E+00   0.1998003370E+00   0.9411517338E-02  -0.9094078391E-03  -0.1996659737E-03   0.0000000000E+00   0.0000000000E+00   0.0000000000E+00   0.8303211449E-01   0.7169668331E-02  -0.2306400829E-05   0.1127124643E-01  -0.3790438626E-04   0.7716101962E-05
   0.2967880439E+01  -0.4362790767E+00  -0.1047645576E-03   0.9558388599E-02  -0.8845507025E-03  -0.1047645576E-03   0.0000000000E+00   0.0000000000E+00   0.0000000000E+00   0.8419634976E-01   0.7836734977E-02  -0.4890235409E-05   0.8520818505E-02   0.7973417956E-04  -0.2777871059E-04
   0.2967877049E+01  -0.4362781383E+00   0.1998030741E+00   0.9554998901E-02  -0.8836122827E-03  -0.1969289397E-03   0.0000000000E+00   0.0000000000E+00   0.0000000000E+00   0.8467071730E-01   0.7369467292E-02  -0.9363230996E-05   0.8226671832E-02  -0.2545509620E-04   0.1787452056E-05
   0.3148033588E+01  -0.4385464997E+00  -0.1016347262E-03   0.9703608215E-02  -0.8650627441E-03  -0.1016347262E-03   0.0000000000E+00   0.0000000000E+00   0.0000000000E+00   0.8539509088E-01   0.7913251615E-02   0.3952938519E-05   0.5603749420E-02   0.5682721000E-04  -0.7020582762E-05
   0.3148031416E+01  -0.4385461628E+00   0.1998049430E+00   0.9701436323E-02  -0.8647258324E-03  -0.1950599551E-03   0.0000000000E+00   0.0000000000E+00   0.0000000000E+00   0.8581761727E-01   0.7493487468E-02   0.2325939474E-05   0.5420965652E-02  -0.1228117275E-04   0.9806794269E-06
   0.3328709716E+01  -0.4400993388E+00  -0.9982375948E-04   0.9851095771E-02  -0.8533697934E-03  -0.9982375948E-04   0.0000000000E+00   0.0000000000E+00   0.0000000000E+00   0.8610165765E-01   0.7932722662E-02  -0.3876929646E-05   0.2641349616E-02   0.8117801690E-05  -0.2326444136E-05
   0.3328708655E+01  -0.4400993741E+00   0.1998060338E+00   0.9850035244E-02  -0.8534051108E-03  -0.1939691879E-03   0.0000000000E+00   0.0000000000E+00   0.0000000000E+00   0.8649650195E-01   0.7541390576E-02  -0.6972221524E-05   0.2555441398E-02  -0.1712340698E-04  -0.2215298599E-05
   0.3510000000E+01  -0.4413147198E+00  -0.9921729199E-04   0.1000000000E-01  -0.8491207501E-03  -0.9921729199E-04   0.0000000000E+00   0.0000000000E+00   0.0000000000E+00   0.8634024657E-01   0.7940003225E-02   0.4537311847E-05   0.4208988980E-03   0.6584040951E-04   0.4961161824E-05
   0.3510000000E+01  -0.4413148474E+00   0.1998063917E+00   0.1000000000E-01  -0.8492483724E-03  -0.1936113341E-03   0.0000000000E+00   0.0000000000E+00   0.0000000000E+00   0.8672531100E-01   0.7557802972E-02   0.3993417810E-05   0.4145440338E-03   0.3768379863E-04  -0.8849379856E-06
   0.1137110531E+01  -0.5983537599E+00  -0.1887362701E-03   0.8024040815E-02  -0.1194254893E-02  -0.1887362701E-03   0.0000000000E+00   0.0000000000E+00   0.0000000000E+00   0.7813733223E-01  -0.1516710966E-01   0.7974284303E-04   0.5498875196E-01   0.2620853995E-03  -0.4190905020E-02
   0.1137118722E+01  -0.5982746099E+00   0.1997494398E+00   0.8032231527E-02  -0.1115104913E-02  -0.2505632062E-03   0.0000000000E+00   0.0000000000E+00   0.0000000000E+00   0.7041756362E-01  -0.1094188514E-01   0.4116491161E-03   0.4638922183E-01   0.6124379395E-04  -0.2772651386E-02
   0.1306455956E+01  -0.6105501929E+00  -0.1826857815E-03   0.8148536416E-02  -0.1212922946E-02  -0.1826857815E-03   0.0000000000E+00   0.0000000000E+00   0.0000000000E+00   0.8016522903E-01  -0.1567314314E-01   0.8794129770E-04   0.5448377613E-01   0.2831484136E-03  -0.2117087793E-02
   0.1306452797E+01  -0.6104902474E+00   0.1997535603E+00   0.8145376953E-02  -0.1152977406E-02  -0.2464426892E-03   0.0000000000E+00   0.0000000000E+00   0.0000000000E+00   0.7662559030E-01  -0.1360468277E-01   0.7927251921E-03   0.4743764398E-01   0.5556793237E-03  -0.1041797509E-02
   0.1483422918E+01  -0.6186009451E+00  -0.1713527204E-03   0.8291167665E-02  -0.1188378073E-02  -0.1713527204E-03   0.0000000000E+00   0.0000000000E+00   0.0000000000E+00   0.8041821952E-01  -0.1248942420E-01   0.2545080867E-04   0.5059281910E-01   0.4454737349E-03  -0.1285464373E-02
   0.1483414591E+01  -0.6185573268E+00   0.1997614466E+00   0.8282840730E-02  -0.1144759837E-02  -0.2385564492E-03   0.0000000000E+00   0.0000000000E+00   0.0000000000E+00   0.7871540334E-01  -0.1188563263E-01   0.2720628270E-03   0.4521149651E-01   0.4583532029E-03  -0.2909305656E-03
   0.1664289963E+01  -0.6245234329E+00  -0.1577252711E-03   0.8438122512E-02  -0.1141221938E-02  -0.1577252711E-03   0.0000000000E+00   0.0000000000E+00   0.0000000000E+00   0.8034140418E-01  -0.8259374940E-02   0.9707565584E-04   0.4494170583E-01   0.3617656317E-03  -0.8345130022E-03
   0.1664279721E+01  -0.6244923010E+00   0.1997705193E+00   0.8427880568E-02  -0.1110089988E-02  -0.2294836700E-03   0.0000000000E+00   0.0000000000E+00   0.0000000000E+00   0.8009923018E-01  -0.8156208263E-02   0.3976313600E-03   0.4102857006E-01   0.2473511438E-03   0.4454849697E-05
   0.1847196264E+01  -0.6294445976E+00  -0.1447357024E-03   0.8586334200E-02  -0.1083729575E-02  -0.1447357024E-03   0.0000000000E+00   0.0000000000E+00   0.0000000000E+00   0.8116702115E-01  -0.4687061914E-02   0.3904643467E-04   0.3882776253E-01   0.2785230630E-03  -0.5335218578E-03
   0.1847186480E+01  -0.6294225448E+00   0.1997788225E+00   0.8576549921E-02  -0.1061676793E-02  -0.2211804694E-03   0.0000000000E+00   0.0000000000E+00   0.0000000000E+00   0.8146189076E-01  -0.4982075326E-02   0.1021367858E-03   0.3601246338E-01   0.6293579144E-04   0.9959825873E-04
   0.2031052266E+01  -0.6339175578E+00  -0.1334379195E-03   0.8735806474E-02  -0.1024472833E-02  -0.1334379195E-03   0.0000000000E+00   0.0000000000E+00   0.0000000000E+00   0.8256418106E-01  -0.1919124741E-02   0.4489226689E-04   0.3285971080E-01   0.2015080031E-03  -0.3754237529E-03
   0.2031043726E+01  -0.6339020835E+00   0.1997858272E+00   0.8727266348E-02  -0.1008998511E-02  -0.2141758385E-03   0.0000000000E+00   0.0000000000E+00   0.0000000000E+00   0.8307211010E-01  -0.2293813538E-02   0.9849981806E-04   0.3085525491E-01  -0.2272696510E-04   0.9737944822E-04
   0.2215879489E+01  -0.6382237580E+00  -0.1241341085E-03   0.8887579175E-02  -0.9675529601E-03  -0.1241341085E-03   0.0000000000E+00   0.0000000000E+00   0.0000000000E+00   0.8412734494E-01   0.9255462881E-04  -0.8970802731E-05   0.2733254300E-01   0.1590862604E-03  -0.2461527391E-03
   0.2215872424E+01  -0.6382129124E+00   0.1997915060E+00   0.8880514342E-02  -0.9567073706E-03  -0.2084970061E-03   0.0000000000E+00   0.0000000000E+00   0.0000000000E+00   0.8462970898E-01  -0.3351225791E-03  -0.2416427192E-04   0.2590304426E-01  -0.4965118474E-04   0.8175785716E-04
   0.2399901102E+01  -0.6422903759E+00  -0.1165923722E-03   0.9040782174E-02  -0.9162648656E-03  -0.1165923722E-03   0.0000000000E+00   0.0000000000E+00   0.0000000000E+00   0.8567281181E-01   0.1564431724E-02   0.2339049974E-05   0.2232600675E-01   0.1386721249E-03  -0.1737822750E-03
   0.2399895425E+01  -0.6422828881E+00   0.1997960225E+00   0.9035104947E-02  -0.9087771476E-03  -0.2039805331E-03   0.0000000000E+00   0.0000000000E+00   0.0000000000E+00   0.8613932267E-01   0.1169610624E-02  -0.3230677283E-05   0.2130516559E-01  -0.4674920611E-04   0.5707941043E-04
   0.2583954441E+01  -0.6462993009E+00  -0.1106444433E-03   0.9195911375E-02  -0.8715379434E-03  -0.1106444433E-03   0.0000000000E+00   0.0000000000E+00   0.0000000000E+00   0.8706999672E-01   0.2603835167E-02   0.1671145108E-04   0.1781425412E-01   0.9871377429E-04  -0.1165531503E-03
   0.2583950003E+01  -0.6462941414E+00   0.1997995606E+00   0.9191472799E-02  -0.8663783502E-03  -0.2004424204E-03   0.0000000000E+00   0.0000000000E+00   0.0000000000E+00   0.8748237642E-01   0.2243600247E-02   0.1691987174E-04   0.1708694857E-01  -0.4086973948E-04   0.3849480069E-04
   0.2768424817E+01  -0.6502955263E+00  -0.1061179076E-03   0.9353467076E-02  -0.8343162649E-03  -0.1061179076E-03   0.0000000000E+00   0.0000000000E+00   0.0000000000E+00   0.8820647572E-01   0.3296220563E-02  -0.3879997135E-05   0.1375029042E-01   0.7540969815E-04  -0.8702901242E-04
   0.2768421463E+01  -0.6502920800E+00   0.1998022756E+00   0.9350113298E-02  -0.8308700128E-03  -0.1977273888E-03   0.0000000000E+00   0.0000000000E+00   0.0000000000E+00   0.8856178815E-01   0.2964793387E-02  -0.9311086169E-05   0.1323418425E-01  -0.3017817544E-04   0.2046109798E-04
   0.2953248065E+01  -0.6541039726E+00  -0.1027406771E-03   0.9512944832E-02  -0.8047005904E-03  -0.1027406771E-03   0.0000000000E+00   0.0000000000E+00   0.0000000000E+00   0.8908849325E-01   0.3806712470E-02   0.7104151002E-05   0.1001195799E-01   0.5591289706E-04  -0.5273068013E-04
   0.2953245656E+01  -0.6541016758E+00   0.1998042853E+00   0.9510535501E-02  -0.8024037703E-03  -0.1957176609E-03   0.0000000000E+00   0.0000000000E+00   0.0000000000E+00   0.8940358812E-01   0.3502517446E-02   0.6422884608E-05   0.9660727958E-02  -0.2034795782E-04   0.1470178115E-04
   0.3138429945E+01  -0.6573681515E+00  -0.1004313002E-03   0.9674135105E-02  -0.7833524976E-03  -0.1004313002E-03   0.0000000000E+00   0.0000000000E+00   0.0000000000E+00   0.8970254830E-01   0.4118420954E-02  -0.3445715744E-05   0.6568835937E-02   0.3920154253E-04  -0.3918295301E-04
   0.3138428390E+01  -0.6573666479E+00   0.1998056726E+00   0.9672579841E-02  -0.7818488858E-03  -0.1943304346E-03   0.0000000000E+00   0.0000000000E+00   0.0000000000E+00   0.8999381063E-01   0.3835065206E-02  -0.6070227349E-05   0.6347822515E-02  -0.9784615237E-05   0.8077890429E-05
   0.3324002444E+01  -0.6596265468E+00  -0.9907144239E-04   0.9836613949E-02  -0.7702737544E-03  -0.9907144239E-04   0.0000000000E+00   0.0000000000E+00   0.0000000000E+00   0.9008271612E-01   0.4303979944E-02   0.3393992814E-05   0.3122687778E-02   0.6561366008E-05  -0.2371953919E-04
   0.3324001680E+01  -0.6596254627E+00   0.1998064833E+00   0.9835850482E-02  -0.7691896623E-03  -0.1935196969E-03   0.0000000000E+00   0.0000000000E+00   0.0000000000E+00   0.9035879572E-01   0.4032631797E-02   0.3027076123E-05   0.3023107545E-02  -0.1296410769E-04   0.7332170720E-05
   0.3510000000E+01  -0.6611756511E+00  -0.9862296279E-04   0.1000000000E-01  -0.7656640834E-03  -0.9862296279E-04   0.0000000000E+00   0.0000000000E+00   0.0000000000E+00   0.9020372492E-01   0.4345594165E-02  -0.2826665836E-05   0.3985990612E-03   0.4439587767E-04  -0.2518493886E-04
   0.3510000000E+01  -0.6611747243E+00   0.1998067547E+00   0.1000000000E-01  -0.7647372984E-03  -0.1932483497E-03   0.0000000000E+00   0.0000000000E+00   0.0000000000E+00   0.9047581065E-01   0.4079559159E-02  -0.4668883550E-05   0.3779713435E-03   0.2756803140E-04   0.4732534135E-05
   0.1045867617E+01  -0.8086526581E+00  -0.6319548145E-04   0.7505116736E-02  -0.1024026141E-02  -0.6319548145E-04   0.0000000000E+00   0.0000000000E+00   0.0000000000E+00   0.1249427755E+00  -0.1569857591E-01   0.2305752127E-03   0.5029504321E-01  -0.2793701990E-02  -0.1754006940E-02
   0.1045907729E+01  -0.8085883510E+00   0.1998277433E+00   0.7545229064E-02  -0.9597190420E-03  -0.1722597044E-03   0.0000000000E+00   0.0000000000E+00   0.0000000000E+00   0.1176241187E+00  -0.5888451824E-02   0.1147822712E-02   0.4680793648E-01  -0.1420072992E-02  -0.1033060743E-02
   0.1232325327E+01  -0.8217727141E+00  -0.9791113029E-04   0.7721317410E-02  -0.1065393149E-02  -0.9791113029E-04   0.0000000000E+00   0.0000000000E+00   0.0000000000E+00   0.1161313764E+00  -0.1963689187E-01  -0.1253490609E-03   0.4883385798E-01  -0.5169684139E-03  -0.1613194645E-02
   0.1232347392E+01  -0.8217193340E+00   0.1998063056E+00   0.7743382243E-02  -0.1012013035E-02  -0.1936973780E-03   0.0000000000E+00   0.0000000000E+00   0.0000000000E+00   0.1099156282E+00  -0.1498081683E-01  -0.2573680607E-03   0.4467303872E-01  -0.1423353564E-03  -0.3305359712E-03
   0.1419679239E+01  -0.8301726785E+00  -0.1125804719E-03   0.7939649257E-02  -0.1063248457E-02  -0.1125804719E-03   0.0000000000E+00   0.0000000000E+00   0.0000000000E+00   0.1098107369E+00  -0.1922224038E-01  -0.1546118830E-04   0.4728738468E-01  -0.2053237228E-03  -0.1152320473E-02
   0.1419688206E+01  -0.8301310034E+00   0.1997977281E+00   0.7948616417E-02  -0.1021573363E-02  -0.2022749009E-03   0.0000000000E+00   0.0000000000E+00   0.0000000000E+00   0.1064691218E+00  -0.1604957757E-01   0.3949495992E-03   0.4346901678E-01   0.2060400334E-03  -0.1055723632E-03
   0.1607875977E+01  -0.8366674181E+00  -0.1167223177E-03   0.8148827269E-02  -0.1031219083E-02  -0.1167223177E-03   0.0000000000E+00   0.0000000000E+00   0.0000000000E+00   0.1040475836E+00  -0.1573314559E-01  -0.2078159263E-04   0.4372721502E-01   0.3950461835E-04  -0.7920097628E-03
   0.1607878461E+01  -0.8366358076E+00   0.1997954598E+00   0.8151311093E-02  -0.9996085738E-03  -0.2045432385E-03   0.0000000000E+00   0.0000000000E+00   0.0000000000E+00   0.1022471365E+00  -0.1429727918E-01   0.1381570383E-04   0.4045305364E-01   0.1620052679E-03   0.9473967917E-04
   0.1796926230E+01  -0.8424026971E+00  -0.1159405328E-03   0.8349029727E-02  -0.9835961235E-03  -0.1159405328E-03   0.0000000000E+00   0.0000000000E+00   0.0000000000E+00   0.1002681489E+00  -0.1221715448E-01  -0.7347313611E-05   0.3890194352E-01   0.3882416557E-04  -0.5692538546E-03
   0.1796925288E+01  -0.8423794445E+00   0.1997962626E+00   0.8348088413E-02  -0.9603435208E-03  -0.2037403983E-03   0.0000000000E+00   0.0000000000E+00   0.0000000000E+00   0.9951994093E-01  -0.1135958665E-01   0.1098252221E-03   0.3637696286E-01   0.8313072132E-04   0.1143791327E-03
   0.1986616321E+01  -0.8478112248E+00  -0.1130852020E-03   0.8542010532E-02  -0.9291797527E-03  -0.1130852020E-03   0.0000000000E+00   0.0000000000E+00   0.0000000000E+00   0.9789888793E-01  -0.8962587231E-02  -0.7703585542E-05   0.3365200804E-01   0.6959422841E-04  -0.3951889798E-03
   0.1986614129E+01  -0.8477942289E+00   0.1997980735E+00   0.8539818968E-02  -0.9121838617E-03  -0.2019295239E-03   0.0000000000E+00   0.0000000000E+00   0.0000000000E+00   0.9761444834E-01  -0.8649910005E-02  -0.1358486632E-04   0.3173109044E-01   0.7957476680E-05   0.1234273596E-03
   0.2176747630E+01  -0.8530616542E+00  -0.1096683909E-03   0.8730240372E-02  -0.8746172420E-03  -0.1096683909E-03   0.0000000000E+00   0.0000000000E+00   0.0000000000E+00   0.9652725562E-01  -0.6351477252E-02   0.6393289972E-05   0.2839277732E-01   0.5611350337E-04  -0.2994391338E-03
   0.2176745078E+01  -0.8530494572E+00   0.1998001698E+00   0.8727687856E-02  -0.8624202194E-03  -0.1998332389E-03   0.0000000000E+00   0.0000000000E+00   0.0000000000E+00   0.9649736938E-01  -0.6228314128E-02   0.2142044145E-04   0.2697360744E-01  -0.1503523253E-04   0.8587082281E-04
   0.2366803486E+01  -0.8581885176E+00  -0.1063701053E-03   0.8914785803E-02  -0.8235055508E-03  -0.1063701053E-03   0.0000000000E+00   0.0000000000E+00   0.0000000000E+00   0.9573881305E-01  -0.4262083621E-02   0.7777641769E-06   0.2341911720E-01   0.5229718500E-04  -0.2065455618E-03
   0.2366801071E+01  -0.8581797619E+00   0.1998021444E+00   0.8912371212E-02  -0.8147499172E-03  -0.1978586084E-03   0.0000000000E+00   0.0000000000E+00   0.0000000000E+00   0.9580466908E-01  -0.4295301218E-02  -0.1108039114E-04   0.2237337133E-01  -0.2363081340E-04   0.6793504973E-04
   0.2556862487E+01  -0.8632364275E+00  -0.1034668264E-03   0.9097236633E-02  -0.7783174583E-03  -0.1034668264E-03   0.0000000000E+00   0.0000000000E+00   0.0000000000E+00   0.9529095888E-01  -0.2674148914E-02  -0.1125806112E-04   0.1878184502E-01   0.4924092992E-04  -0.1497171037E-03
   0.2556860394E+01  -0.8632302499E+00   0.1998038875E+00   0.9095143743E-02  -0.7721399458E-03  -0.1961154859E-03   0.0000000000E+00   0.0000000000E+00   0.0000000000E+00   0.9540787466E-01  -0.2753065957E-02  -0.1859016273E-04   0.1802410375E-01  -0.1910076798E-04   0.4447517834E-04
   0.2747054336E+01  -0.8681676153E+00  -0.1010404444E-03   0.9278295591E-02  -0.7400273494E-03  -0.1010404444E-03   0.0000000000E+00   0.0000000000E+00   0.0000000000E+00   0.9507147563E-01  -0.1449440377E-02   0.6888718959E-05   0.1451760176E-01   0.3838065288E-04  -0.1013596052E-03
   0.2747052640E+01  -0.8681632338E+00   0.1998053165E+00   0.9276599761E-02  -0.7356458466E-03  -0.1946865241E-03   0.0000000000E+00   0.0000000000E+00   0.0000000000E+00   0.9520831400E-01  -0.1564385812E-02   0.5308933821E-05   0.1397750002E-01  -0.1711912816E-04   0.3326827349E-04
   0.2937423491E+01  -0.8727863033E+00  -0.9919557220E-04   0.9458801121E-02  -0.7096722502E-03  -0.9919557220E-04   0.0000000000E+00   0.0000000000E+00   0.0000000000E+00   0.9494328111E-01  -0.5852449843E-03  -0.7973960190E-05   0.1057166481E-01   0.2838172508E-04  -0.7718497740E-04
   0.2937422225E+01  -0.8727832269E+00   0.1998064242E+00   0.9457535217E-02  -0.7065959095E-03  -0.1935787736E-03   0.0000000000E+00   0.0000000000E+00   0.0000000000E+00   0.9508644736E-01  -0.7142081884E-03  -0.1289569266E-04   0.1020202003E-01  -0.1204790096E-04   0.1997590943E-04
   0.3128018641E+01  -0.8767293969E+00  -0.9786684848E-04   0.9639050510E-02  -0.6874479200E-03  -0.9786684848E-04   0.0000000000E+00   0.0000000000E+00   0.0000000000E+00   0.9488619467E-01   0.2921436685E-04   0.6515396912E-05   0.6936796497E-02   0.2134236813E-04  -0.5158907020E-04
   0.3128017797E+01  -0.8767271431E+00   0.1998072061E+00   0.9638207095E-02  -0.6851941488E-03  -0.1927969234E-03   0.0000000000E+00   0.0000000000E+00   0.0000000000E+00   0.9503081762E-01  -0.1089580493E-03   0.7677063671E-05   0.6705165395E-02  -0.6661407440E-05   0.1643487477E-04
   0.3318883815E+01  -0.8795420694E+00  -0.9709467226E-04   0.9819425469E-02  -0.6739664152E-03  -0.9709467226E-04   0.0000000000E+00   0.0000000000E+00   0.0000000000E+00   0.9485677481E-01   0.3624821306E-03  -0.6567223338E-05   0.3292276243E-02   0.2406599137E-05  -0.4471175872E-04
   0.3318883397E+01  -0.8795403139E+00   0.1998076754E+00   0.9819006710E-02  -0.6722109275E-03  -0.1923275739E-03   0.0000000000E+00   0.0000000000E+00   0.0000000000E+00   0.9500267207E-01   0.2212250510E-03  -0.1010158999E-04   0.3183996340E-02  -0.7151626192E-05   0.1124456691E-04
   0.3510000000E+01  -0.8813352416E+00  -0.9681033602E-04   0.1000000000E-01  -0.6689855947E-03  -0.9681033602E-04   0.0000000000E+00   0.0000000000E+00   0.0000000000E+00   0.9485893820E-01   0.4773847520E-03   0.7584770437E-05   0.4293059800E-03   0.2960119007E-04  -0.3647329589E-04
   0.3510000000E+01  -0.8813336225E+00   0.1998078354E+00   0.1000000000E-01  -0.6673665037E-03  -0.1921676179E-03   0.0000000000E+00   0.0000000000E+00   0.0000000000E+00   0.9500586342E-01   0.3361601586E-03   0.1048334453E-04   0.4191086635E-03   0.1476830090E-04   0.1205796882E-04
   0.9515711315E+00  -0.1032702736E+01   0.4008305017E-04   0.6977105501E-02  -0.7945857848E-03   0.4008305017E-04   0.0000000000E+00   0.0000000000E+00   0.0000000000E+00   0.1587294768E+00  -0.1026805191E-01  -0.9277723760E-03   0.3110402182E-01  -0.2952472185E-02  -0.2234866581E-03
   0.9516271818E+00  -0.1032664446E+01   0.1998927991E+00   0.7033155755E-02  -0.7562957691E-03  -0.1072039309E-03   0.0000000000E+00   0.0000000000E+00   0.0000000000E+00   0.1524443567E+00  -0.2346655915E-02  -0.1288406153E-02   0.3229720080E-01  -0.1482411428E-02   0.5335566048E-03
   0.1159291634E+01  -0.1040615190E+01  -0.1924547112E-04   0.7293713603E-02  -0.8661595710E-03  -0.1924547112E-04   0.0000000000E+00   0.0000000000E+00   0.0000000000E+00   0.1443329476E+00  -0.1720070840E-01   0.2362292798E-03   0.3635160329E-01  -0.5884456262E-03  -0.1201709804E-02
   0.1159328087E+01  -0.1040577531E+01   0.1998543440E+00   0.7330167074E-02  -0.8285014178E-03  -0.1456590395E-03   0.0000000000E+00   0.0000000000E+00   0.0000000000E+00   0.1383213516E+00  -0.1237560926E-01   0.1192819925E-03   0.3555810093E-01  -0.1608534937E-03   0.4497471015E-04
   0.1356927487E+01  -0.1046463400E+01  -0.5414210359E-04   0.7581927082E-02  -0.8881398108E-03  -0.5414210359E-04   0.0000000000E+00   0.0000000000E+00   0.0000000000E+00   0.1343675008E+00  -0.2099749094E-01  -0.1054002350E-03   0.3737096471E-01  -0.6931715535E-03  -0.7409593495E-03
   0.1356949497E+01  -0.1046429778E+01   0.1998332828E+00   0.7603936975E-02  -0.8545183389E-03  -0.1667202206E-03   0.0000000000E+00   0.0000000000E+00   0.0000000000E+00   0.1305878682E+00  -0.1723473620E-01   0.8482319064E-04   0.3549673222E-01   0.1093102470E-03   0.1350016151E-03
   0.1552152097E+01  -0.1052191271E+01  -0.7363213127E-04   0.7848917145E-02  -0.8769209534E-03  -0.7363213127E-04   0.0000000000E+00   0.0000000000E+00   0.0000000000E+00   0.1254575974E+00  -0.1981602214E-01   0.6102270478E-04   0.3681425439E-01  -0.2007847803E-03  -0.7104452348E-03
   0.1552165165E+01  -0.1052164113E+01   0.1998214006E+00   0.7861985014E-02  -0.8497629335E-03  -0.1786023849E-03   0.0000000000E+00   0.0000000000E+00   0.0000000000E+00   0.1228137536E+00  -0.1764145449E-01   0.8670345048E-04   0.3472408553E-01   0.1482229844E-03   0.1298187530E-03
   0.1747308738E+01  -0.1058070657E+01  -0.8452540732E-04   0.8099447534E-02  -0.8438765544E-03  -0.8452540732E-04   0.0000000000E+00   0.0000000000E+00   0.0000000000E+00   0.1184056397E+00  -0.1764595750E-01  -0.5701698704E-05   0.3426429870E-01  -0.1823379171E-03  -0.4824874863E-03
   0.1747315912E+01  -0.1058049315E+01   0.1998151101E+00   0.8106621838E-02  -0.8225348319E-03  -0.1848928535E-03   0.0000000000E+00   0.0000000000E+00   0.0000000000E+00   0.1169298326E+00  -0.1612561819E-01   0.1020078150E-03   0.3239207171E-01   0.1096843467E-03   0.1502707169E-03
   0.1942780171E+01  -0.1063973350E+01  -0.9023974731E-04   0.8336460730E-02  -0.8000602319E-03  -0.9023974731E-04   0.0000000000E+00   0.0000000000E+00   0.0000000000E+00   0.1130738373E+00  -0.1477511620E-01   0.3047213302E-04   0.3059370497E-01  -0.6623646085E-04  -0.3917763234E-03
   0.1942784121E+01  -0.1063957291E+01   0.1998117107E+00   0.8340411270E-02  -0.7840007959E-03  -0.1882922512E-03   0.0000000000E+00   0.0000000000E+00   0.0000000000E+00   0.1121669727E+00  -0.1392856483E-01   0.3851963158E-04   0.2902512428E-01   0.4976007074E-04   0.1201107081E-03
   0.2138444327E+01  -0.1069823572E+01  -0.9318759444E-04   0.8562707375E-02  -0.7522819573E-03  -0.9318759444E-04   0.0000000000E+00   0.0000000000E+00   0.0000000000E+00   0.1090476774E+00  -0.1214012013E-01   0.1016085881E-05   0.2639012736E-01  -0.5861303578E-04  -0.2672818469E-03
   0.2138446285E+01  -0.1069811577E+01   0.1998100284E+00   0.8564664918E-02  -0.7402869938E-03  -0.1899746288E-03   0.0000000000E+00   0.0000000000E+00   0.0000000000E+00   0.1085597647E+00  -0.1157643263E-01   0.3388693095E-04   0.2516565497E-01   0.2079542616E-04   0.1002608722E-03
   0.2334130802E+01  -0.1075614337E+01  -0.9449082634E-04   0.8780521535E-02  -0.7058474847E-03  -0.9449082634E-04   0.0000000000E+00   0.0000000000E+00   0.0000000000E+00   0.1060824576E+00  -0.9731884036E-02   0.9096354548E-05   0.2205921473E-01  -0.1563536182E-04  -0.2103185917E-03
   0.2334131733E+01  -0.1075605601E+01   0.1998092339E+00   0.8781452611E-02  -0.6971111342E-03  -0.1907691114E-03   0.0000000000E+00   0.0000000000E+00   0.0000000000E+00   0.1057904582E+00  -0.9429354127E-02   0.6048467678E-05   0.2111783570E-01   0.3723290450E-05   0.6887000360E-04
   0.2529845497E+01  -0.1081342869E+01  -0.9494297620E-04   0.8991737110E-02  -0.6634486940E-03  -0.9494297620E-04   0.0000000000E+00   0.0000000000E+00   0.0000000000E+00   0.1038724212E+00  -0.7732180276E-02   0.1065341647E-04   0.1784904806E-01  -0.1562346910E-04  -0.1462451278E-03
   0.2529845810E+01  -0.1081336506E+01   0.1998089673E+00   0.8992049754E-02  -0.6570862874E-03  -0.1910356847E-03   0.0000000000E+00   0.0000000000E+00   0.0000000000E+00   0.1037234788E+00  -0.7547056657E-02   0.2365792227E-04   0.1715179281E-01  -0.9018346795E-06   0.5233182389E-04
   0.2725592593E+01  -0.1086939737E+01  -0.9496393805E-04   0.9198172932E-02  -0.6272065566E-03  -0.9496393805E-04   0.0000000000E+00   0.0000000000E+00   0.0000000000E+00   0.1022360007E+00  -0.6115163096E-02  -0.2544163301E-05   0.1386003645E-01   0.6914234037E-06  -0.1110735212E-03
   0.2725592636E+01  -0.1086935169E+01   0.1998089535E+00   0.9198215892E-02  -0.6226391814E-03  -0.1910494901E-03   0.0000000000E+00   0.0000000000E+00   0.0000000000E+00   0.1021566732E+00  -0.6030808268E-02  -0.7618198350E-05   0.1335424267E-01  -0.2024669678E-05   0.3491883394E-04
   0.2921406922E+01  -0.1092232657E+01  -0.9477980003E-04   0.9401022293E-02  -0.5979065233E-03  -0.9477980003E-04   0.0000000000E+00   0.0000000000E+00   0.0000000000E+00   0.1010740501E+00  -0.4869137053E-02   0.9286915729E-05   0.1011340476E-01  -0.9349880680E-06  -0.7624277219E-04
   0.2921406828E+01  -0.1092229314E+01   0.1998090562E+00   0.9400928212E-02  -0.5945640213E-03  -0.1909468337E-03   0.0000000000E+00   0.0000000000E+00   0.0000000000E+00   0.1010507187E+00  -0.4829120333E-02   0.1751871507E-04   0.9766143028E-02  -0.2897021601E-05   0.2694990359E-04
   0.3117351087E+01  -0.1096898503E+01  -0.9458746645E-04   0.9601626846E-02  -0.5764431482E-03  -0.9458746645E-04   0.0000000000E+00   0.0000000000E+00   0.0000000000E+00   0.1002814750E+00  -0.4005236628E-02  -0.5090802882E-05   0.6632584196E-02   0.2126349544E-05  -0.6167188956E-04
   0.3117350987E+01  -0.1096896007E+01   0.1998091755E+00   0.9601526696E-02  -0.5739468654E-03  -0.1908275309E-03   0.0000000000E+00   0.0000000000E+00   0.0000000000E+00   0.1002825639E+00  -0.4006753185E-02  -0.8892945924E-05   0.6412943746E-02  -0.1789308469E-05   0.1803202134E-04
   0.3313513081E+01  -0.1100470785E+01  -0.9442328964E-04   0.9800951072E-02  -0.5630251944E-03  -0.9442328964E-04   0.0000000000E+00   0.0000000000E+00   0.0000000000E+00   0.9984353318E-01  -0.3484774257E-02   0.5931923712E-05   0.3163703809E-02   0.7278188663E-06  -0.4619471340E-04
   0.3313513015E+01  -0.1100468743E+01   0.1998092682E+00   0.9800884725E-02  -0.5609831714E-03  -0.1907348486E-03   0.0000000000E+00   0.0000000000E+00   0.0000000000E+00   0.9986351235E-01  -0.3499383816E-02   0.1086735209E-04   0.3064207359E-02  -0.1480721653E-05   0.1606473230E-04
   0.3510000000E+01  -0.1102439108E+01  -0.9436577980E-04   0.1000000000E-01  -0.5581978197E-03  -0.9436577980E-04   0.0000000000E+00   0.0000000000E+00   0.0000000000E+00   0.9969329019E-01  -0.3331365582E-02  -0.4898700809E-05   0.3606209964E-03   0.1898143084E-05  -0.4644447038E-04
   0.3510000000E+01  -0.1102437234E+01   0.1998093067E+00   0.1000000000E-01  -0.5563240168E-03  -0.1906963453E-03   0.0000000000E+00   0.0000000000E+00   0.0000000000E+00   0.9971640050E-01  -0.3355337851E-02  -0.7717658284E-05   0.3409901264E-03   0.2431632620E-05   0.1330160442E-04
   0.3309296070E+01  -0.1323138964E+01  -0.9165426270E-04   0.9784160295E-02  -0.4377436499E-03  -0.9165426270E-04   0.0000000000E+00   0.0000000000E+00   0.0000000000E+00   0.1044412859E+00  -0.6924746069E-02  -0.8761608386E-05   0.2692237191E-02  -0.3008790006E-05  -0.4527774105E-04
   0.3510000000E+01  -0.1324969245E+01  -0.9177689954E-04   0.1000000000E-01  -0.4333948306E-03  -0.9177689954E-04   0.0000000000E+00   0.0000000000E+00   0.0000000000E+00   0.1041698589E+00  -0.6695697240E-02   0.8261847416E-05   0.3222816992E-03  -0.9954064126E-05  -0.3903038547E-04
   0.3309296335E+01  -0.1323137054E+01   0.1998109327E+00   0.9784425391E-02  -0.4358341977E-03  -0.1890703321E-03   0.0000000000E+00   0.0000000000E+00   0.0000000000E+00   0.1043456774E+00  -0.6837500909E-02  -0.1249203380E-04   0.2606413234E-02   0.4494250616E-05   0.1536316295E-04
   0.3510000000E+01  -0.1324967458E+01   0.1998108485E+00   0.1000000000E-01  -0.4316082808E-03  -0.1891545246E-03   0.0000000000E+00   0.0000000000E+00   0.0000000000E+00   0.1040867081E+00  -0.6614091038E-02   0.1517620423E-04   0.3132115128E-03  -0.8989231129E-05   0.1534915792E-04
   0.3306328423E+01  -0.1547647344E+01  -0.8923094186E-04   0.9770763342E-02  -0.2996836434E-03  -0.8923094186E-04   0.0000000000E+00   0.0000000000E+00   0.0000000000E+00   0.1081675057E+00  -0.9610118424E-02   0.7772749164E-05   0.1982134017E-02  -0.3148904922E-05  -0.3736524785E-04
   0.3510000000E+01  -0.1548985060E+01  -0.8956358377E-04   0.1000000000E-01  -0.2965299055E-03  -0.8956358377E-04   0.0000000000E+00   0.0000000000E+00   0.0000000000E+00   0.1077614684E+00  -0.9361426209E-02  -0.8616838662E-05   0.2129562330E-03  -0.3478843616E-04  -0.3617832915E-04
   0.3306328948E+01  -0.1547645866E+01   0.1998123715E+00   0.9771287906E-02  -0.2982064153E-03  -0.1876315272E-03   0.0000000000E+00   0.0000000000E+00   0.0000000000E+00   0.1079864845E+00  -0.9437833221E-02   0.1586407761E-04   0.1921444086E-02   0.8746916465E-05   0.1012874834E-04
   0.3510000000E+01  -0.1548983691E+01   0.1998121815E+00   0.1000000000E-01  -0.2951607078E-03  -0.1878215019E-03   0.0000000000E+00   0.0000000000E+00   0.0000000000E+00   0.1075915092E+00  -0.9205133536E-02  -0.1105762689E-04   0.2014932501E-03  -0.1812050077E-04   0.8645068463E-05
   0.3304543579E+01  -0.1773481830E+01  -0.8762370192E-04   0.9762129277E-02  -0.1523297523E-03  -0.8762370192E-04   0.0000000000E+00   0.0000000000E+00   0.0000000000E+00   0.1105651831E+00  -0.1134673251E-01  -0.9938555509E-05   0.9782322123E-03  -0.6635092417E-05  -0.4663708725E-05
   0.3510000000E+01  -0.1774160943E+01  -0.8804364839E-04   0.1000000000E-01  -0.1506430908E-03  -0.8804364839E-04   0.0000000000E+00   0.0000000000E+00   0.0000000000E+00   0.1101054202E+00  -0.1104180442E-01   0.8462235949E-05   0.1190095444E-03  -0.3520920095E-04  -0.5455044503E-05
   0.3304544279E+01  -0.1773481034E+01   0.1998133420E+00   0.9762829334E-02  -0.1515343333E-03  -0.1866609655E-03   0.0000000000E+00   0.0000000000E+00   0.0000000000E+00   0.1103258975E+00  -0.1112691690E-01  -0.1218428653E-04   0.9469851096E-03   0.1213875491E-04   0.1420579844E-04
   0.3510000000E+01  -0.1774160197E+01   0.1998130800E+00   0.1000000000E-01  -0.1498967459E-03  -0.1869230289E-03   0.0000000000E+00   0.0000000000E+00   0.0000000000E+00   0.1098844063E+00  -0.1083225761E-01   0.1783307187E-04   0.1154624787E-03  -0.2418030405E-04   0.1371619931E-04
   0.3303420822E+01  -0.2000000000E+01  -0.8703254374E-04   0.9758511874E-02   0.0000000000E+00  -0.8703254374E-04   0.0000000000E+00   0.0000000000E+00   0.0000000000E+00   0.1114102256E+00  -0.1192407898E-01   0.8491132245E-05   0.2020220000E-03  -0.4834443076E-05  -0.5403010938E-04
   0.3510000000E+01  -0.2000000000E+01  -0.8753256228E-04   0.1000000000E-01   0.0000000000E+00  -0.8753256228E-04   0.0000000000E+00   0.0000000000E+00   0.0000000000E+00   0.1109001261E+00  -0.1163706938E-01  -0.9938139991E-05  -0.2400536382E-07  -0.4911785696E-04  -0.4190883488E-04
   0.3303421577E+01  -0.2000000000E+01   0.1998136846E+00   0.9759267358E-02   0.0000000000E+00  -0.1863183888E-03   0.0000000000E+00   0.0000000000E+00   0.0000000000E+00   0.1111547192E+00  -0.1168271647E-01   0.1834340029E-04   0.1984798552E-03   0.1271779017E-04  -0.2961919802E-04
   0.3510000000E+01  -0.2000000000E+01   0.1998133963E+00   0.1000000000E-01   0.0000000000E+00  -0.1866067107E-03   0.0000000000E+00   0.0000000000E+00   0.0000000000E+00   0.1106582737E+00  -0.1141492637E-01  -0.1203312766E-04  -0.3209706549E-07  -0.2624405588E-04  -0.2774503539E-04
   0.3108942560E+01  -0.1319923966E+01  -0.9116283191E-04   0.9567310276E-02  -0.4492661054E-03  -0.9116283191E-04   0.0000000000E+00   0.0000000000E+00   0.0000000000E+00   0.1053084945E+00  -0.7576273008E-02   0.7976167908E-05   0.5654231600E-02  -0.1549685375E-04  -0.5068070983E-04
   0.3108943136E+01  -0.1319921634E+01   0.1998112176E+00   0.9567885958E-02  -0.4469339369E-03  -0.1887853685E-03   0.0000000000E+00   0.0000000000E+00   0.0000000000E+00   0.1051852332E+00  -0.7455756175E-02   0.1500320367E-04   0.5470989449E-02   0.2723400787E-05   0.2033146252E-04
   0.3102994495E+01  -0.1545305398E+01  -0.8823470184E-04   0.9539894935E-02  -0.3081777283E-03  -0.8823470184E-04   0.0000000000E+00   0.0000000000E+00   0.0000000000E+00   0.1093542932E+00  -0.1040655625E-01  -0.9969734802E-05   0.4144494236E-02  -0.2863102065E-04  -0.4707756747E-04
   0.3102995631E+01  -0.1545303627E+01   0.1998129782E+00   0.9541031022E-02  -0.3064070940E-03  -0.1870248055E-03   0.0000000000E+00   0.0000000000E+00   0.0000000000E+00   0.1091296375E+00  -0.1019965384E-01  -0.1297586713E-04   0.4011158186E-02   0.7527448182E-05   0.1121173146E-04
   0.3099414737E+01  -0.1772288081E+01  -0.8623000408E-04   0.9522107251E-02  -0.1567609022E-03  -0.8623000408E-04   0.0000000000E+00   0.0000000000E+00   0.0000000000E+00   0.1119959514E+00  -0.1219067195E-01   0.9303100553E-05   0.2055995866E-02  -0.3857736869E-04  -0.6954292278E-05
   0.3099416221E+01  -0.1772287121E+01   0.1998141643E+00   0.9523590856E-02  -0.1558011977E-03  -0.1858386980E-03   0.0000000000E+00   0.0000000000E+00   0.0000000000E+00   0.1117125331E+00  -0.1192236115E-01   0.2003281917E-04   0.1990710128E-02   0.9023906200E-05   0.1755243199E-04
   0.3097150962E+01  -0.2000000000E+01  -0.8554556877E-04   0.9514731630E-02   0.0000000000E+00  -0.8554556877E-04   0.0000000000E+00   0.0000000000E+00   0.0000000000E+00   0.1128983735E+00  -0.1282129678E-01  -0.1161369522E-04   0.3989621811E-03  -0.4054117406E-04  -0.5388027730E-04
   0.3097152582E+01  -0.2000000000E+01   0.1998145868E+00   0.9516351957E-02   0.0000000000E+00  -0.1854162412E-03   0.0000000000E+00   0.0000000000E+00   0.0000000000E+00   0.1125903221E+00  -0.1253854449E-01  -0.1421080739E-04   0.3866077651E-03   0.1094306082E-04  -0.3545209797E-04
   0.2908803383E+01  -0.1315777786E+01  -0.9027143739E-04   0.9347833267E-02  -0.4677863091E-03  -0.9027143739E-04   0.0000000000E+00   0.0000000000E+00   0.0000000000E+00   0.1067738177E+00  -0.8693274769E-02  -0.9709521555E-05   0.8607846359E-02  -0.2279253901E-04  -0.7000608225E-04
   0.2908804403E+01  -0.1315774751E+01   0.1998117634E+00   0.9348853096E-02  -0.4647513568E-03  -0.1882395821E-03   0.0000000000E+00   0.0000000000E+00   0.0000000000E+00   0.1065938220E+00  -0.8522880997E-02  -0.1398108798E-04   0.8316848519E-02   0.7422369221E-05   0.2535360886E-04
   0.2899868775E+01  -0.1542283521E+01  -0.8636024735E-04   0.9305045071E-02  -0.3216109954E-03  -0.8636024735E-04   0.0000000000E+00   0.0000000000E+00   0.0000000000E+00   0.1113966540E+00  -0.1166660072E-01   0.8278159816E-05   0.6306171748E-02  -0.4536085061E-04  -0.5927368330E-04
   0.2899870668E+01  -0.1542281216E+01   0.1998140905E+00   0.9306937692E-02  -0.3193055640E-03  -0.1859125246E-03   0.0000000000E+00   0.0000000000E+00   0.0000000000E+00   0.1111041505E+00  -0.1138787157E-01   0.1785538961E-04   0.6097720862E-02   0.1340408048E-04   0.1555531139E-04
   0.2894493145E+01  -0.1770740078E+01  -0.8375696603E-04   0.9277384543E-02  -0.1638379505E-03  -0.8375696603E-04   0.0000000000E+00   0.0000000000E+00   0.0000000000E+00   0.1143700373E+00  -0.1357873652E-01  -0.1014822417E-04   0.3111268337E-02  -0.5709968206E-04  -0.7462945211E-05
   0.2894495624E+01  -0.1770738846E+01   0.1998156558E+00   0.9279864131E-02  -0.1626060837E-03  -0.1843471802E-03   0.0000000000E+00   0.0000000000E+00   0.0000000000E+00   0.1140030309E+00  -0.1323818301E-01  -0.1135580613E-04   0.3006618128E-02   0.1929196182E-04   0.2199214599E-04
   0.2891074306E+01  -0.2000000000E+01  -0.8280163081E-04   0.9265785718E-02   0.0000000000E+00  -0.8280163081E-04   0.0000000000E+00   0.0000000000E+00   0.0000000000E+00   0.1154266718E+00  -0.1421177754E-01   0.7400144129E-05   0.6428971111E-03  -0.6313378869E-04  -0.7954750130E-04
   0.2891076974E+01  -0.2000000000E+01   0.1998162189E+00   0.9268453964E-02   0.0000000000E+00  -0.1837840905E-03   0.0000000000E+00   0.0000000000E+00   0.0000000000E+00   0.1150368901E+00  -0.1384557131E-01   0.1809070217E-04   0.6312684323E-03   0.1954319852E-04  -0.4540516018E-04
   0.2708786785E+01  -0.1311076241E+01  -0.8873123306E-04   0.9123865421E-02  -0.4926513441E-03  -0.8873123306E-04   0.0000000000E+00   0.0000000000E+00   0.0000000000E+00   0.1089255414E+00  -0.1019938421E-01   0.7665507293E-05   0.1176254237E-01  -0.4105726862E-04  -0.8954290670E-04
   0.2708788418E+01  -0.1311072116E+01   0.1998126781E+00   0.9125497779E-02  -0.4885264129E-03  -0.1873248603E-03   0.0000000000E+00   0.0000000000E+00   0.0000000000E+00   0.1086651505E+00  -0.9943053624E-02   0.1568665262E-04   0.1134551914E-01   0.1001922818E-04   0.3607170044E-04
   0.2696861879E+01  -0.1538845133E+01  -0.8341809338E-04   0.9064098636E-02  -0.3397030521E-03  -0.8341809338E-04   0.0000000000E+00   0.0000000000E+00   0.0000000000E+00   0.1142859094E+00  -0.1337864645E-01  -0.1247128019E-04   0.8583938238E-02  -0.6829678318E-04  -0.8249651376E-04
   0.2696864817E+01  -0.1538842059E+01   0.1998158659E+00   0.9067037454E-02  -0.3366285012E-03  -0.1841371168E-03   0.0000000000E+00   0.0000000000E+00   0.0000000000E+00   0.1138836283E+00  -0.1300188837E-01  -0.1586272702E-04   0.8285763421E-02   0.2173020266E-04   0.1907989797E-04
   0.2689692644E+01  -0.1768969698E+01  -0.7981296552E-04   0.9025243520E-02  -0.1732579111E-03  -0.7981296552E-04   0.0000000000E+00   0.0000000000E+00   0.0000000000E+00   0.1177610410E+00  -0.1535499793E-01   0.1228311067E-04   0.4227078227E-02  -0.9169504415E-04  -0.1166090052E-04
   0.2689696388E+01  -0.1768968052E+01   0.1998180042E+00   0.9028988141E-02  -0.1716115833E-03  -0.1819987755E-03   0.0000000000E+00   0.0000000000E+00   0.0000000000E+00   0.1172799950E+00  -0.1489612184E-01   0.2744603287E-04   0.4082511898E-02   0.2558960353E-04   0.2967257244E-04
   0.2685109158E+01  -0.2000000000E+01  -0.7854841339E-04   0.9009138305E-02   0.0000000000E+00  -0.7854841339E-04   0.0000000000E+00   0.0000000000E+00   0.0000000000E+00   0.1189625819E+00  -0.1604548021E-01  -0.1644977875E-04   0.8646751908E-03  -0.9468963172E-04  -0.9239345244E-04
   0.2685113221E+01  -0.2000000000E+01   0.1998187819E+00   0.9013201205E-02   0.0000000000E+00  -0.1812211475E-03   0.0000000000E+00   0.0000000000E+00   0.0000000000E+00   0.1184469723E+00  -0.1556901706E-01  -0.2103390913E-04   0.8376162562E-03   0.2982128170E-04  -0.6016171615E-04
   0.2508832728E+01  -0.1306079870E+01  -0.8631804383E-04   0.8893768296E-02  -0.5233304380E-03  -0.8631804383E-04   0.0000000000E+00   0.0000000000E+00   0.0000000000E+00   0.1117948941E+00  -0.1209860944E-01  -0.1104798113E-04   0.1505080418E-01  -0.5879416730E-04  -0.1279457253E-03
   0.2508835307E+01  -0.1306074267E+01   0.1998141373E+00   0.8896346827E-02  -0.5177274100E-03  -0.1858657200E-03   0.0000000000E+00   0.0000000000E+00   0.0000000000E+00   0.1114055194E+00  -0.1172241395E-01  -0.1536506499E-04   0.1448197115E-01   0.1868670313E-04   0.4691636472E-04
   0.2493916081E+01  -0.1535173976E+01  -0.7893262875E-04   0.8814620856E-02  -0.3616464762E-03  -0.7893262875E-04   0.0000000000E+00   0.0000000000E+00   0.0000000000E+00   0.1181192624E+00  -0.1537574566E-01   0.8393331416E-05   0.1092337191E-01  -0.1052168862E-03  -0.1086985605E-03
   0.2493920406E+01  -0.1535169817E+01   0.1998185419E+00   0.8818945973E-02  -0.3574865334E-03  -0.1814611428E-03   0.0000000000E+00   0.0000000000E+00   0.0000000000E+00   0.1175715567E+00  -0.1485106275E-01   0.2086825530E-04   0.1052786831E-01   0.2943563352E-04   0.2645040897E-04
   0.2484956403E+01  -0.1767070695E+01  -0.7402502058E-04   0.8763452741E-02  -0.1846951077E-03  -0.7402502058E-04   0.0000000000E+00   0.0000000000E+00   0.0000000000E+00   0.1221300375E+00  -0.1741619235E-01  -0.1009346674E-04   0.5327668326E-02  -0.1292207730E-03  -0.1469654474E-04
   0.2484961875E+01  -0.1767068500E+01   0.1998214845E+00   0.8768924954E-02  -0.1824997873E-03  -0.1785184868E-03   0.0000000000E+00   0.0000000000E+00   0.0000000000E+00   0.1214871882E+00  -0.1680982388E-01  -0.1018548277E-04   0.5132943544E-02   0.3906582210E-04   0.3803381511E-04
   0.2479201265E+01  -0.2000000000E+01  -0.7221517510E-04   0.8742044531E-02   0.0000000000E+00  -0.7221517510E-04   0.0000000000E+00   0.0000000000E+00   0.0000000000E+00   0.1235609936E+00  -0.1807450382E-01   0.5874484455E-05   0.1173937008E-02  -0.1416642284E-03  -0.1356761511E-03
   0.2479207112E+01  -0.2000000000E+01   0.1998225661E+00   0.8747891781E-02   0.0000000000E+00  -0.1774368857E-03   0.0000000000E+00   0.0000000000E+00   0.0000000000E+00   0.1228874108E+00  -0.1743597259E-01   0.1860032217E-04   0.1152605203E-02   0.3911380599E-04  -0.8032787996E-04
   0.2308907598E+01  -0.1300939645E+01  -0.8252385227E-04   0.8655398078E-02  -0.5583446629E-03  -0.8252385227E-04   0.0000000000E+00   0.0000000000E+00   0.0000000000E+00   0.1155285642E+00  -0.1426123510E-01   0.5206575218E-05   0.1841350532E-01  -0.9578089917E-04  -0.1657503461E-03
   0.2308911523E+01  -0.1300932025E+01   0.1998164016E+00   0.8659323452E-02  -0.5507253582E-03  -0.1836014369E-03   0.0000000000E+00   0.0000000000E+00   0.0000000000E+00   0.1149598553E+00  -0.1370572687E-01   0.1677505604E-04   0.1767580278E-01   0.2785284589E-04   0.6518312770E-04
   0.2290997774E+01  -0.1531382560E+01  -0.7242871996E-04   0.8554724260E-02  -0.3864796542E-03  -0.7242871996E-04   0.0000000000E+00   0.0000000000E+00   0.0000000000E+00   0.1228831409E+00  -0.1753399689E-01  -0.1597842298E-04   0.1321895386E-01  -0.1474318287E-03  -0.1512436899E-03
   0.2291004058E+01  -0.1531377023E+01   0.1998224532E+00   0.8561008276E-02  -0.3809433499E-03  -0.1775497682E-03   0.0000000000E+00   0.0000000000E+00   0.0000000000E+00   0.1221308022E+00  -0.1682081034E-01  -0.1974500456E-04   0.1271573921E-01   0.4610578238E-04   0.3090420935E-04
   0.2280249032E+01  -0.1765101894E+01  -0.6568364217E-04   0.8489522173E-02  -0.1973940741E-03  -0.6568364217E-04   0.0000000000E+00   0.0000000000E+00   0.0000000000E+00   0.1275154188E+00  -0.1943842695E-01   0.1846030559E-04   0.6395141350E-02  -0.1883604853E-03  -0.2133475204E-04
   0.2280256719E+01  -0.1765098980E+01   0.1998264679E+00   0.8497209211E-02  -0.1944801111E-03  -0.1735351232E-03   0.0000000000E+00   0.0000000000E+00   0.0000000000E+00   0.1266782090E+00  -0.1862573827E-01   0.4224249185E-04   0.6160381352E-02   0.5043715601E-04   0.4991076845E-04
   0.2273317738E+01  -0.2000000000E+01  -0.6326067900E-04   0.8462587973E-02   0.0000000000E+00  -0.6326067900E-04   0.0000000000E+00   0.0000000000E+00   0.0000000000E+00   0.1291163489E+00  -0.2007788486E-01  -0.2441911488E-04   0.1425694564E-02  -0.1952225027E-03  -0.1634855421E-03
   0.2273325985E+01  -0.2000000000E+01   0.1998279545E+00   0.8470834615E-02   0.0000000000E+00  -0.1720484775E-03   0.0000000000E+00   0.0000000000E+00   0.0000000000E+00   0.1282380617E+00  -0.1925364325E-01  -0.3540721886E-04   0.1381602502E-02   0.5658131630E-04  -0.1055218114E-03
   0.2108999180E+01  -0.1295729835E+01  -0.7675866545E-04   0.8407039844E-02  -0.5958846397E-03  -0.7675866545E-04   0.0000000000E+00   0.0000000000E+00   0.0000000000E+00   0.1202093879E+00  -0.1658248726E-01  -0.1126593956E-04   0.2165207230E-01  -0.1371079036E-03  -0.2373740481E-03
   0.2109005163E+01  -0.1295719701E+01   0.1998198557E+00   0.8413023308E-02  -0.5857512430E-03  -0.1801473426E-03   0.0000000000E+00   0.0000000000E+00   0.0000000000E+00   0.1193643075E+00  -0.1577606500E-01  -0.1166045484E-04   0.2072561098E-01   0.5065588039E-04   0.8016069159E-04
   0.2088089149E+01  -0.1527529766E+01  -0.6305839725E-04   0.8282108730E-02  -0.4121562258E-03  -0.6305839725E-04   0.0000000000E+00   0.0000000000E+00   0.0000000000E+00   0.1286524523E+00  -0.1950637627E-01   0.1025344513E-04   0.1530788628E-01  -0.2134036221E-03  -0.1915528039E-03
   0.2088098020E+01  -0.1527522493E+01   0.1998280516E+00   0.8290980387E-02  -0.4048828266E-03  -0.1719514363E-03   0.0000000000E+00   0.0000000000E+00   0.0000000000E+00   0.1276435224E+00  -0.1853216553E-01   0.3285988986E-04   0.1471668286E-01   0.6245175710E-04   0.3946353983E-04
   0.2075551025E+01  -0.1763096654E+01  -0.5411777237E-04   0.8202065019E-02  -0.2103635329E-03  -0.5411777237E-04   0.0000000000E+00   0.0000000000E+00   0.0000000000E+00   0.1337644847E+00  -0.2110043378E-01  -0.1159478593E-04   0.7265304775E-02  -0.2540941403E-03  -0.2976354148E-04
   0.2075561676E+01  -0.1763092908E+01   0.1998334171E+00   0.8212716240E-02  -0.2066184130E-03  -0.1665858512E-03   0.0000000000E+00   0.0000000000E+00   0.0000000000E+00   0.1326817830E+00  -0.2006530534E-01  -0.1585921482E-04   0.6990115627E-02   0.7286809594E-04   0.5949388471E-04
   0.2067438892E+01  -0.2000000000E+01  -0.5078519028E-04   0.8168752246E-02   0.0000000000E+00  -0.5078519028E-04   0.0000000000E+00   0.0000000000E+00   0.0000000000E+00   0.1355639979E+00  -0.2155071654E-01   0.7788295616E-05   0.1787101941E-02  -0.2747888213E-03  -0.2266177082E-03
   0.2067450111E+01  -0.2000000000E+01   0.1998354247E+00   0.8179971486E-02   0.0000000000E+00  -0.1645782502E-03   0.0000000000E+00   0.0000000000E+00   0.0000000000E+00   0.1344691035E+00  -0.2048465726E-01   0.2561803139E-04   0.1761580938E-02   0.6961210048E-04  -0.1370267162E-03
   0.1909106515E+01  -0.1290472617E+01  -0.6800046717E-04   0.8146304599E-02  -0.6322772197E-03  -0.6800046717E-04   0.0000000000E+00   0.0000000000E+00   0.0000000000E+00   0.1260168739E+00  -0.1876136759E-01   0.6131118473E-05   0.2448129022E-01  -0.2058269289E-03  -0.2938466739E-03
   0.1909115457E+01  -0.1290459338E+01   0.1998250700E+00   0.8155247458E-02  -0.6189983793E-03  -0.1749329759E-03   0.0000000000E+00   0.0000000000E+00   0.0000000000E+00   0.1247842993E+00  -0.1759010739E-01   0.3863082743E-04   0.2340250957E-01   0.7813028482E-04   0.9979993581E-04
   0.1885186684E+01  -0.1523640506E+01  -0.4993824259E-04   0.7995613525E-02  -0.4360564943E-03  -0.4993824259E-04   0.0000000000E+00   0.0000000000E+00   0.0000000000E+00   0.1353200689E+00  -0.2092833296E-01  -0.2629921609E-04   0.1687430021E-01  -0.2929802493E-03  -0.2587699479E-03
   0.1885199129E+01  -0.1523631324E+01   0.1998359249E+00   0.8008058882E-02  -0.4268743938E-03  -0.1640781198E-03   0.0000000000E+00   0.0000000000E+00   0.0000000000E+00   0.1339690528E+00  -0.1965195807E-01  -0.3239009678E-04   0.1623478099E-01   0.9552990559E-04   0.3672865260E-04
   0.1870853926E+01  -0.1761069872E+01  -0.3828069065E-04   0.7899665874E-02  -0.2218217846E-03  -0.3828069065E-04   0.0000000000E+00   0.0000000000E+00   0.0000000000E+00   0.1407509911E+00  -0.2176926472E-01   0.3187853198E-04   0.7840701297E-02  -0.3505282887E-03  -0.3981999319E-04
   0.1870868186E+01  -0.1761065198E+01   0.1998428953E+00   0.7913925991E-02  -0.2171475783E-03  -0.1571076508E-03   0.0000000000E+00   0.0000000000E+00   0.0000000000E+00   0.1394282750E+00  -0.2045476906E-01   0.6809224796E-04   0.7577378654E-02   0.8869079795E-04   0.7014916099E-04
   0.1861556552E+01  -0.2000000000E+01  -0.3403911115E-04   0.7860321533E-02   0.0000000000E+00  -0.3403911115E-04   0.0000000000E+00   0.0000000000E+00   0.0000000000E+00   0.1425636527E+00  -0.2198527064E-01  -0.3695093706E-04   0.2015576262E-02  -0.3607654258E-03  -0.2586898116E-03
   0.1861571558E+01  -0.2000000000E+01   0.1998455033E+00   0.7875327961E-02   0.0000000000E+00  -0.1544997139E-03   0.0000000000E+00   0.0000000000E+00   0.0000000000E+00   0.1412315009E+00  -0.2070338492E-01  -0.6618129951E-04   0.1960711681E-02   0.9549144449E-04  -0.1675885958E-03
   0.1709306243E+01  -0.1285232643E+01  -0.5489427247E-04   0.7871632698E-02  -0.6629028194E-03  -0.5489427247E-04   0.0000000000E+00   0.0000000000E+00   0.0000000000E+00   0.1330202653E+00  -0.2040562084E-01  -0.3273367339E-04   0.2641436419E-01  -0.3031717258E-03  -0.4079721906E-03
   0.1709319651E+01  -0.1285215939E+01   0.1998329015E+00   0.7885041168E-02  -0.6461991292E-03  -0.1671014561E-03   0.0000000000E+00   0.0000000000E+00   0.0000000000E+00   0.1312089298E+00  -0.1873571525E-01  -0.1996500875E-04   0.2526176234E-01   0.1257871560E-03   0.1018120677E-03
   0.1682329317E+01  -0.1519805367E+01  -0.3166566750E-04   0.7693906579E-02  -0.4536468573E-03  -0.3166566750E-04   0.0000000000E+00   0.0000000000E+00   0.0000000000E+00   0.1428315768E+00  -0.2107629511E-01   0.2554955764E-04   0.1756598740E-01  -0.4050364154E-03  -0.3054908841E-03
   0.1682346306E+01  -0.1519794200E+01   0.1998468347E+00   0.7710896355E-02  -0.4424796268E-03  -0.1531683334E-03   0.0000000000E+00   0.0000000000E+00   0.0000000000E+00   0.1410971246E+00  -0.1942599852E-01   0.6370232031E-04   0.1701154193E-01   0.1197632694E-03   0.3766836717E-04
   0.1666182431E+01  -0.1759108019E+01  -0.1736138737E-04   0.7583171069E-02  -0.2295491380E-03  -0.1736138737E-04   0.0000000000E+00   0.0000000000E+00   0.0000000000E+00   0.1480274857E+00  -0.2081492975E-01  -0.2345559162E-04   0.7834961391E-02  -0.4492293510E-03  -0.5354521319E-04
   0.1666201204E+01  -0.1759102571E+01   0.1998554849E+00   0.7601943536E-02  -0.2241005239E-03  -0.1445181286E-03   0.0000000000E+00   0.0000000000E+00   0.0000000000E+00   0.1464602233E+00  -0.1928353409E-01  -0.4728543173E-04   0.7632888892E-02   0.1192765137E-03   0.6769953902E-04
   0.1655667523E+01  -0.2000000000E+01  -0.1196444988E-04   0.7537462679E-02   0.0000000000E+00  -0.1196444988E-04   0.0000000000E+00   0.0000000000E+00   0.0000000000E+00   0.1497718922E+00  -0.2050913528E-01   0.2332830706E-04   0.2344855638E-02  -0.4822813805E-03  -0.3310588595E-03
   0.1655686759E+01  -0.2000000000E+01   0.1998587369E+00   0.7556698765E-02   0.0000000000E+00  -0.1412661097E-03   0.0000000000E+00   0.0000000000E+00   0.0000000000E+00   0.1483012484E+00  -0.1901187231E-01   0.4016408594E-04   0.2347201239E-02   0.1039362889E-03  -0.1974840120E-03
   0.1509643285E+01  -0.1280306239E+01  -0.3517223824E-04   0.7580845043E-02  -0.6798688966E-03  -0.3517223824E-04   0.0000000000E+00   0.0000000000E+00   0.0000000000E+00   0.1413374414E+00  -0.2064568445E-01   0.1441601140E-04   0.2691225225E-01  -0.4548179463E-03  -0.4723690601E-03
   0.1509662997E+01  -0.1280286065E+01   0.1998446517E+00   0.7600556928E-02  -0.6596952162E-03  -0.1553513212E-03   0.0000000000E+00   0.0000000000E+00   0.0000000000E+00   0.1387861665E+00  -0.1833221526E-01   0.7955304407E-04   0.2595363609E-01   0.1508081175E-03   0.9857303378E-04
   0.1479556229E+01  -0.1516420379E+01  -0.6938356569E-05   0.7377768559E-02  -0.4596894221E-03  -0.6938356569E-05   0.0000000000E+00   0.0000000000E+00   0.0000000000E+00   0.1507688333E+00  -0.1925963812E-01  -0.5604708905E-04   0.1692675491E-01  -0.5451272062E-03  -0.3719377517E-03
   0.1479579126E+01  -0.1516407880E+01   0.1998617323E+00   0.7400666043E-02  -0.4471896215E-03  -0.1382706982E-03   0.0000000000E+00   0.0000000000E+00   0.0000000000E+00   0.1486187934E+00  -0.1726151216E-01  -0.9965159213E-04   0.1666076054E-01   0.1430547844E-03   0.1427846914E-04
   0.1461597567E+01  -0.1757473341E+01   0.9752859701E-05   0.7253887149E-02  -0.2301813723E-03   0.9752859701E-05   0.0000000000E+00   0.0000000000E+00   0.0000000000E+00   0.1551823041E+00  -0.1725904124E-01   0.4798063562E-04   0.7124861368E-02  -0.5975643020E-03  -0.6833914413E-04
   0.1461621171E+01  -0.1757467476E+01   0.1998717489E+00   0.7277490586E-02  -0.2243162096E-03  -0.1282540772E-03   0.0000000000E+00   0.0000000000E+00   0.0000000000E+00   0.1535411022E+00  -0.1555476387E-01   0.7998146273E-04   0.7139723090E-02   0.1229811325E-03   0.6825340376E-04
   0.1449853058E+01  -0.2000000000E+01   0.1577816677E-04   0.7203807762E-02   0.0000000000E+00   0.1577816677E-04   0.0000000000E+00   0.0000000000E+00   0.0000000000E+00   0.1564260501E+00  -0.1640470490E-01  -0.4402267392E-04   0.2378006158E-02  -0.5781743365E-03  -0.3064827382E-03
   0.1449877000E+01  -0.2000000000E+01   0.1998754653E+00   0.7227749543E-02   0.0000000000E+00  -0.1245377386E-03   0.0000000000E+00   0.0000000000E+00   0.0000000000E+00   0.1549342193E+00  -0.1486603191E-01  -0.1108273605E-03   0.2359396138E-02   0.1381839590E-03  -0.2021052541E-03
   0.1309643364E+01  -0.1276372562E+01  -0.6010331905E-05   0.7272574117E-02  -0.6749719914E-03  -0.6010331905E-05   0.0000000000E+00   0.0000000000E+00   0.0000000000E+00   0.1506592018E+00  -0.1850315372E-01  -0.8975465908E-04   0.2549351549E-01  -0.6817588663E-03  -0.6131693610E-03
   0.1309671945E+01  -0.1276350266E+01   0.1998623459E+00   0.7301154571E-02  -0.6526764583E-03  -0.1376571238E-03   0.0000000000E+00   0.0000000000E+00   0.0000000000E+00   0.1472119557E+00  -0.1544357783E-01  -0.1821841995E-03   0.2513003360E-01   0.9702726880E-04   0.7664589763E-04
   0.1276603067E+01  -0.1514230825E+01   0.2631343210E-04   0.7047497498E-02  -0.4468954416E-03   0.2631343210E-04   0.0000000000E+00   0.0000000000E+00   0.0000000000E+00   0.1588356203E+00  -0.1425005886E-01   0.3966103100E-04   0.1462038210E-01  -0.7781977383E-03  -0.3580144288E-03
   0.1276632637E+01  -0.1514218239E+01   0.1998817342E+00   0.7077066767E-02  -0.4343087413E-03  -0.1182688452E-03   0.0000000000E+00   0.0000000000E+00   0.0000000000E+00   0.1565133594E+00  -0.1194559034E-01   0.4919435823E-04   0.1501788354E-01   0.9459472287E-04   0.2964767005E-04
   0.1257013452E+01  -0.1756590307E+01   0.4317175643E-04   0.6916652101E-02  -0.2207173202E-03   0.4317175643E-04   0.0000000000E+00   0.0000000000E+00   0.0000000000E+00   0.1613649674E+00  -0.1038729791E-01  -0.2294783604E-04   0.5524956104E-02  -0.6840064396E-03  -0.5762096300E-04
   0.1257042105E+01  -0.1756585024E+01   0.1998919275E+00   0.6945305111E-02  -0.2154339244E-03  -0.1080754569E-03   0.0000000000E+00   0.0000000000E+00   0.0000000000E+00   0.1598456711E+00  -0.8787543237E-02  -0.1088300749E-03   0.5879490657E-02   0.1463462863E-03   0.6746653287E-04
   0.1244191629E+01  -0.2000000000E+01   0.4938974202E-04   0.6863459074E-02   0.0000000000E+00   0.4938974202E-04   0.0000000000E+00   0.0000000000E+00   0.0000000000E+00   0.1619914447E+00  -0.8797234722E-02   0.3516904114E-04   0.2512845060E-02  -0.7092222506E-03  -0.2968913476E-03
   0.1244219615E+01  -0.2000000000E+01   0.1998956370E+00   0.6891444694E-02   0.0000000000E+00  -0.1043659501E-03   0.0000000000E+00   0.0000000000E+00   0.0000000000E+00   0.1607989933E+00  -0.7437337999E-02   0.3251953465E-04   0.2617083984E-02   0.1560328666E-03  -0.1707446347E-03
   0.1107374447E+01  -0.1274249798E+01   0.3737698529E-04   0.6943007396E-02  -0.6369384023E-03   0.3737698529E-04   0.0000000000E+00   0.0000000000E+00   0.0000000000E+00   0.1609536476E+00  -0.1224367438E-01  -0.6395664908E-04   0.2175998985E-01  -0.1210916923E-02  -0.5300922232E-03
   0.1107414060E+01  -0.1274228002E+01   0.1998888455E+00   0.6982619540E-02  -0.6151417840E-03  -0.1111575195E-03   0.0000000000E+00   0.0000000000E+00   0.0000000000E+00   0.1570869352E+00  -0.8355132114E-02  -0.1271880931E-03   0.2271532052E-01  -0.1439018270E-03   0.1066139110E-03
   0.1072442987E+01  -0.1514155512E+01   0.6897502852E-04   0.6706457486E-02  -0.4104419437E-03   0.6897502852E-04   0.0000000000E+00   0.0000000000E+00   0.0000000000E+00   0.1659807907E+00  -0.5120467579E-02  -0.1858846721E-04   0.1093505289E-01  -0.9534630732E-03  -0.2700148063E-03
   0.1072479448E+01  -0.1514145729E+01   0.1999077203E+00   0.6742918409E-02  -0.4006587546E-03  -0.9228271917E-04   0.0000000000E+00   0.0000000000E+00   0.0000000000E+00   0.1639454071E+00  -0.2863205327E-02  -0.2469194669E-03   0.1236187134E-01   0.7362540125E-05   0.1035107015E-03
   0.1051946481E+01  -0.1756954846E+01   0.8261247659E-04   0.6575540945E-02  -0.1987757888E-03   0.8261247659E-04   0.0000000000E+00   0.0000000000E+00   0.0000000000E+00   0.1660947241E+00   0.2961306705E-03   0.5955409711E-05   0.3346175684E-02  -0.8483999526E-03  -0.2664361472E-05
   0.1051978805E+01  -0.1756951434E+01   0.1999157109E+00   0.6607865178E-02  -0.1953636677E-03  -0.8429210836E-04   0.0000000000E+00   0.0000000000E+00   0.0000000000E+00   0.1651929883E+00   0.1499776082E-02  -0.3059694900E-05   0.4211339628E-02   0.1585425065E-03   0.1123715063E-03
   0.1038455579E+01  -0.2000000000E+01   0.8737962906E-04   0.6524059006E-02   0.0000000000E+00   0.8737962906E-04   0.0000000000E+00   0.0000000000E+00   0.0000000000E+00   0.1657157284E+00   0.2442656562E-02  -0.1335659465E-04   0.2160771249E-02  -0.6922916795E-03  -0.1278173957E-03
   0.1038486596E+01  -0.2000000000E+01   0.1999184823E+00   0.6555076106E-02   0.0000000000E+00  -0.8152070022E-04   0.0000000000E+00   0.0000000000E+00   0.0000000000E+00   0.1650532510E+00   0.3161384981E-02  -0.1498750713E-03   0.2252065086E-02   0.2262024798E-03  -0.6552892147E-04
   0.8986433857E+00  -0.1275103619E+01   0.9945667910E-04   0.6589066735E-02  -0.5603288545E-03   0.9945667910E-04   0.0000000000E+00   0.0000000000E+00   0.0000000000E+00   0.1710271758E+00   0.1075487105E-02   0.2730658947E-03   0.1806100402E-01  -0.1565021892E-02  -0.5980386284E-03
   0.8986943621E+00  -0.1275088699E+01   0.1999272898E+00   0.6640043084E-02  -0.5454091316E-03  -0.7271322492E-04   0.0000000000E+00   0.0000000000E+00   0.0000000000E+00   0.1680921805E+00   0.5042048351E-02  -0.3184072251E-03   0.2140608586E-01  -0.6076964256E-03   0.3626247810E-03
   0.8653078642E+00  -0.1517413733E+01   0.1206166217E-03   0.6356176197E-02  -0.3485628780E-03   0.1206166217E-03   0.0000000000E+00   0.0000000000E+00   0.0000000000E+00   0.1721856097E+00   0.8175757980E-02  -0.3082225209E-04   0.6176065816E-02  -0.1231000005E-02   0.2061426372E-03
   0.8653487027E+00  -0.1517410081E+01   0.1999393339E+00   0.6397014668E-02  -0.3449106443E-03  -0.6066914043E-04   0.0000000000E+00   0.0000000000E+00   0.0000000000E+00   0.1715184342E+00   0.1011487348E-01  -0.1299172420E-03   0.8775873583E-02  -0.4687957067E-04   0.3833979103E-03
   0.8457063909E+00  -0.1759143790E+01   0.1257525754E-03   0.6238268941E-02  -0.1654200593E-03   0.1257525754E-03   0.0000000000E+00   0.0000000000E+00   0.0000000000E+00   0.1688573249E+00   0.1477160040E-01   0.7548252213E-04   0.1104365100E-02  -0.7220154454E-03   0.2098181394E-04
   0.8457404238E+00  -0.1759144065E+01   0.1999415850E+00   0.6272301795E-02  -0.1656950875E-03  -0.5841804752E-04   0.0000000000E+00   0.0000000000E+00   0.0000000000E+00   0.1687363000E+00   0.1482820551E-01  -0.1546630087E-03   0.2400154105E-02   0.2278473087E-03   0.1597700180E-03
   0.8319598466E+00  -0.2000000000E+01   0.1275950208E-03   0.6190124606E-02   0.0000000000E+00   0.1275950208E-03   0.0000000000E+00   0.0000000000E+00   0.0000000000E+00   0.1675919937E+00   0.1654188374E-01  -0.7899840809E-04   0.2034179182E-02  -0.7754927878E-03   0.1353038696E-03
   0.8319911360E+00  -0.2000000000E+01   0.1999426849E+00   0.6221414035E-02   0.0000000000E+00  -0.5731807370E-04   0.0000000000E+00   0.0000000000E+00   0.0000000000E+00   0.1679633611E+00   0.1634658030E-01  -0.8770664708E-04   0.2293744293E-02   0.2433780754E-03   0.4186813926E-04
  -0.6207973070E+00  -0.1083782481E+01   0.2097174461E-03   0.3649800006E-02  -0.5625911576E-03   0.2097174461E-03   0.0000000000E+00   0.0000000000E+00   0.0000000000E+00   0.1844782995E+00   0.2292006267E-01   0.1937431850E-02  -0.3604104530E-01   0.3468377780E-02   0.9891365273E-03
  -0.4847937640E+00  -0.8733868926E+00   0.2598259159E-03   0.3382015970E-02  -0.6415575949E-03   0.2598259159E-03   0.0000000000E+00   0.0000000000E+00   0.0000000000E+00   0.2065426815E+00   0.4167402379E-01   0.7647124015E-03  -0.9060918293E-01   0.7607834057E-02  -0.5425929169E-02
  -0.6208739696E+00  -0.1083771781E+01   0.1999947621E+00   0.3573137387E-02  -0.5518909997E-03  -0.5240943897E-05   0.0000000000E+00   0.0000000000E+00   0.0000000000E+00   0.1857338174E+00   0.3165717421E-01   0.2748859495E-02  -0.4263215132E-01   0.1867080021E-02   0.5946340022E-03
  -0.4848790724E+00  -0.8733757423E+00   0.2000310447E+00   0.3296707553E-02  -0.6304073245E-03   0.3104165965E-04   0.0000000000E+00   0.0000000000E+00   0.0000000000E+00   0.2107776411E+00   0.5246202119E-01  -0.3206257397E-03  -0.9810175875E-01   0.6129379156E-02  -0.4451182767E-02
  -0.6117362257E+00  -0.1336689654E+01   0.1962247098E-03   0.3941369335E-02  -0.3773641136E-03   0.1962247098E-03   0.0000000000E+00   0.0000000000E+00   0.0000000000E+00   0.1828470578E+00   0.2184725391E-01  -0.1188687618E-02  -0.7669977252E-02   0.1524039270E-02   0.1384884385E-02
  -0.6117878151E+00  -0.1336696939E+01   0.1999895648E+00   0.3889779897E-02  -0.3846488283E-03  -0.1043820818E-04   0.0000000000E+00   0.0000000000E+00   0.0000000000E+00   0.1836003072E+00   0.2440566458E-01  -0.2894076929E-02  -0.1305573031E-01   0.8246698493E-03   0.1598964733E-02
  -0.6097290768E+00  -0.1562912133E+01   0.1832799868E-03   0.4066442151E-02  -0.2323628055E-03   0.1832799868E-03   0.0000000000E+00   0.0000000000E+00   0.0000000000E+00   0.1756253500E+00   0.2996387023E-01   0.6500232133E-03  -0.1521807139E-02   0.9579560949E-03   0.1164716302E-03
  -0.6097681133E+00  -0.1562920538E+01   0.1999768006E+00   0.4027405715E-02  -0.2407680333E-03  -0.2320236989E-04   0.0000000000E+00   0.0000000000E+00   0.0000000000E+00   0.1767751872E+00   0.2898357840E-01   0.3848252106E-03  -0.4670060810E-02  -0.8566450032E-04   0.6837235487E-03
  -0.6173161994E+00  -0.1782167204E+01   0.1694396874E-03   0.4109905569E-02  -0.1132535108E-03   0.1694396874E-03   0.0000000000E+00   0.0000000000E+00   0.0000000000E+00   0.1690600614E+00   0.3124394291E-01  -0.4194425085E-03   0.8295492259E-03   0.7481820119E-03   0.3866991335E-03
  -0.6173469136E+00  -0.1782171911E+01   0.1999684009E+00   0.4079191437E-02  -0.1179612880E-03  -0.3160213826E-04   0.0000000000E+00   0.0000000000E+00   0.0000000000E+00   0.1706631939E+00   0.3020939118E-01  -0.5879974833E-03  -0.6524981586E-03  -0.1263108051E-03   0.1397341927E-03
  -0.6248458932E+00  -0.2000000000E+01   0.1649735382E-03   0.4115550772E-02   0.0000000000E+00   0.1649735382E-03   0.0000000000E+00   0.0000000000E+00   0.0000000000E+00   0.1679976214E+00   0.3254213946E-01   0.2305975779E-03  -0.1559248313E-02   0.6338923689E-03   0.5655038708E-04
  -0.6248751545E+00  -0.2000000000E+01   0.1999646223E+00   0.4086289532E-02   0.0000000000E+00  -0.3538074250E-04   0.0000000000E+00   0.0000000000E+00   0.0000000000E+00   0.1690133108E+00   0.3060831112E-01   0.7594804820E-04  -0.1526184477E-02  -0.3124820950E-03   0.3286422888E-03
  -0.8242814975E+00  -0.1781434934E+01   0.1280889729E-03   0.3785149451E-02  -0.1475042057E-03   0.1280889729E-03   0.0000000000E+00   0.0000000000E+00   0.0000000000E+00   0.1687475833E+00   0.1598144450E-01   0.1229249338E-03  -0.8223211679E-03   0.7164924675E-03   0.8278650879E-05
  -0.8280164692E+00  -0.2000000000E+01   0.1262960304E-03   0.3800203797E-02   0.0000000000E+00   0.1262960304E-03   0.0000000000E+00   0.0000000000E+00   0.0000000000E+00   0.1673920900E+00   0.1670339384E-01  -0.1315520227E-03  -0.1760883425E-02   0.7621865271E-03   0.1636169974E-03
  -0.8243151046E+00  -0.1781435555E+01   0.1999429033E+00   0.3751542442E-02  -0.1481245479E-03  -0.5709972054E-04   0.0000000000E+00   0.0000000000E+00   0.0000000000E+00   0.1686939060E+00   0.1584905623E-01  -0.1305733522E-03  -0.2029279281E-02  -0.2309644629E-03   0.1600715456E-03
  -0.8280477726E+00  -0.2000000000E+01   0.1999419152E+00   0.3768900445E-02   0.0000000000E+00  -0.5808778194E-04   0.0000000000E+00   0.0000000000E+00   0.0000000000E+00   0.1677564395E+00   0.1651949376E-01  -0.7840528954E-04  -0.2003480561E-02  -0.2522684263E-03   0.2732758413E-04
  -0.1030705606E+01  -0.1781975985E+01   0.8533216470E-04   0.3449043502E-02  -0.1764346039E-03   0.8533216470E-04   0.0000000000E+00   0.0000000000E+00   0.0000000000E+00   0.1661731226E+00   0.1323243863E-02  -0.1801948292E-04  -0.2751727017E-02   0.8327133188E-03   0.6131866618E-05
  -0.1031849055E+01  -0.2000000000E+01   0.8675959558E-04   0.3470864839E-02   0.0000000000E+00   0.8675959558E-04   0.0000000000E+00   0.0000000000E+00   0.0000000000E+00   0.1656448606E+00   0.2704176182E-02   0.2744851913E-04  -0.2008784470E-02   0.6884681993E-03  -0.1274523239E-03
  -0.1030737782E+01  -0.1781973184E+01   0.1999173208E+00   0.3416868386E-02  -0.1736339373E-03  -0.8268222549E-04   0.0000000000E+00   0.0000000000E+00   0.0000000000E+00   0.1653461734E+00   0.2415847529E-02  -0.2309082143E-04  -0.3571832377E-02  -0.1747991602E-03   0.1036109074E-03
  -0.1031880001E+01  -0.2000000000E+01   0.1999180576E+00   0.3439918655E-02   0.0000000000E+00  -0.8194538725E-04   0.0000000000E+00   0.0000000000E+00   0.0000000000E+00   0.1649902710E+00   0.3397415830E-02  -0.7634428496E-04  -0.2092873016E-02  -0.2271891498E-03  -0.5727019027E-04
  -0.1236579786E+01  -0.1783166093E+01   0.4590903506E-04   0.3107654189E-02  -0.1955434900E-03   0.4590903506E-04   0.0000000000E+00   0.0000000000E+00   0.0000000000E+00   0.1617194251E+00  -0.9676191560E-02   0.5617862408E-05  -0.4762735171E-02   0.6867259028E-03  -0.5843125214E-04
  -0.1236371011E+01  -0.2000000000E+01   0.4902455679E-04   0.3133209192E-02   0.0000000000E+00   0.4902455679E-04   0.0000000000E+00   0.0000000000E+00   0.0000000000E+00   0.1619123405E+00  -0.8658084444E-02   0.9166598296E-05  -0.2223508301E-02   0.7056806681E-03  -0.2575884209E-03
  -0.1236608485E+01  -0.1783161519E+01   0.1998935437E+00   0.3078954946E-02  -0.1909685726E-03  -0.1064593425E-03   0.0000000000E+00   0.0000000000E+00   0.0000000000E+00   0.1602522578E+00  -0.8151579783E-02  -0.7441349957E-04  -0.5106689733E-02  -0.1526924507E-03   0.6197535543E-04
  -0.1236398924E+01  -0.2000000000E+01   0.1998954203E+00   0.3105296494E-02   0.0000000000E+00  -0.1045826813E-03   0.0000000000E+00   0.0000000000E+00   0.0000000000E+00   0.1607322103E+00  -0.7297162610E-02   0.1801197772E-04  -0.2323594574E-02  -0.1599453025E-03  -0.1589519648E-03
  -0.1442214591E+01  -0.1784595262E+01   0.1213097524E-04   0.2768299469E-02  -0.2041020618E-03   0.1213097524E-04   0.0000000000E+00   0.0000000000E+00   0.0000000000E+00   0.1556791303E+00  -0.1688421389E-01   0.2521943477E-04  -0.6216763540E-02   0.6011571616E-03  -0.6638285510E-04
  -0.1441422921E+01  -0.2000000000E+01   0.1569256656E-04   0.2794169389E-02   0.0000000000E+00   0.1569256656E-04   0.0000000000E+00   0.0000000000E+00   0.0000000000E+00   0.1563949090E+00  -0.1629699708E-01  -0.1318169023E-04  -0.2176211171E-02   0.5718590070E-03  -0.2903107710E-03
  -0.1442238374E+01  -0.1784590119E+01   0.1998731951E+00   0.2744515696E-02  -0.1989585416E-03  -0.1268078832E-03   0.0000000000E+00   0.0000000000E+00   0.0000000000E+00   0.1540553877E+00  -0.1523129558E-01   0.3467553634E-04  -0.6253502957E-02  -0.1270681809E-03   0.5947287787E-04
  -0.1441446779E+01  -0.2000000000E+01   0.1998753870E+00   0.2770311086E-02   0.0000000000E+00  -0.1246160083E-03   0.0000000000E+00   0.0000000000E+00   0.0000000000E+00   0.1549250386E+00  -0.1474699393E-01  -0.4916947903E-04  -0.2152458734E-02  -0.1425522138E-03  -0.1867113215E-03
  -0.1647824727E+01  -0.1786107248E+01  -0.1534262596E-04   0.2436673411E-02  -0.2039179979E-03  -0.1534262596E-04   0.0000000000E+00   0.0000000000E+00   0.0000000000E+00   0.1486182818E+00  -0.2066240449E-01  -0.6874962929E-05  -0.6924188527E-02   0.4522988686E-03  -0.5543907200E-04
  -0.1646834567E+01  -0.2000000000E+01  -0.1192716828E-04   0.2461122973E-02   0.0000000000E+00  -0.1192716828E-04   0.0000000000E+00   0.0000000000E+00   0.0000000000E+00   0.1497347491E+00  -0.2048138248E-01   0.1119335133E-04  -0.2072368834E-02   0.4804060943E-03  -0.2964848331E-03
  -0.1647843740E+01  -0.1786102415E+01   0.1998566988E+00   0.2417660398E-02  -0.1990849821E-03  -0.1433042467E-03   0.0000000000E+00   0.0000000000E+00   0.0000000000E+00   0.1470508107E+00  -0.1914336193E-01  -0.3808664866E-04  -0.6755664249E-02  -0.1263670082E-03   0.6142071602E-04
  -0.1646853730E+01  -0.2000000000E+01   0.1998587698E+00   0.2441960059E-02   0.0000000000E+00  -0.1412331722E-03   0.0000000000E+00   0.0000000000E+00   0.0000000000E+00   0.1482898503E+00  -0.1897359080E-01   0.3468898867E-04  -0.2085206351E-02  -0.1052969216E-03  -0.1826833775E-03
  -0.1853485329E+01  -0.1787654538E+01  -0.3672621182E-04   0.2117291139E-02  -0.1975476456E-03  -0.3672621182E-04   0.0000000000E+00   0.0000000000E+00   0.0000000000E+00   0.1413128800E+00  -0.2181375541E-01   0.2388625843E-05  -0.6953738295E-02   0.3581745698E-03  -0.3281222630E-04
  -0.1852468048E+01  -0.2000000000E+01  -0.3384314838E-04   0.2138942020E-02   0.0000000000E+00  -0.3384314838E-04   0.0000000000E+00   0.0000000000E+00   0.0000000000E+00   0.1425818073E+00  -0.2195897591E-01  -0.3029657466E-05  -0.1832305880E-02   0.3563874986E-03  -0.2547158449E-03
  -0.1853499818E+01  -0.1787650355E+01   0.1998438694E+00   0.2102801710E-02  -0.1933651392E-03  -0.1561336162E-03   0.0000000000E+00   0.0000000000E+00   0.0000000000E+00   0.1399924553E+00  -0.2049097077E-01   0.2383882933E-04  -0.6729175257E-02  -0.8933892099E-04   0.6284902289E-04
  -0.1852483023E+01  -0.2000000000E+01   0.1998456012E+00   0.2123967448E-02   0.0000000000E+00  -0.1544018206E-03   0.0000000000E+00   0.0000000000E+00   0.0000000000E+00   0.1412642481E+00  -0.2066595863E-01  -0.1921390902E-04  -0.1775939871E-02  -0.9836374635E-04  -0.1514806592E-03
  -0.2059198444E+01  -0.1789219656E+01  -0.5290521754E-04   0.1812155709E-02  -0.1876757573E-03  -0.5290521754E-04   0.0000000000E+00   0.0000000000E+00   0.0000000000E+00   0.1343165562E+00  -0.2122372573E-01  -0.3855264051E-05  -0.6483891456E-02   0.2558695734E-03  -0.2922046802E-04
  -0.2058225756E+01  -0.2000000000E+01  -0.5058679255E-04   0.1830693522E-02   0.0000000000E+00  -0.5058679255E-04   0.0000000000E+00   0.0000000000E+00   0.0000000000E+00   0.1355760806E+00  -0.2157784506E-01   0.3981620071E-05  -0.1592055325E-02   0.2790009947E-03  -0.2084221083E-03
  -0.2059209310E+01  -0.1789216282E+01   0.1998341559E+00   0.1801289821E-02  -0.1843020296E-03  -0.1658470720E-03   0.0000000000E+00   0.0000000000E+00   0.0000000000E+00   0.1332251516E+00  -0.2017145192E-01  -0.1335969529E-04  -0.6240930703E-02  -0.7380539911E-04   0.5201602281E-04
  -0.2058236959E+01  -0.2000000000E+01   0.1998355550E+00   0.1819491494E-02   0.0000000000E+00  -0.1644479900E-03   0.0000000000E+00   0.0000000000E+00   0.0000000000E+00   0.1344978078E+00  -0.2049691214E-01   0.2458009120E-04  -0.1575293926E-02  -0.6788695164E-04  -0.1267798207E-03
  -0.2264945461E+01  -0.1790793826E+01  -0.6481361252E-04   0.1521869168E-02  -0.1763557449E-03  -0.6481361252E-04   0.0000000000E+00   0.0000000000E+00   0.0000000000E+00   0.1279887426E+00  -0.1962686445E-01   0.4727372122E-05  -0.5724715530E-02   0.1961038822E-03  -0.2085008336E-04
  -0.2264046226E+01  -0.2000000000E+01  -0.6303919081E-04   0.1537054039E-02   0.0000000000E+00  -0.6303919081E-04   0.0000000000E+00   0.0000000000E+00   0.0000000000E+00   0.1291589308E+00  -0.2010294719E-01  -0.6222611324E-05  -0.1294548382E-02   0.1941553935E-03  -0.1595042471E-03
  -0.2264953309E+01  -0.1790791185E+01   0.1998270134E+00   0.1514021254E-02  -0.1737151752E-03  -0.1729895568E-03   0.0000000000E+00   0.0000000000E+00   0.0000000000E+00   0.1271457998E+00  -0.1879804081E-01   0.2279080807E-04  -0.5516533742E-02  -0.4855305312E-04   0.4285623022E-04
  -0.2264054485E+01  -0.2000000000E+01   0.1998280810E+00   0.1528794765E-02   0.0000000000E+00  -0.1719219564E-03   0.0000000000E+00   0.0000000000E+00   0.0000000000E+00   0.1282866372E+00  -0.1926398162E-01  -0.1267762860E-04  -0.1248260624E-02  -0.5594272301E-04  -0.9649630585E-04
  -0.2470711779E+01  -0.1792367840E+01  -0.7338169637E-04   0.1245430690E-02  -0.1651296397E-03  -0.7338169637E-04   0.0000000000E+00   0.0000000000E+00   0.0000000000E+00   0.1225386958E+00  -0.1760183671E-01  -0.6926512139E-05  -0.4789239863E-02   0.1303215158E-03  -0.1571520194E-04
  -0.2469896645E+01  -0.2000000000E+01  -0.7203571936E-04   0.1257565098E-02   0.0000000000E+00  -0.7203571936E-04   0.0000000000E+00   0.0000000000E+00   0.0000000000E+00   0.1236005127E+00  -0.1812075844E-01   0.4369095220E-05  -0.1046175420E-02   0.1459300920E-03  -0.1259818122E-03
  -0.2470717386E+01  -0.1792365850E+01   0.1998218762E+00   0.1239824377E-02  -0.1631398423E-03  -0.1781267681E-03   0.0000000000E+00   0.0000000000E+00   0.0000000000E+00   0.1218815048E+00  -0.1698389931E-01  -0.1325872968E-04  -0.4612618113E-02  -0.3984782388E-04   0.3290109855E-04
  -0.2469902497E+01  -0.2000000000E+01   0.1998226819E+00   0.1251712524E-02   0.0000000000E+00  -0.1773210950E-03   0.0000000000E+00   0.0000000000E+00   0.0000000000E+00   0.1229361961E+00  -0.1746837727E-01   0.2094580941E-04  -0.1031804773E-02  -0.3627112108E-04  -0.7521044983E-04
  -0.2676500385E+01  -0.1793908020E+01  -0.7935946305E-04   0.9812652670E-03  -0.1549897951E-03  -0.7935946305E-04   0.0000000000E+00   0.0000000000E+00   0.0000000000E+00   0.1180904310E+00  -0.1554627369E-01   0.3396904307E-05  -0.3800569278E-02   0.9522890456E-04  -0.1024674358E-04
  -0.2675773264E+01  -0.2000000000E+01  -0.7837951739E-04   0.9905061191E-03   0.0000000000E+00  -0.7837951739E-04   0.0000000000E+00   0.0000000000E+00   0.0000000000E+00   0.1190154662E+00  -0.1607780919E-01  -0.5967851000E-05  -0.7859026816E-03   0.9479029527E-04  -0.9019945618E-04
  -0.2676504215E+01  -0.1793906520E+01   0.1998182904E+00   0.9774354597E-03  -0.1534904508E-03  -0.1817126083E-03   0.0000000000E+00   0.0000000000E+00   0.0000000000E+00   0.1176047923E+00  -0.1507328404E-01   0.1729761155E-04  -0.3670817569E-02  -0.2460782316E-04   0.2608402186E-04
  -0.2675777346E+01  -0.2000000000E+01   0.1998188785E+00   0.9864242369E-03   0.0000000000E+00  -0.1811244510E-03   0.0000000000E+00   0.0000000000E+00   0.0000000000E+00   0.1184980520E+00  -0.1559502849E-01  -0.1082306335E-04  -0.7568248307E-03  -0.2942604790E-04  -0.5432724881E-04
  -0.2882337213E+01  -0.1795328613E+01  -0.8341092058E-04   0.7270573598E-03  -0.1466231173E-03  -0.8341092058E-04   0.0000000000E+00   0.0000000000E+00   0.0000000000E+00   0.1146527630E+00  -0.1374428203E-01  -0.5381320617E-05  -0.2804246889E-02   0.5760586363E-04  -0.8377924864E-05
  -0.2881707737E+01  -0.2000000000E+01  -0.8266948396E-04   0.7337828678E-03   0.0000000000E+00  -0.8266948396E-04   0.0000000000E+00   0.0000000000E+00   0.0000000000E+00   0.1154709960E+00  -0.1425404729E-01   0.3294167209E-05  -0.5716395731E-03   0.6532256426E-04  -0.7142625974E-04
  -0.2882339757E+01  -0.1795327494E+01   0.1998158629E+00   0.7245129166E-03  -0.1455041096E-03  -0.1841400507E-03   0.0000000000E+00   0.0000000000E+00   0.0000000000E+00   0.1142758482E+00  -0.1339679984E-01  -0.9844998942E-05  -0.2708631792E-02  -0.1958110999E-04   0.1919821097E-04
  -0.2881710413E+01  -0.2000000000E+01   0.1998163057E+00   0.7311074480E-03   0.0000000000E+00  -0.1836972733E-03   0.0000000000E+00   0.0000000000E+00   0.0000000000E+00   0.1150849108E+00  -0.1387875694E-01   0.1601540673E-04  -0.5637541771E-03  -0.1821837801E-04  -0.4243942946E-04
  -0.3088244179E+01  -0.1796500306E+01  -0.8597467251E-04   0.4804307847E-03  -0.1404063262E-03  -0.8597467251E-04   0.0000000000E+00   0.0000000000E+00   0.0000000000E+00   0.1122292242E+00  -0.1235395159E-01   0.2762148818E-05  -0.1852046995E-02   0.4032879037E-04  -0.5633701070E-05
  -0.3087744124E+01  -0.2000000000E+01  -0.8541650638E-04   0.4848162080E-03   0.0000000000E+00  -0.8541650638E-04   0.0000000000E+00   0.0000000000E+00   0.0000000000E+00   0.1129534055E+00  -0.1284972343E-01  -0.4579467123E-05  -0.3624157206E-03   0.4045910044E-04  -0.5241262328E-04
  -0.3088245697E+01  -0.1796499430E+01   0.1998143259E+00   0.4789128168E-03  -0.1395298650E-03  -0.1856771406E-03   0.0000000000E+00   0.0000000000E+00   0.0000000000E+00   0.1119430873E+00  -0.1207546811E-01   0.1370987040E-04  -0.1793312167E-02  -0.8588286021E-05   0.1552206159E-04
  -0.3087745754E+01  -0.2000000000E+01   0.1998146606E+00   0.4831855673E-03   0.0000000000E+00  -0.1853424415E-03   0.0000000000E+00   0.0000000000E+00   0.0000000000E+00   0.1126417706E+00  -0.1256453375E-01  -0.8487846338E-05  -0.3491673904E-03  -0.1065013779E-04  -0.3150450839E-04
  -0.3294181377E+01  -0.1797308173E+01  -0.8739762407E-04   0.2388634079E-03  -0.1365834712E-03  -0.8739762407E-04   0.0000000000E+00   0.0000000000E+00   0.0000000000E+00   0.1107844066E+00  -0.1148981783E-01  -0.4300136758E-05  -0.8836884385E-03   0.5619153147E-05  -0.5393044986E-05
  -0.3293877098E+01  -0.2000000000E+01  -0.8692551873E-04   0.2410724498E-03   0.0000000000E+00  -0.8692551873E-04   0.0000000000E+00   0.0000000000E+00   0.0000000000E+00   0.1114588921E+00  -0.1196365609E-01   0.2977154013E-05  -0.1794144751E-03   0.6400489597E-05  -0.4676618970E-04
  -0.3294182095E+01  -0.1797307449E+01   0.1998134743E+00   0.2381452450E-03  -0.1358592669E-03  -0.1865286633E-03   0.0000000000E+00   0.0000000000E+00   0.0000000000E+00   0.1105376367E+00  -0.1126523296E-01  -0.8020625055E-05  -0.8547905518E-03  -0.1210709416E-04   0.1246722825E-04
  -0.3293877855E+01  -0.2000000000E+01   0.1998137559E+00   0.2403145119E-03   0.0000000000E+00  -0.1862471174E-03   0.0000000000E+00   0.0000000000E+00   0.0000000000E+00   0.1112047229E+00  -0.1171612588E-01   0.1356448582E-04  -0.1770436077E-03  -0.1253345027E-04  -0.2769497238E-04
  -0.3500000000E+01  -0.1797703536E+01  -0.8784299720E-04   0.0000000000E+00  -0.1352162588E-03  -0.8784299720E-04   0.0000000000E+00   0.0000000000E+00   0.0000000000E+00   0.1103089558E+00  -0.1119306212E-01   0.2575205218E-05  -0.1045096033E-03   0.3974255721E-04  -0.4195134928E-05
  -0.3500000000E+01  -0.2000000000E+01  -0.8741465051E-04   0.0000000000E+00   0.0000000000E+00  -0.8741465051E-04   0.0000000000E+00   0.0000000000E+00   0.0000000000E+00   0.1109591925E+00  -0.1166603504E-01  -0.3857141490E-05   0.6303767966E-08   0.4575420345E-04  -0.4082344496E-04
  -0.3500000000E+01  -0.1797702852E+01   0.1998132069E+00   0.0000000000E+00  -0.1345323847E-03  -0.1867961190E-03   0.0000000000E+00   0.0000000000E+00   0.0000000000E+00   0.1100857316E+00  -0.1097473110E-01   0.1257467383E-04  -0.1023196699E-03   0.2401354943E-04   0.1214725960E-04
  -0.3500000000E+01  -0.2000000000E+01   0.1998134635E+00   0.0000000000E+00   0.0000000000E+00  -0.1865394843E-03   0.0000000000E+00   0.0000000000E+00   0.0000000000E+00   0.1107130205E+00  -0.1144248045E-01  -0.7442598248E-05   0.8570113962E-08   0.2722062930E-04  -0.2444968042E-04
  -0.8246059450E+00  -0.1563489106E+01   0.1288192314E-03   0.3716823041E-02  -0.3029360699E-03   0.1288192314E-03   0.0000000000E+00   0.0000000000E+00   0.0000000000E+00   0.1718614042E+00   0.1167815846E-01  -0.1750480538E-03  -0.4298799354E-02   0.1148694854E-02   0.3029713826E-03
  -0.8246454515E+00  -0.1563487669E+01   0.1999442980E+00   0.3677316473E-02  -0.3014993917E-03  -0.5570500429E-04   0.0000000000E+00   0.0000000000E+00   0.0000000000E+00   0.1715925987E+00   0.1311528218E-01  -0.2726276439E-03  -0.6799403056E-02  -0.2369265208E-04   0.3943767887E-03
  -0.1035719678E+01  -0.1566592646E+01   0.7790667730E-04   0.3365832302E-02  -0.3580558353E-03   0.7790667730E-04   0.0000000000E+00   0.0000000000E+00   0.0000000000E+00   0.1668273359E+00  -0.2427179760E-02   0.4020335913E-04  -0.8608968907E-02   0.9227571794E-03  -0.1979464634E-03
  -0.1035755748E+01  -0.1566585109E+01   0.1999130448E+00   0.3329761550E-02  -0.3505193592E-03  -0.8695824238E-04   0.0000000000E+00   0.0000000000E+00   0.0000000000E+00   0.1651484699E+00  -0.5004697764E-03  -0.1695997599E-03  -0.1008714696E-01  -0.2736399128E-04   0.1167143076E-03
  -0.1243137857E+01  -0.1569894614E+01   0.3471205442E-04   0.3020503491E-02  -0.3919041801E-03   0.3471205442E-04   0.0000000000E+00   0.0000000000E+00   0.0000000000E+00   0.1602973910E+00  -0.1258176755E-01  -0.1638668249E-04  -0.1215712120E-01   0.7867641745E-03  -0.2824940815E-03
  -0.1243167778E+01  -0.1569884092E+01   0.1998868385E+00   0.2990581616E-02  -0.3813816082E-03  -0.1131645010E-03   0.0000000000E+00   0.0000000000E+00   0.0000000000E+00   0.1582213261E+00  -0.1045892523E-01  -0.2030780026E-04  -0.1267501664E-01  -0.1096485382E-03   0.2575005958E-04
  -0.1449293953E+01  -0.1573034360E+01   0.3287340048E-06   0.2683297225E-02  -0.4052698584E-03   0.3287340048E-06   0.0000000000E+00   0.0000000000E+00   0.0000000000E+00   0.1527022236E+00  -0.1846379944E-01  -0.3871989648E-04  -0.1449975967E-01   0.5557860330E-03  -0.3019453690E-03
  -0.1449317605E+01  -0.1573023507E+01   0.1998661150E+00   0.2659644895E-02  -0.3944167846E-03  -0.1338880315E-03   0.0000000000E+00   0.0000000000E+00   0.0000000000E+00   0.1506641605E+00  -0.1651073867E-01  -0.8478363225E-04  -0.1437227112E-01  -0.1505966072E-03   0.1861636225E-04
  -0.1654242408E+01  -0.1575737144E+01  -0.2584583504E-04   0.2359502010E-02  -0.4023542264E-03  -0.2584583504E-04   0.0000000000E+00   0.0000000000E+00   0.0000000000E+00   0.1448886757E+00  -0.2099757210E-01  -0.3214077751E-05  -0.1534043128E-01   0.4290735419E-03  -0.2504387363E-03
  -0.1654260243E+01  -0.1575727223E+01   0.1998503783E+00   0.2341667049E-02  -0.3924334248E-03  -0.1496247112E-03   0.0000000000E+00   0.0000000000E+00   0.0000000000E+00   0.1432054481E+00  -0.1932369263E-01   0.3140427704E-04  -0.1491071605E-01  -0.1193296320E-03   0.3815487282E-04
  -0.1859701043E+01  -0.1578637240E+01  -0.4546287925E-04   0.2049206574E-02  -0.3882602980E-03  -0.4546287925E-04   0.0000000000E+00   0.0000000000E+00   0.0000000000E+00   0.1373679439E+00  -0.2125366423E-01   0.4416746611E-05  -0.1495288841E-01   0.3100836178E-03  -0.2264651426E-03
  -0.1859714297E+01  -0.1578628967E+01   0.1998385984E+00   0.2035953353E-02  -0.3799866487E-03  -0.1614046009E-03   0.0000000000E+00   0.0000000000E+00   0.0000000000E+00   0.1360046999E+00  -0.1993160484E-01   0.2744940902E-05  -0.1441440934E-01  -0.9586529776E-04   0.3070679126E-04
  -0.2064915941E+01  -0.1581436264E+01  -0.5980960255E-04   0.1754478503E-02  -0.3681036845E-03  -0.5980960255E-04   0.0000000000E+00   0.0000000000E+00   0.0000000000E+00   0.1304629781E+00  -0.2008527069E-01   0.2217240268E-05  -0.1370593165E-01   0.2379793479E-03  -0.1721096922E-03
  -0.2064925466E+01  -0.1581429637E+01   0.1998300120E+00   0.1744953665E-02  -0.3614769605E-03  -0.1699909950E-03   0.0000000000E+00   0.0000000000E+00   0.0000000000E+00   0.1294288469E+00  -0.1906217128E-01   0.2742328673E-04  -0.1318737409E-01  -0.6245898057E-04   0.3276042498E-04
  -0.2269982172E+01  -0.1584173164E+01  -0.7008046202E-04   0.1474548403E-02  -0.3457835165E-03  -0.7008046202E-04   0.0000000000E+00   0.0000000000E+00   0.0000000000E+00   0.1244395056E+00  -0.1817916040E-01  -0.7563464972E-05  -0.1191743129E-01   0.1568281638E-03  -0.1353459574E-03
  -0.2269988976E+01  -0.1584168098E+01   0.1998238571E+00   0.1467743950E-02  -0.3407183376E-03  -0.1761459340E-03   0.0000000000E+00   0.0000000000E+00   0.0000000000E+00   0.1236464965E+00  -0.1742641680E-01  -0.1387727356E-04  -0.1146762161E-01  -0.4954464915E-04   0.2602926774E-04
  -0.2474994703E+01  -0.1586868722E+01  -0.7727296872E-04   0.1208027282E-02  -0.3239718606E-03  -0.7727296872E-04   0.0000000000E+00   0.0000000000E+00   0.0000000000E+00   0.1194088410E+00  -0.1603585612E-01   0.4577787791E-05  -0.9884330616E-02   0.1164287408E-03  -0.9616401336E-04
  -0.2474999397E+01  -0.1586864888E+01   0.1998195429E+00   0.1203333034E-02  -0.3201384112E-03  -0.1804600732E-03   0.0000000000E+00   0.0000000000E+00   0.0000000000E+00   0.1188358729E+00  -0.1547115371E-01   0.2113666032E-04  -0.9527250084E-02  -0.3052958745E-04   0.2416847050E-04
  -0.2680004317E+01  -0.1589472617E+01  -0.8223325582E-04   0.9527633688E-03  -0.3045469771E-03  -0.8223325582E-04   0.0000000000E+00   0.0000000000E+00   0.0000000000E+00   0.1153593955E+00  -0.1398899619E-01  -0.5012531323E-05  -0.7794083530E-02   0.7411188777E-04  -0.7574410519E-04
  -0.2680007527E+01  -0.1589469786E+01   0.1998165705E+00   0.9495531203E-03  -0.3017158021E-03  -0.1834325114E-03   0.0000000000E+00   0.0000000000E+00   0.0000000000E+00   0.1149283575E+00  -0.1358600455E-01  -0.9469685978E-05  -0.7522802029E-02  -0.2349216909E-04   0.1608163742E-04
  -0.2885044163E+01  -0.1591848937E+01  -0.8552355069E-04   0.7066068955E-03  -0.2885769383E-03  -0.8552355069E-04   0.0000000000E+00   0.0000000000E+00   0.0000000000E+00   0.1122777087E+00  -0.1223382371E-01   0.3400569694E-05  -0.5736417519E-02   0.5069905575E-04  -0.5316565153E-04
  -0.2885046230E+01  -0.1591846802E+01   0.1998145970E+00   0.7045402453E-03  -0.2864419901E-03  -0.1854059973E-03   0.0000000000E+00   0.0000000000E+00   0.0000000000E+00   0.1119670107E+00  -0.1192964078E-01   0.1487488924E-04  -0.5546196223E-02  -0.1394079236E-04   0.1424936443E-04
  -0.3090121372E+01  -0.1593805911E+01  -0.8760135370E-04   0.4671979653E-03  -0.2768010492E-03  -0.8760135370E-04   0.0000000000E+00   0.0000000000E+00   0.0000000000E+00   0.1101113056E+00  -0.1091337769E-01  -0.3692691311E-05  -0.3776443079E-02   0.3086515319E-04  -0.4430459288E-04
  -0.3090122617E+01  -0.1593804276E+01   0.1998133526E+00   0.4659526672E-03  -0.2751658950E-03  -0.1866503680E-03   0.0000000000E+00   0.0000000000E+00   0.0000000000E+00   0.1098666848E+00  -0.1069022658E-01  -0.7363747994E-05  -0.3654054852E-02  -0.8082470235E-05   0.9264410347E-05
  -0.3295169932E+01  -0.1595172060E+01  -0.8872893253E-04   0.2323584434E-03  -0.2695399204E-03  -0.8872893253E-04   0.0000000000E+00   0.0000000000E+00   0.0000000000E+00   0.1088354719E+00  -0.1009285347E-01   0.2738239425E-05  -0.1805747205E-02   0.4893549639E-05  -0.3423643876E-04
  -0.3295170505E+01  -0.1595170687E+01   0.1998126766E+00   0.2317852661E-03  -0.2681672764E-03  -0.1873264295E-03   0.0000000000E+00   0.0000000000E+00   0.0000000000E+00   0.1086413088E+00  -0.9903041434E-02   0.1196152001E-04  -0.1750687017E-02  -0.9395069682E-05   0.9158632480E-05
  -0.3500000000E+01  -0.1595819566E+01  -0.8909050900E-04   0.0000000000E+00  -0.2670059618E-03  -0.8909050900E-04   0.0000000000E+00   0.0000000000E+00   0.0000000000E+00   0.1084109188E+00  -0.9819603879E-02  -0.2815406332E-05  -0.1976518545E-03   0.3447729599E-04  -0.3477722817E-04
  -0.3500000000E+01  -0.1595818298E+01   0.1998124599E+00   0.0000000000E+00  -0.2657381042E-03  -0.1875430868E-03   0.0000000000E+00   0.0000000000E+00   0.0000000000E+00   0.1082235882E+00  -0.9650707833E-02  -0.5953710661E-05  -0.1852522539E-03   0.2061690877E-04   0.6900834617E-05
  -0.8379245121E+00  -0.1345116702E+01   0.1211126094E-03   0.3559855879E-02  -0.4778823820E-03   0.1211126094E-03   0.0000000000E+00   0.0000000000E+00   0.0000000000E+00   0.1738834514E+00   0.6618269264E-02   0.5361343711E-03  -0.1320832829E-01   0.1485312263E-02  -0.3908435500E-03
  -0.8379740480E+00  -0.1345108197E+01   0.1999403314E+00   0.3510319976E-02  -0.4693770152E-03  -0.5967163758E-04   0.0000000000E+00   0.0000000000E+00   0.0000000000E+00   0.1720738680E+00   0.9753914831E-02  -0.4981203811E-04  -0.1702763022E-01   0.5823857787E-03   0.5326679809E-03
  -0.1052765546E+01  -0.1354492549E+01   0.5827468498E-04   0.3201783767E-02  -0.5503889709E-03   0.5827468498E-04   0.0000000000E+00   0.0000000000E+00   0.0000000000E+00   0.1649191605E+00  -0.8374366715E-02  -0.1381380505E-03  -0.1680118670E-01   0.1244340273E-02  -0.3996455745E-03
  -0.1052805931E+01  -0.1354476054E+01   0.1999015232E+00   0.3161399382E-02  -0.5338936354E-03  -0.9847980017E-04   0.0000000000E+00   0.0000000000E+00   0.0000000000E+00   0.1617451053E+00  -0.5040044049E-02  -0.2592711289E-03  -0.1828365135E-01   0.1278615018E-03   0.1094246020E-03
  -0.1262452205E+01  -0.1361680301E+01   0.1215303121E-04   0.2858085025E-02  -0.5896413528E-03   0.1215303121E-04   0.0000000000E+00   0.0000000000E+00   0.0000000000E+00   0.1555841975E+00  -0.1639199097E-01   0.8373656641E-05  -0.2092179457E-01   0.7177448763E-03  -0.5335929567E-03
  -0.1262482680E+01  -0.1361661899E+01   0.1998732114E+00   0.2827610208E-02  -0.5712390502E-03  -0.1267916377E-03   0.0000000000E+00   0.0000000000E+00   0.0000000000E+00   0.1524095986E+00  -0.1354025368E-01  -0.1045983348E-03  -0.2105277279E-01  -0.9898292360E-04   0.6275351445E-04
  -0.1465629578E+01  -0.1366002778E+01  -0.2036128000E-04   0.2536062331E-02  -0.6007980915E-03  -0.2036128000E-04   0.0000000000E+00   0.0000000000E+00   0.0000000000E+00   0.1464914690E+00  -0.2016463207E-01   0.1563721178E-04  -0.2305621071E-01   0.5342141686E-03  -0.4531308207E-03
  -0.1465651542E+01  -0.1365985215E+01   0.1998535527E+00   0.2514098411E-02  -0.5832354886E-03  -0.1464503318E-03   0.0000000000E+00   0.0000000000E+00   0.0000000000E+00   0.1440247781E+00  -0.1786872420E-01   0.8388501932E-04  -0.2247136986E-01  -0.1479939184E-03   0.5498185744E-04
  -0.1668693553E+01  -0.1369554790E+01  -0.4349224056E-04   0.2229087431E-02  -0.5910698080E-03  -0.4349224056E-04   0.0000000000E+00   0.0000000000E+00   0.0000000000E+00   0.1379677221E+00  -0.2089999037E-01   0.1012284391E-04  -0.2337542195E-01   0.3576639878E-03  -0.4092275612E-03
  -0.1668709126E+01  -0.1369539768E+01   0.1998397009E+00   0.2213513541E-02  -0.5760480258E-03  -0.1603020525E-03   0.0000000000E+00   0.0000000000E+00   0.0000000000E+00   0.1360773628E+00  -0.1916747293E-01   0.1087455368E-04  -0.2247769037E-01  -0.1303720428E-03   0.5689017742E-04
  -0.1873331435E+01  -0.1373513215E+01  -0.5973818086E-04   0.1936185170E-02  -0.5668347463E-03  -0.5973818086E-04   0.0000000000E+00   0.0000000000E+00   0.0000000000E+00   0.1303720188E+00  -0.1988858510E-01  -0.1411474378E-04  -0.2204711517E-01   0.2614897338E-03  -0.3018298788E-03
  -0.1873342131E+01  -0.1373501014E+01   0.1998300356E+00   0.1925488948E-02  -0.5546337234E-03  -0.1699673641E-03   0.0000000000E+00   0.0000000000E+00   0.0000000000E+00   0.1290421518E+00  -0.1863109137E-01   0.1667994618E-04  -0.2113209261E-01  -0.8402010982E-04   0.6975030958E-04
  -0.2078489648E+01  -0.1377614004E+01  -0.7083636435E-04   0.1658091750E-02  -0.5352344303E-03  -0.7083636435E-04   0.0000000000E+00   0.0000000000E+00   0.0000000000E+00   0.1239430790E+00  -0.1793836934E-01  -0.4242506862E-05  -0.1971495523E-01   0.1617922985E-03  -0.2351565138E-03
  -0.2078496992E+01  -0.1377604611E+01   0.1998233922E+00   0.1650747756E-02  -0.5258412882E-03  -0.1766107666E-03   0.0000000000E+00   0.0000000000E+00   0.0000000000E+00   0.1229850490E+00  -0.1705059791E-01  -0.1177894486E-04  -0.1889804101E-01  -0.6052195735E-04   0.6079621488E-04
  -0.2282006514E+01  -0.1381038989E+01  -0.7830475318E-04   0.1395925805E-02  -0.5024289944E-03  -0.7830475318E-04   0.0000000000E+00   0.0000000000E+00   0.0000000000E+00   0.1186367712E+00  -0.1568394437E-01   0.4980611949E-05  -0.1689451916E-01   0.1218219028E-03  -0.1635138140E-03
  -0.2282011437E+01  -0.1381031845E+01   0.1998189230E+00   0.1391002975E-02  -0.4952852144E-03  -0.1810799997E-03   0.0000000000E+00   0.0000000000E+00   0.0000000000E+00   0.1179897304E+00  -0.1504539252E-01   0.2555684138E-04  -0.1622748171E-01  -0.3526250650E-04   0.5389992399E-04
  -0.2485091630E+01  -0.1384247374E+01  -0.8334213802E-04   0.1145899919E-02  -0.4714238736E-03  -0.8334213802E-04   0.0000000000E+00   0.0000000000E+00   0.0000000000E+00   0.1143645078E+00  -0.1345876861E-01  -0.5526096265E-05  -0.1390094764E-01   0.7631197859E-04  -0.1298803810E-03
  -0.2485094945E+01  -0.1384242103E+01   0.1998159099E+00   0.1142585143E-02  -0.4661528519E-03  -0.1840930602E-03   0.0000000000E+00   0.0000000000E+00   0.0000000000E+00   0.1139002081E+00  -0.1302295794E-01  -0.1189701753E-04  -0.1337968950E-01  -0.2439302463E-04   0.3747294564E-04
  -0.2688078772E+01  -0.1387287343E+01  -0.8665013740E-04   0.9056175976E-03  -0.4441434214E-03  -0.8665013740E-04   0.0000000000E+00   0.0000000000E+00   0.0000000000E+00   0.1110234943E+00  -0.1145783482E-01   0.2274908484E-05  -0.1090711114E-01   0.5357353743E-04  -0.8809677989E-04
  -0.2688080911E+01  -0.1387283431E+01   0.1998139261E+00   0.9034794054E-03  -0.4402314806E-03  -0.1860769055E-03   0.0000000000E+00   0.0000000000E+00   0.0000000000E+00   0.1107087874E+00  -0.1114878813E-01   0.1271953963E-04  -0.1052100040E-01  -0.1364147429E-04   0.3152070526E-04
  -0.2891072277E+01  -0.1390044209E+01  -0.8878104892E-04   0.6728130604E-03  -0.4219994736E-03  -0.8878104892E-04   0.0000000000E+00   0.0000000000E+00   0.0000000000E+00   0.1085185303E+00  -0.9822186582E-02  -0.4044790125E-05  -0.8005389837E-02   0.3034201992E-04  -0.7039493557E-04
  -0.2891073637E+01  -0.1390041331E+01   0.1998126492E+00   0.6714532018E-03  -0.4191212822E-03  -0.1873537608E-03   0.0000000000E+00   0.0000000000E+00   0.0000000000E+00   0.1082914979E+00  -0.9613555097E-02  -0.8598919239E-05  -0.7734337780E-02  -0.1048625830E-04   0.2115834072E-04
  -0.3094101528E+01  -0.1392330190E+01  -0.9007074112E-04   0.4455023323E-03  -0.4056898221E-03  -0.9007074112E-04   0.0000000000E+00   0.0000000000E+00   0.0000000000E+00   0.1067859009E+00  -0.8612133444E-02   0.1766447849E-05  -0.5266270859E-02   0.2119103726E-04  -0.4889551687E-04
  -0.3094102305E+01  -0.1392327963E+01   0.1998118755E+00   0.4447246232E-03  -0.4034630556E-03  -0.1881275415E-03   0.0000000000E+00   0.0000000000E+00   0.0000000000E+00   0.1066282299E+00  -0.8457444843E-02   0.9309526922E-05  -0.5095124284E-02  -0.3982931688E-05   0.1895183424E-04
  -0.3297131009E+01  -0.1393960164E+01  -0.9076623579E-04   0.2217810416E-03  -0.3957035036E-03  -0.9076623579E-04   0.0000000000E+00   0.0000000000E+00   0.0000000000E+00   0.1057667497E+00  -0.7878587848E-02  -0.3698434696E-05  -0.2512643322E-02   0.2898804579E-05  -0.4456860290E-04
  -0.3297131370E+01  -0.1393958345E+01   0.1998114593E+00   0.2214202129E-03  -0.3938846457E-03  -0.1885436793E-03   0.0000000000E+00   0.0000000000E+00   0.0000000000E+00   0.1056374283E+00  -0.7764660640E-02  -0.7868150379E-05  -0.2431626650E-02  -0.5929167285E-05   0.1347025143E-04
  -0.3500000000E+01  -0.1394737491E+01  -0.9097593679E-04   0.0000000000E+00  -0.3922113394E-03  -0.9097593679E-04   0.0000000000E+00   0.0000000000E+00   0.0000000000E+00   0.1054339355E+00  -0.7631877897E-02   0.1639688437E-05  -0.2898046559E-03   0.1918313586E-04  -0.3730706492E-04
  -0.3500000000E+01  -0.1394735778E+01   0.1998113329E+00   0.0000000000E+00  -0.3904984055E-03  -0.1886700624E-03   0.0000000000E+00   0.0000000000E+00   0.0000000000E+00   0.1053222265E+00  -0.7522520166E-02   0.8328808817E-05  -0.2840292365E-03   0.1169698052E-04   0.1492684994E-04
  -0.8666100380E+00  -0.1126996057E+01   0.8743765120E-04   0.3280473000E-02  -0.6749769334E-03   0.8743765120E-04   0.0000000000E+00   0.0000000000E+00   0.0000000000E+00   0.1687570807E+00  -0.3893978861E-02  -0.1372639976E-02  -0.2278275788E-01   0.3176143646E-02   0.1482553668E-03
  -0.8666699068E+00  -0.1126969995E+01   0.1999226951E+00   0.3220604166E-02  -0.6489154806E-03  -0.7730786107E-04   0.0000000000E+00   0.0000000000E+00   0.0000000000E+00   0.1640284815E+00   0.2919944132E-02  -0.2296101838E-02  -0.2565590287E-01   0.1587290871E-02   0.8883342079E-03
  -0.1081940514E+01  -0.1146971384E+01   0.2088553994E-04   0.2947466253E-02  -0.7498640567E-03   0.2088553994E-04   0.0000000000E+00   0.0000000000E+00   0.0000000000E+00   0.1555943209E+00  -0.1337951505E-01   0.3210251164E-03  -0.2889581256E-01   0.6435751196E-03  -0.9450208329E-03
  -0.1081982712E+01  -0.1146942054E+01   0.1998788099E+00   0.2905267906E-02  -0.7205338074E-03  -0.1211931248E-03   0.0000000000E+00   0.0000000000E+00   0.0000000000E+00   0.1500393669E+00  -0.8946626922E-02   0.7220406919E-04  -0.2952950132E-01   0.2253610526E-03   0.1597517161E-03
  -0.1292433587E+01  -0.1158151253E+01  -0.2359043993E-04   0.2624662900E-02  -0.7837830394E-03  -0.2359043993E-04   0.0000000000E+00   0.0000000000E+00   0.0000000000E+00   0.1450489188E+00  -0.1995914531E-01  -0.1964456829E-03  -0.3088788827E-01   0.9449478556E-03  -0.5833770182E-03
  -0.1292461205E+01  -0.1158122494E+01   0.1998519044E+00   0.2597045120E-02  -0.7550237512E-03  -0.1480986290E-03   0.0000000000E+00   0.0000000000E+00   0.0000000000E+00   0.1413811544E+00  -0.1608561213E-01  -0.6543930945E-04  -0.2999613292E-01  -0.6219492615E-04   0.1897084495E-03
  -0.1486772357E+01  -0.1161914244E+01  -0.5024862163E-04   0.2336203017E-02  -0.7869144063E-03  -0.5024862163E-04   0.0000000000E+00   0.0000000000E+00   0.0000000000E+00   0.1354727524E+00  -0.2061305477E-01   0.3387976882E-04  -0.3213251406E-01   0.2956974875E-03  -0.6344483221E-03
  -0.1486790657E+01  -0.1161889689E+01   0.1998355043E+00   0.2317903136E-02  -0.7623590823E-03  -0.1644986554E-03   0.0000000000E+00   0.0000000000E+00   0.0000000000E+00   0.1325113353E+00  -0.1827239733E-01  -0.5617166337E-05  -0.3066763736E-01  -0.1463436194E-03   0.1273908843E-03
  -0.1685172146E+01  -0.1164728028E+01  -0.6771357789E-04   0.2058083808E-02  -0.7670981461E-03  -0.6771357789E-04   0.0000000000E+00   0.0000000000E+00   0.0000000000E+00   0.1271210894E+00  -0.1958896349E-01  -0.3421357910E-04  -0.3097182609E-01   0.2974961039E-03  -0.4236114841E-03
  -0.1685183392E+01  -0.1164707776E+01   0.1998252278E+00   0.2046838383E-02  -0.7468457891E-03  -0.1747751552E-03   0.0000000000E+00   0.0000000000E+00   0.0000000000E+00   0.1253564208E+00  -0.1778732522E-01   0.7926168022E-04  -0.2944878390E-01  -0.1243719103E-03   0.1700385878E-03
  -0.1891013634E+01  -0.1170373332E+01  -0.7837742048E-04   0.1788965731E-02  -0.7294524290E-03  -0.7837742048E-04   0.0000000000E+00   0.0000000000E+00   0.0000000000E+00   0.1203375530E+00  -0.1718141002E-01   0.1548012946E-04  -0.2829323452E-01   0.1289023279E-03  -0.3532664585E-03
  -0.1891020601E+01  -0.1170357933E+01   0.1998188134E+00   0.1781998927E-02  -0.7140531649E-03  -0.1811895716E-03   0.0000000000E+00   0.0000000000E+00   0.0000000000E+00   0.1191469671E+00  -0.1614465573E-01   0.6343472489E-05  -0.2692176590E-01  -0.6863057496E-04   0.1192080763E-03
  -0.2097995314E+01  -0.1176440090E+01  -0.8481495179E-04   0.1532996160E-02  -0.6850695486E-03  -0.8481495179E-04   0.0000000000E+00   0.0000000000E+00   0.0000000000E+00   0.1149900232E+00  -0.1463718066E-01  -0.8315536272E-05  -0.2467847926E-01   0.1097926541E-03  -0.2497050012E-03
  -0.2097999427E+01  -0.1176428467E+01   0.1998150416E+00   0.1528883300E-02  -0.6734471540E-03  -0.1849614242E-03   0.0000000000E+00   0.0000000000E+00   0.0000000000E+00   0.1142990070E+00  -0.1390053572E-01   0.2988747876E-04  -0.2357276973E-01  -0.3850733586E-04   0.1033203560E-03
  -0.2298137396E+01  -0.1179781220E+01  -0.8861053601E-04   0.1295593985E-02  -0.6435100710E-03  -0.8861053601E-04   0.0000000000E+00   0.0000000000E+00   0.0000000000E+00   0.1109209397E+00  -0.1212616185E-01   0.5186985103E-05  -0.2087035033E-01   0.5014446464E-04  -0.2059738799E-03
  -0.2298139896E+01  -0.1179772688E+01   0.1998127477E+00   0.1293093691E-02  -0.6349778254E-03  -0.1872553327E-03   0.0000000000E+00   0.0000000000E+00   0.0000000000E+00   0.1104627397E+00  -0.1170158441E-01  -0.2981957851E-05  -0.1999811273E-01  -0.1786339676E-04   0.6561435337E-04
  -0.2498258868E+01  -0.1183070420E+01  -0.9084665997E-04   0.1067362103E-02  -0.6048704894E-03  -0.9084665997E-04   0.0000000000E+00   0.0000000000E+00   0.0000000000E+00   0.1077867516E+00  -0.9945808983E-02  -0.1025320291E-05  -0.1700268472E-01   0.4024900990E-04  -0.1373433691E-03
  -0.2498260282E+01  -0.1183064127E+01   0.1998114242E+00   0.1065948157E-02  -0.5985772528E-03  -0.1885787599E-03   0.0000000000E+00   0.0000000000E+00   0.0000000000E+00   0.1075169555E+00  -0.9655576230E-02   0.1199252816E-04  -0.1634480891E-01  -0.8835150252E-05   0.5489599690E-04
  -0.2698393934E+01  -0.1186248295E+01  -0.9208781698E-04   0.8462759120E-03  -0.5714851867E-03  -0.9208781698E-04   0.0000000000E+00   0.0000000000E+00   0.0000000000E+00   0.1054316653E+00  -0.8097251333E-02   0.7297412063E-06  -0.1326190215E-01   0.1586880805E-04  -0.1093940504E-03
  -0.2698394741E+01  -0.1186243766E+01   0.1998106688E+00   0.8454693319E-03  -0.5669560140E-03  -0.1893341625E-03   0.0000000000E+00   0.0000000000E+00   0.0000000000E+00   0.1052575513E+00  -0.7936169358E-02  -0.4504624177E-05  -0.1278005782E-01  -0.4891530972E-05   0.3424626526E-04
  -0.2898572274E+01  -0.1189191793E+01  -0.9274942740E-04   0.6305464896E-03  -0.5445230660E-03  -0.9274942740E-04   0.0000000000E+00   0.0000000000E+00   0.0000000000E+00   0.1037119182E+00  -0.6659715251E-02   0.1159590932E-05  -0.9703944955E-02   0.1239083468E-04  -0.7322167959E-04
  -0.2898572680E+01  -0.1189188447E+01   0.1998102756E+00   0.6301397674E-03  -0.5411765061E-03  -0.1897273988E-03   0.0000000000E+00   0.0000000000E+00   0.0000000000E+00   0.1036177076E+00  -0.6556381821E-02   0.8601081450E-05  -0.9371284304E-02  -0.1828387163E-05   0.2888330592E-04
  -0.3098835086E+01  -0.1191715044E+01  -0.9307374398E-04   0.4185635338E-03  -0.5248040135E-03  -0.9307374398E-04   0.0000000000E+00   0.0000000000E+00   0.0000000000E+00   0.1025422966E+00  -0.5622710263E-02  -0.6682230222E-06  -0.6375263345E-02   0.4104946220E-05  -0.6144947171E-04
  -0.3098835291E+01  -0.1191712543E+01   0.1998100770E+00   0.4183594777E-03  -0.5223033664E-03  -0.1899259645E-03   0.0000000000E+00   0.0000000000E+00   0.0000000000E+00   0.1024843772E+00  -0.5573373338E-02  -0.4188280779E-05  -0.6163932241E-02  -0.9696370874E-06   0.1812655034E-04
  -0.3299252484E+01  -0.1193598328E+01  -0.9321292395E-04   0.2088755399E-03  -0.5126584543E-03  -0.9321292395E-04   0.0000000000E+00   0.0000000000E+00   0.0000000000E+00   0.1018661160E+00  -0.5005070667E-02   0.1217173672E-05  -0.3042418230E-02   0.1469733560E-05  -0.4491566420E-04
  -0.3299252560E+01  -0.1193596265E+01   0.1998099955E+00   0.2088002839E-03  -0.5105945711E-03  -0.1900074863E-03   0.0000000000E+00   0.0000000000E+00   0.0000000000E+00   0.1018380315E+00  -0.4972722470E-02   0.6615903321E-05  -0.2947534174E-02  -0.1044115250E-05   0.1795066047E-04
  -0.3500000000E+01  -0.1194632249E+01  -0.9324783960E-04   0.0000000000E+00  -0.5083894282E-03  -0.9324783960E-04   0.0000000000E+00   0.0000000000E+00   0.0000000000E+00   0.1016440140E+00  -0.4801930607E-02  -0.1467143281E-05  -0.3519353672E-03   0.4309087102E-05  -0.4665584564E-04
  -0.3500000000E+01  -0.1194630363E+01   0.1998099730E+00   0.0000000000E+00  -0.5065031259E-03  -0.1900300427E-03   0.0000000000E+00   0.0000000000E+00   0.0000000000E+00   0.1016178775E+00  -0.4784135295E-02  -0.4948370213E-05  -0.3296995843E-03   0.3128920840E-05   0.1347353340E-04
  -0.3304248510E+01  -0.9948085384E+00  -0.9573704449E-04   0.1919904191E-03  -0.6183224040E-03  -0.9573704449E-04   0.0000000000E+00   0.0000000000E+00   0.0000000000E+00   0.9748103569E-01  -0.1683209872E-02  -0.1309029702E-05  -0.3297738348E-02  -0.1535734242E-05  -0.4959800067E-04
  -0.3500000000E+01  -0.9956235499E+00  -0.9557500839E-04   0.0000000000E+00  -0.6138298820E-03  -0.9557500839E-04   0.0000000000E+00   0.0000000000E+00   0.0000000000E+00   0.9738996439E-01  -0.1526829787E-02   0.3140631414E-05  -0.4060084116E-03  -0.1601402544E-04  -0.3971674784E-04
  -0.3304248271E+01  -0.9948065780E+00   0.1998084851E+00   0.1922290595E-03  -0.6163619661E-03  -0.1915179124E-03   0.0000000000E+00   0.0000000000E+00   0.0000000000E+00   0.9756061282E-01  -0.1757875643E-02  -0.2228712836E-05  -0.3188888841E-02   0.4006550544E-05   0.1304915364E-04
  -0.3500000000E+01  -0.9956217208E+00   0.1998085788E+00   0.0000000000E+00  -0.6120008350E-03  -0.1914242476E-03   0.0000000000E+00   0.0000000000E+00   0.0000000000E+00   0.9747435149E-01  -0.1605309871E-02   0.5703365297E-05  -0.3991266782E-03  -0.8639905294E-05   0.1565735293E-04
  -0.3310329617E+01  -0.7966484336E+00  -0.9795047215E-04   0.1743430009E-03  -0.7123256220E-03  -0.9795047215E-04   0.0000000000E+00   0.0000000000E+00   0.0000000000E+00   0.9300230198E-01   0.1864824342E-02   0.1066122241E-05  -0.3276609145E-02  -0.4404800047E-05  -0.3475400345E-04
  -0.3500000000E+01  -0.7971666575E+00  -0.9761470349E-04   0.0000000000E+00  -0.7079954519E-03  -0.9761470349E-04   0.0000000000E+00   0.0000000000E+00   0.0000000000E+00   0.9303388564E-01   0.1964891635E-02   0.1238347115E-06  -0.4123294125E-03  -0.3349258698E-04  -0.3721549166E-04
  -0.3310329058E+01  -0.7966468496E+00   0.1998071577E+00   0.1749015938E-03  -0.7107416109E-03  -0.1928453192E-03   0.0000000000E+00   0.0000000000E+00   0.0000000000E+00   0.9320039007E-01   0.1674890981E-02   0.1262108771E-05  -0.3172775636E-02   0.9394532917E-05   0.1211559844E-04
  -0.3500000000E+01  -0.7971652571E+00   0.1998073586E+00   0.0000000000E+00  -0.7065950563E-03  -0.1926444495E-03   0.0000000000E+00   0.0000000000E+00   0.0000000000E+00   0.9323043786E-01   0.1775549723E-02  -0.6791971573E-06  -0.3876653084E-03  -0.2003063016E-04   0.7677944837E-05
  -0.3316374474E+01  -0.5983962190E+00  -0.9944722096E-04   0.1581355781E-03  -0.7951029667E-03  -0.9944722096E-04   0.0000000000E+00   0.0000000000E+00   0.0000000000E+00   0.8886156959E-01   0.5366601847E-02  -0.5521919012E-07  -0.2994233078E-02  -0.7014213106E-05  -0.2358301651E-04
  -0.3500000000E+01  -0.5986648520E+00  -0.9895707052E-04   0.0000000000E+00  -0.7910450067E-03  -0.9895707052E-04   0.0000000000E+00   0.0000000000E+00   0.0000000000E+00   0.8900840706E-01   0.5417671241E-02   0.1504427160E-05  -0.4181652048E-03  -0.5118916873E-04  -0.1436875295E-04
  -0.3316373623E+01  -0.5983954160E+00   0.1998062589E+00   0.1589867212E-03  -0.7943000408E-03  -0.1937440661E-03   0.0000000000E+00   0.0000000000E+00   0.0000000000E+00   0.8917440238E-01   0.5059524451E-02  -0.1280649752E-05  -0.2895189314E-02   0.1389160851E-04   0.2274930049E-05
  -0.3500000000E+01  -0.5986641553E+00   0.1998065516E+00   0.0000000000E+00  -0.7903482681E-03  -0.1934514159E-03   0.0000000000E+00   0.0000000000E+00   0.0000000000E+00   0.8931557718E-01   0.5116538554E-02   0.1010797360E-05  -0.4133354808E-03  -0.3038980047E-04   0.4935847098E-05
  -0.3321199099E+01  -0.3995769969E+00  -0.9980730601E-04   0.1452813653E-03  -0.8676999407E-03  -0.9980730601E-04   0.0000000000E+00   0.0000000000E+00   0.0000000000E+00   0.8550171699E-01   0.8554524443E-02   0.3271673408E-06  -0.2506999899E-02  -0.9489995122E-05   0.8181785084E-05
  -0.3500000000E+01  -0.3997665897E+00  -0.9919670448E-04   0.0000000000E+00  -0.8640547038E-03  -0.9919670448E-04   0.0000000000E+00   0.0000000000E+00   0.0000000000E+00   0.8574285692E-01   0.8556222725E-02  -0.4266716737E-06  -0.3804419085E-03  -0.6500994134E-04   0.5035395788E-05
  -0.3321198001E+01  -0.3995772464E+00   0.1998060406E+00   0.1463789725E-03  -0.8679494032E-03  -0.1939624086E-03   0.0000000000E+00   0.0000000000E+00   0.0000000000E+00   0.8591563285E-01   0.8141238107E-02  -0.2114242302E-05  -0.2431309314E-02   0.1779632293E-04  -0.1588375663E-05
  -0.3500000000E+01  -0.3997669742E+00   0.1998064073E+00   0.0000000000E+00  -0.8644392361E-03  -0.1935956638E-03   0.0000000000E+00   0.0000000000E+00   0.0000000000E+00   0.8614850532E-01   0.8154151083E-02  -0.1493986322E-05  -0.3598724933E-03  -0.3929375247E-04  -0.5592607591E-05
  -0.3323336621E+01  -0.1997607830E+00  -0.9864500619E-04   0.1375490527E-03  -0.9322050024E-03  -0.9864500619E-04   0.0000000000E+00   0.0000000000E+00   0.0000000000E+00   0.8334095365E-01   0.1115388126E-01  -0.1260583792E-05  -0.1856047878E-02  -0.1038208018E-04   0.3612324268E-04
  -0.3500000000E+01  -0.2001024496E+00  -0.9794085331E-04   0.0000000000E+00  -0.9288646276E-03  -0.9794085331E-04   0.0000000000E+00   0.0000000000E+00   0.0000000000E+00   0.8365725351E-01   0.1112228269E-01  -0.6929752166E-07  -0.3561919625E-03  -0.7660256074E-04   0.4313981903E-04
  -0.3323335333E+01  -0.1997624228E+00   0.1998067374E+00   0.1388370842E-03  -0.9338447629E-03  -0.1932656391E-03   0.0000000000E+00   0.0000000000E+00   0.0000000000E+00   0.8383334911E-01   0.1066018286E-01  -0.4011829606E-05  -0.1801077953E-02   0.2072326821E-04  -0.1268329662E-04
  -0.3500000000E+01  -0.2001041306E+00   0.1998071592E+00   0.0000000000E+00  -0.9305456367E-03  -0.1928437741E-03   0.0000000000E+00   0.0000000000E+00   0.0000000000E+00   0.8413589260E-01   0.1064150512E-01  -0.3004211995E-05  -0.3575896216E-03  -0.4568980023E-04  -0.9926584040E-05
  -0.3108813145E+01  -0.9933336862E+00  -0.9618339855E-04   0.3842352449E-03  -0.6312021790E-03  -0.9618339855E-04   0.0000000000E+00   0.0000000000E+00   0.0000000000E+00   0.9777435340E-01  -0.2152989614E-02   0.2455224667E-05  -0.6930376614E-02  -0.1161852263E-04  -0.5559965348E-04
  -0.3108812684E+01  -0.9933312009E+00   0.1998082158E+00   0.3846963487E-03  -0.6287169440E-03  -0.1917871865E-03   0.0000000000E+00   0.0000000000E+00   0.0000000000E+00   0.9784397801E-01  -0.2217088995E-02   0.3464788303E-05  -0.6699537466E-02   0.3852606745E-05   0.2031830921E-04
  -0.3120760417E+01  -0.7956947938E+00  -0.9895720705E-04   0.3485927841E-03  -0.7251158035E-03  -0.9895720705E-04   0.0000000000E+00   0.0000000000E+00   0.0000000000E+00   0.9290850619E-01   0.1550420441E-02  -0.7558921630E-07  -0.6897476469E-02  -0.2920960947E-04  -0.5243525188E-04
  -0.3120759293E+01  -0.7956927619E+00   0.1998065555E+00   0.3497170950E-03  -0.7230839030E-03  -0.1934475154E-03   0.0000000000E+00   0.0000000000E+00   0.0000000000E+00   0.9310995707E-01   0.1357012237E-02  -0.1439190526E-05  -0.6665211669E-02   0.7036358441E-05   0.1173490658E-04
  -0.3132590749E+01  -0.5978826870E+00  -0.1009300601E-03   0.3159307816E-03  -0.8071049786E-03  -0.1009300601E-03   0.0000000000E+00   0.0000000000E+00   0.0000000000E+00   0.8842069624E-01   0.5210727931E-02   0.1107849667E-05  -0.6333077329E-02  -0.4486384526E-04  -0.2826501402E-04
  -0.3132589013E+01  -0.5978814335E+00   0.1998053700E+00   0.3176670838E-03  -0.8058514759E-03  -0.1946329878E-03   0.0000000000E+00   0.0000000000E+00   0.0000000000E+00   0.8875045970E-01   0.4886781063E-02  -0.6410709963E-06  -0.6123128741E-02   0.1037383453E-04   0.8412270725E-05
  -0.3141987461E+01  -0.3992938078E+00  -0.1016758043E-03   0.2900191288E-03  -0.8786598086E-03  -0.1016758043E-03   0.0000000000E+00   0.0000000000E+00   0.0000000000E+00   0.8476705157E-01   0.8533612461E-02  -0.1749324651E-05  -0.5323758932E-02  -0.5853831731E-04  -0.5130044810E-05
  -0.3141985209E+01  -0.3992937533E+00   0.1998049225E+00   0.2922712202E-03  -0.8786052700E-03  -0.1950804896E-03   0.0000000000E+00   0.0000000000E+00   0.0000000000E+00   0.8521205561E-01   0.8091775693E-02  -0.3827783247E-05  -0.5152223303E-02   0.1281631872E-04  -0.2899918049E-05
  -0.3146327265E+01  -0.1994562739E+00  -0.1008059865E-03   0.2741753276E-03  -0.9419608959E-03  -0.1008059865E-03   0.0000000000E+00   0.0000000000E+00   0.0000000000E+00   0.8238220575E-01   0.1124341846E-01   0.1199521520E-05  -0.3982703117E-02  -0.6924728618E-04   0.3599072124E-04
  -0.3146324615E+01  -0.1994576656E+00   0.1998054395E+00   0.2768251184E-03  -0.9433526207E-03  -0.1945635267E-03   0.0000000000E+00   0.0000000000E+00   0.0000000000E+00   0.8291440901E-01   0.1070950590E-01  -0.1519988094E-05  -0.3868052132E-02   0.1444025166E-04  -0.8331997694E-05
  -0.2913535500E+01  -0.9913678721E+00  -0.9689880731E-04   0.5775397980E-03  -0.6523681003E-03  -0.9689880731E-04   0.0000000000E+00   0.0000000000E+00   0.0000000000E+00   0.9829240986E-01  -0.2964992146E-02  -0.6531816599E-06  -0.1056048222E-01  -0.1396090352E-04  -0.8320160646E-04
  -0.2913534859E+01  -0.9913645527E+00   0.1998077925E+00   0.5781809759E-03  -0.6490486797E-03  -0.1922104744E-03   0.0000000000E+00   0.0000000000E+00   0.0000000000E+00   0.9834252534E-01  -0.3001680862E-02   0.6931098895E-07  -0.1019265502E-01   0.5492033432E-05   0.2222943079E-04
  -0.2931247462E+01  -0.7944076799E+00  -0.1006494903E-03   0.5228581045E-03  -0.7462049176E-03  -0.1006494903E-03   0.0000000000E+00   0.0000000000E+00   0.0000000000E+00   0.9276967689E-01   0.1005959943E-02   0.7002588659E-06  -0.1052624481E-01  -0.3898772221E-04  -0.6585201560E-04
  -0.2931245753E+01  -0.7944047734E+00   0.1998055437E+00   0.5245674958E-03  -0.7432984236E-03  -0.1944593042E-03   0.0000000000E+00   0.0000000000E+00   0.0000000000E+00   0.9297677382E-01   0.8114462870E-03  -0.8913822795E-06  -0.1015683055E-01   0.1427425921E-04   0.2133621540E-04
  -0.2948719201E+01  -0.5971703472E+00  -0.1034670635E-03   0.4728486343E-03  -0.8271281864E-03  -0.1034670635E-03   0.0000000000E+00   0.0000000000E+00   0.0000000000E+00   0.8767735428E-01   0.4927079650E-02   0.8612241297E-06  -0.9671145715E-02  -0.6272801604E-04  -0.5223725008E-04
  -0.2948716511E+01  -0.5971683803E+00   0.1998038517E+00   0.4755386780E-03  -0.8251613437E-03  -0.1961512752E-03   0.0000000000E+00   0.0000000000E+00   0.0000000000E+00   0.8803959433E-01   0.4574519621E-02  -0.1316380805E-05  -0.9333263800E-02   0.2114158812E-04   0.9770130972E-05
  -0.2962587415E+01  -0.3989045709E+00  -0.1048911165E-03   0.4331448352E-03  -0.8969098567E-03  -0.1048911165E-03   0.0000000000E+00   0.0000000000E+00   0.0000000000E+00   0.8352001950E-01   0.8485470079E-02  -0.2826930978E-06  -0.8126368626E-02  -0.8271660496E-04  -0.1422277351E-04
  -0.2962583897E+01  -0.3989038970E+00   0.1998029954E+00   0.4366629095E-03  -0.8962360158E-03  -0.1970075753E-03   0.0000000000E+00   0.0000000000E+00   0.0000000000E+00   0.8401719494E-01   0.7990739835E-02  -0.5158879174E-05  -0.7851773776E-02   0.2688097717E-04   0.3872186902E-05
  -0.2969347764E+01  -0.1990739232E+00  -0.1045496567E-03   0.4083656101E-03  -0.9582762300E-03  -0.1045496567E-03   0.0000000000E+00   0.0000000000E+00   0.0000000000E+00   0.8074410839E-01   0.1136785498E-01  -0.4951809436E-06  -0.6059719117E-02  -0.9844695363E-04   0.2008619666E-04
  -0.2969343604E+01  -0.1990749505E+00   0.1998031965E+00   0.4125256517E-03  -0.9593035394E-03  -0.1968065065E-03   0.0000000000E+00   0.0000000000E+00   0.0000000000E+00   0.8134811709E-01   0.1076140307E-01  -0.4582596094E-05  -0.5872820697E-02   0.3016045751E-04  -0.9864863335E-05
  -0.2718340095E+01  -0.9890742788E+00  -0.9780633113E-04   0.7727752265E-03  -0.6814488386E-03  -0.9780633113E-04   0.0000000000E+00   0.0000000000E+00   0.0000000000E+00   0.9909010183E-01  -0.4119075693E-02   0.2806169045E-05  -0.1448372430E-01  -0.1736060120E-04  -0.1069948875E-03
  -0.2718339349E+01  -0.9890696080E+00   0.1998072478E+00   0.7735211747E-03  -0.6767780481E-03  -0.1927552105E-03   0.0000000000E+00   0.0000000000E+00   0.0000000000E+00   0.9910249570E-01  -0.4123911586E-02  -0.6426087956E-06  -0.1394693274E-01   0.9069498855E-05   0.3743853334E-04
  -0.2741767261E+01  -0.7928904370E+00  -0.1030534753E-03   0.6972788503E-03  -0.7755239897E-03  -0.1030534753E-03   0.0000000000E+00   0.0000000000E+00   0.0000000000E+00   0.9260806510E-01   0.1952904827E-03   0.9769774722E-06  -0.1447733413E-01  -0.5439869671E-04  -0.1035443996E-03
  -0.2741764952E+01  -0.7928862834E+00   0.1998041077E+00   0.6995877632E-03  -0.7713703680E-03  -0.1958953485E-03   0.0000000000E+00   0.0000000000E+00   0.0000000000E+00   0.9282125157E-01   0.7820791512E-06  -0.8302943729E-06  -0.1393380092E-01   0.1933827145E-04   0.2666563936E-04
  -0.2764803238E+01  -0.5963138007E+00  -0.1071608913E-03   0.6284018708E-03  -0.8550547118E-03  -0.1071608913E-03   0.0000000000E+00   0.0000000000E+00   0.0000000000E+00   0.8662318031E-01   0.4486893988E-02   0.1363187904E-05  -0.1332652798E-01  -0.8817661061E-04  -0.7357129514E-04
  -0.2764799484E+01  -0.5963106639E+00   0.1998016432E+00   0.6321555389E-03  -0.8519178909E-03  -0.1983598172E-03   0.0000000000E+00   0.0000000000E+00   0.0000000000E+00   0.8703008414E-01   0.4096332971E-02  -0.3402178794E-05  -0.1282800076E-01   0.2975677161E-04   0.2194364673E-04
  -0.2783116365E+01  -0.3984356246E+00  -0.1096210833E-03   0.5736149460E-03  -0.9225325660E-03  -0.1096210833E-03   0.0000000000E+00   0.0000000000E+00   0.0000000000E+00   0.8171258152E-01   0.8371901279E-02  -0.2700248576E-05  -0.1119564981E-01  -0.1162885845E-03  -0.4009992591E-04
  -0.2783111392E+01  -0.3984340749E+00   0.1998001680E+00   0.5785884564E-03  -0.9209829247E-03  -0.1998349908E-03   0.0000000000E+00   0.0000000000E+00   0.0000000000E+00   0.8229819382E-01   0.7804375296E-02  -0.6300824350E-05  -0.1078876385E-01   0.3880955117E-04   0.6587628631E-05
  -0.2792786373E+01  -0.1987090045E+00  -0.1100594141E-03   0.5385774611E-03  -0.9809965393E-03  -0.1100594141E-03   0.0000000000E+00   0.0000000000E+00   0.0000000000E+00   0.7838133569E-01   0.1150955310E-01   0.3181226397E-05  -0.8323455171E-02  -0.1380438491E-03   0.8129274200E-05
  -0.2792780464E+01  -0.1987094011E+00   0.1997998941E+00   0.5444858644E-03  -0.9813930768E-03  -0.2001089078E-03   0.0000000000E+00   0.0000000000E+00   0.0000000000E+00   0.7909656234E-01   0.1079927648E-01  -0.9165916912E-06  -0.8047236766E-02   0.4404540769E-04  -0.4387434089E-05
  -0.2523186890E+01  -0.9865869905E+00  -0.9880711675E-04   0.9708696391E-03  -0.7180004553E-03  -0.9880711675E-04   0.0000000000E+00   0.0000000000E+00   0.0000000000E+00   0.1002341477E+00  -0.5672059189E-02   0.3927410916E-06  -0.1867949448E-01  -0.1325564461E-04  -0.1595273756E-03
  -0.2523186163E+01  -0.9865805018E+00   0.1998066616E+00   0.9715968760E-03  -0.7115118142E-03  -0.1933413584E-03   0.0000000000E+00   0.0000000000E+00   0.0000000000E+00   0.1001928161E+00  -0.5590432672E-02   0.7793874098E-05  -0.1793484942E-01   0.6541201257E-05   0.4585578958E-04
  -0.2552306671E+01  -0.7912303418E+00  -0.1061916171E-03   0.8721191135E-03  -0.8126708459E-03  -0.1061916171E-03   0.0000000000E+00   0.0000000000E+00   0.0000000000E+00   0.9246667443E-01  -0.9315513766E-03  -0.8884579317E-07  -0.1876022680E-01  -0.6545499126E-04  -0.1382947440E-03
  -0.2552303747E+01  -0.7912243108E+00   0.1998022364E+00   0.8750425634E-03  -0.8066397987E-03  -0.1977665993E-03   0.0000000000E+00   0.0000000000E+00   0.0000000000E+00   0.9267809417E-01  -0.1112182626E-02  -0.5980715560E-05  -0.1799548242E-01   0.2683717621E-04   0.4503964265E-04
  -0.2580867642E+01  -0.5953637154E+00  -0.1121589098E-03   0.7821383150E-03  -0.8908303796E-03  -0.1121589098E-03   0.0000000000E+00   0.0000000000E+00   0.0000000000E+00   0.8525996385E-01   0.3827653071E-02   0.2558297148E-05  -0.1733009470E-01  -0.1158307372E-03  -0.1204080886E-03
  -0.2580862678E+01  -0.5953589710E+00   0.1997986565E+00   0.7871019133E-03  -0.8860860116E-03  -0.2013464609E-03   0.0000000000E+00   0.0000000000E+00   0.0000000000E+00   0.8572853446E-01   0.3383234135E-02  -0.4096986846E-05  -0.1661967448E-01   0.4180362308E-04   0.2995575342E-04
  -0.2603685018E+01  -0.3979370596E+00  -0.1161103902E-03   0.7103724648E-03  -0.9554026186E-03  -0.1161103902E-03   0.0000000000E+00   0.0000000000E+00   0.0000000000E+00   0.7929584436E-01   0.8159231472E-02  -0.4698206050E-06  -0.1455864275E-01  -0.1578593164E-03  -0.6206958319E-04
  -0.2603678321E+01  -0.3979341660E+00   0.1997962864E+00   0.7170686806E-03  -0.9525089720E-03  -0.2037166405E-03   0.0000000000E+00   0.0000000000E+00   0.0000000000E+00   0.8000183779E-01   0.7484587872E-02  -0.9755407605E-05  -0.1397597827E-01   0.5497059250E-04   0.2006280027E-04
  -0.2617922756E+01  -0.1987210701E+00  -0.1175807858E-03   0.6625938237E-03  -0.1009811120E-02  -0.1175807858E-03   0.0000000000E+00   0.0000000000E+00   0.0000000000E+00   0.7522487697E-01   0.1161561433E-01   0.1064658116E-04  -0.1076537736E-01  -0.1855799760E-03  -0.2316484251E-04
  -0.2617914759E+01  -0.1987206280E+00   0.1997953844E+00   0.6705905187E-03  -0.1009369022E-02  -0.2046185996E-03   0.0000000000E+00   0.0000000000E+00   0.0000000000E+00   0.7610733076E-01   0.1074829944E-01   0.5019122751E-05  -0.1036893001E-01   0.6314315782E-04  -0.3529716020E-05
  -0.2328051980E+01  -0.9839982069E+00  -0.9967889661E-04   0.1173079735E-02  -0.7609399356E-03  -0.9967889661E-04   0.0000000000E+00   0.0000000000E+00   0.0000000000E+00   0.1018801872E+00  -0.7620476365E-02   0.3195834031E-05  -0.2316236716E-01  -0.1524498090E-04  -0.2104763395E-03
  -0.2328051540E+01  -0.9839891041E+00   0.1998061323E+00   0.1173519543E-02  -0.7518370668E-03  -0.1938706984E-03   0.0000000000E+00   0.0000000000E+00   0.0000000000E+00   0.1017107607E+00  -0.7457479678E-02  -0.1375497702E-04  -0.2214598792E-01   0.9168023791E-05   0.7556113267E-04
  -0.2362856207E+01  -0.7894909406E+00  -0.1100563322E-03   0.1047792721E-02  -0.8571175824E-03  -0.1100563322E-03   0.0000000000E+00   0.0000000000E+00   0.0000000000E+00   0.9243219181E-01  -0.2447088251E-02   0.5520508381E-05  -0.2345561709E-01  -0.8038004960E-04  -0.2039336670E-03
  -0.2362852697E+01  -0.7894823805E+00   0.1997999268E+00   0.1051302807E-02  -0.8485575419E-03  -0.2000761990E-03   0.0000000000E+00   0.0000000000E+00   0.0000000000E+00   0.9263292374E-01  -0.2587946376E-02   0.9544526154E-05  -0.2239177603E-01   0.3136888653E-04   0.6190452467E-04
  -0.2396924913E+01  -0.5943592007E+00  -0.1186493458E-03   0.9337070210E-03  -0.9340456759E-03  -0.1186493458E-03   0.0000000000E+00   0.0000000000E+00   0.0000000000E+00   0.8359376509E-01   0.2872778145E-02   0.4844416678E-05  -0.2177092811E-01  -0.1421582243E-03  -0.1727883897E-03
  -0.2396918545E+01  -0.5943520979E+00   0.1997947749E+00   0.9400750759E-03  -0.9269429268E-03  -0.2052280727E-03   0.0000000000E+00   0.0000000000E+00   0.0000000000E+00   0.8413911535E-01   0.2377926474E-02  -0.4150548094E-05  -0.2077339901E-01   0.5359770659E-04   0.5121287937E-04
  -0.2424566166E+01  -0.3975188982E+00  -0.1247261323E-03   0.8421941770E-03  -0.9953632459E-03  -0.1247261323E-03   0.0000000000E+00   0.0000000000E+00   0.0000000000E+00   0.7620576142E-01   0.7734823594E-02  -0.1201009932E-04  -0.1831487844E-01  -0.2051572096E-03  -0.1077788696E-03
  -0.2424557363E+01  -0.3975141662E+00   0.1997911476E+00   0.8509966853E-03  -0.9906311911E-03  -0.2088553948E-03   0.0000000000E+00   0.0000000000E+00   0.0000000000E+00   0.7708413881E-01   0.6926477816E-02  -0.1832442516E-04  -0.1748786046E-01   0.7110940305E-04   0.2936932286E-04
  -0.2443508302E+01  -0.1989830714E+00  -0.1275967654E-03   0.7799484396E-03  -0.1044688430E-02  -0.1275967654E-03   0.0000000000E+00   0.0000000000E+00   0.0000000000E+00   0.7113722485E-01   0.1163613179E-01   0.2561936861E-04  -0.1346373515E-01  -0.2436407772E-03  -0.5250762350E-04
  -0.2443497698E+01  -0.1989813635E+00   0.1997893784E+00   0.7905517227E-03  -0.1042980537E-02  -0.2106246088E-03   0.0000000000E+00   0.0000000000E+00   0.0000000000E+00   0.7225864638E-01   0.1057436897E-01   0.2944763005E-04  -0.1290480115E-01   0.7914542824E-04   0.5642484108E-05
  -0.2132917888E+01  -0.9813613273E+00  -0.1000549004E-03   0.1380912388E-02  -0.8086542800E-03  -0.1000549004E-03   0.0000000000E+00   0.0000000000E+00   0.0000000000E+00   0.1042032621E+00  -0.1008600011E-01  -0.2563902801E-05  -0.2785274390E-01   0.2437973830E-04  -0.3011726620E-03
  -0.2132918096E+01  -0.9813488453E+00   0.1998059223E+00   0.1380704333E-02  -0.7961722739E-03  -0.1940807297E-03   0.0000000000E+00   0.0000000000E+00   0.0000000000E+00   0.1038772938E+00  -0.9658808403E-02   0.3234176163E-04  -0.2650866590E-01  -0.8823217341E-05   0.8950681693E-04
  -0.2173409441E+01  -0.7877120637E+00  -0.1146195919E-03   0.1225019486E-02  -0.9076256646E-03  -0.1146195919E-03   0.0000000000E+00   0.0000000000E+00   0.0000000000E+00   0.9263675599E-01  -0.4455993041E-02  -0.2887617320E-05  -0.2857222217E-01  -0.9304641672E-04  -0.2765334022E-03
  -0.2173405467E+01  -0.7876999049E+00   0.1997971948E+00   0.1228993397E-02  -0.8954669191E-03  -0.2028081808E-03   0.0000000000E+00   0.0000000000E+00   0.0000000000E+00   0.9275846054E-01  -0.4504524132E-02  -0.5514095755E-05  -0.2711107907E-01   0.2496680313E-04   0.8996448535E-04
  -0.2212981040E+01  -0.5933269233E+00  -0.1268773943E-03   0.1082839975E-02  -0.9840692899E-03  -0.1268773943E-03   0.0000000000E+00   0.0000000000E+00   0.0000000000E+00   0.8166570648E-01   0.1522468916E-02   0.2428509034E-04  -0.2672912423E-01  -0.1896147450E-03  -0.2555933197E-03
  -0.2212973054E+01  -0.5933165962E+00   0.1997898255E+00   0.1090825862E-02  -0.9737421741E-03  -0.2101774640E-03   0.0000000000E+00   0.0000000000E+00   0.0000000000E+00   0.8229435479E-01   0.9719556956E-03   0.2910881851E-04  -0.2532502889E-01   0.5553690933E-04   0.7141847525E-04
  -0.2245298891E+01  -0.3970340581E+00  -0.1359367715E-03   0.9684290001E-03  -0.1042077090E-02  -0.1359367715E-03   0.0000000000E+00   0.0000000000E+00   0.0000000000E+00   0.7240519938E-01   0.7049107737E-02  -0.1021528688E-04  -0.2254085524E-01  -0.2598811370E-03  -0.1660184108E-03
  -0.2245287495E+01  -0.3970266427E+00   0.1997844161E+00   0.9798250204E-03  -0.1034661701E-02  -0.2155869244E-03   0.0000000000E+00   0.0000000000E+00   0.0000000000E+00   0.7350745891E-01   0.6046582269E-02  -0.1919996709E-04  -0.2136544272E-01   0.8547333488E-04   0.4788708289E-04
  -0.2267907550E+01  -0.1988533224E+00  -0.1409281463E-03   0.8898502938E-03  -0.1086020387E-02  -0.1409281463E-03   0.0000000000E+00   0.0000000000E+00   0.0000000000E+00   0.6593528224E-01   0.1148880611E-01   0.4077671006E-04  -0.1648008502E-01  -0.3378571960E-03  -0.1074505182E-03
  -0.2267893609E+01  -0.1988498942E+00   0.1997813538E+00   0.9037911889E-03  -0.1082592211E-02  -0.2186491940E-03   0.0000000000E+00   0.0000000000E+00   0.0000000000E+00   0.6737635434E-01   0.1009051348E-01   0.3908906675E-04  -0.1568176362E-01   0.9205184435E-04   0.8976410017E-05
  -0.1935501879E+01  -0.9777895216E+00  -0.9931714080E-04   0.1598291010E-02  -0.8592606324E-03  -0.9931714080E-04   0.0000000000E+00   0.0000000000E+00   0.0000000000E+00   0.1075528713E+00  -0.1291115711E-01   0.3839705266E-04  -0.3266241743E-01   0.6572179363E-05  -0.4143884504E-03
  -0.1935503638E+01  -0.9777723354E+00   0.1998062570E+00   0.1596532321E-02  -0.8420743720E-03  -0.1937459908E-03   0.0000000000E+00   0.0000000000E+00   0.0000000000E+00   0.1068155722E+00  -0.1222113138E-01   0.2954290836E-04  -0.3088068449E-01  -0.3190780939E-04   0.1270308948E-03
  -0.1983267920E+01  -0.7856112139E+00  -0.1196871230E-03   0.1405459815E-02  -0.9624979322E-03  -0.1196871230E-03   0.0000000000E+00   0.0000000000E+00   0.0000000000E+00   0.9335153895E-01  -0.7046741394E-02   0.9884240844E-05  -0.3403864495E-01  -0.1076046506E-03  -0.4137425594E-03
  -0.1983263835E+01  -0.7855942057E+00   0.1997940894E+00   0.1409545118E-02  -0.9454896757E-03  -0.2059136143E-03   0.0000000000E+00   0.0000000000E+00   0.0000000000E+00   0.9328738719E-01  -0.6913124524E-02   0.4983680168E-04  -0.3203218592E-01  -0.7755217500E-05   0.1121782396E-03
  -0.2028850171E+01  -0.5921660538E+00  -0.1372217866E-03   0.1229668827E-02  -0.1039730812E-02  -0.1372217866E-03   0.0000000000E+00   0.0000000000E+00   0.0000000000E+00   0.7958266075E-01  -0.4395784667E-03   0.1506872462E-05  -0.3227369504E-01  -0.2402493053E-03  -0.3536096616E-03
  -0.2028840400E+01  -0.5921510684E+00   0.1997835780E+00   0.1239439684E-02  -0.1024745401E-02  -0.2164250259E-03   0.0000000000E+00   0.0000000000E+00   0.0000000000E+00   0.8024342660E-01  -0.1004180872E-02   0.2173137445E-04  -0.3028768258E-01   0.2844192259E-04   0.9866203902E-04
  -0.2065913569E+01  -0.3964515665E+00  -0.1504622754E-03   0.1087771166E-02  -0.1094792522E-02  -0.1504622754E-03   0.0000000000E+00   0.0000000000E+00   0.0000000000E+00   0.6776292553E-01   0.5909773777E-02   0.1542226254E-04  -0.2731963823E-01  -0.3492891046E-03  -0.2543122847E-03
  -0.2065898875E+01  -0.3964403984E+00   0.1997756074E+00   0.1102465101E-02  -0.1083624443E-02  -0.2243955775E-03   0.0000000000E+00   0.0000000000E+00   0.0000000000E+00   0.6916797865E-01   0.4697294653E-02   0.7499749682E-04  -0.2563027879E-01   0.4589973817E-04   0.6035926539E-04
  -0.2096755982E+01  -0.1994402813E+00  -0.1580390592E-03   0.9875280893E-03  -0.1131575327E-02  -0.1580390592E-03   0.0000000000E+00   0.0000000000E+00   0.0000000000E+00   0.5979278407E-01   0.1101225308E-01   0.4361426166E-04  -0.1979608860E-01  -0.4166534277E-03  -0.1742134785E-03
  -0.2096737779E+01  -0.1994343490E+00   0.1997710218E+00   0.1005730616E-02  -0.1125642970E-02  -0.2289812055E-03   0.0000000000E+00   0.0000000000E+00   0.0000000000E+00   0.6170661923E-01   0.9265722561E-02   0.1118901114E-03  -0.1865785623E-01   0.8153950814E-04   0.1741213246E-04
  -0.1738626184E+01  -0.9742290708E+00  -0.9639470884E-04   0.1825276309E-02  -0.9065598489E-03  -0.9639470884E-04   0.0000000000E+00   0.0000000000E+00   0.0000000000E+00   0.1121772266E+00  -0.1626910859E-01  -0.4479363981E-04  -0.3702472308E-01   0.1216086747E-03  -0.5788988860E-03
  -0.1738630716E+01  -0.9742060499E+00   0.1998080316E+00   0.1820744159E-02  -0.8835388841E-03  -0.1919713834E-03   0.0000000000E+00   0.0000000000E+00   0.0000000000E+00   0.1108671638E+00  -0.1481830833E-01   0.8755150551E-04  -0.3483540162E-01  -0.1067866582E-03   0.1008884751E-03
  -0.1793389541E+01  -0.7832707523E+00  -0.1247185360E-03   0.1590028843E-02  -0.1017725274E-02  -0.1247185360E-03   0.0000000000E+00   0.0000000000E+00   0.0000000000E+00   0.9499513606E-01  -0.1035723797E-01   0.1622330127E-04  -0.3964542824E-01  -0.1149779277E-03  -0.5525167110E-03
  -0.1793386219E+01  -0.7832470240E+00   0.1997908998E+00   0.1593351424E-02  -0.9939970023E-03  -0.2091031739E-03   0.0000000000E+00   0.0000000000E+00   0.0000000000E+00   0.9444493254E-01  -0.9851529902E-02   0.6901075806E-04  -0.3693922246E-01  -0.7796626160E-04   0.1217680951E-03
  -0.1844947013E+01  -0.5906900796E+00  -0.1497969169E-03   0.1374327051E-02  -0.1098516611E-02  -0.1497969169E-03   0.0000000000E+00   0.0000000000E+00   0.0000000000E+00   0.7761945784E-01  -0.3140344132E-02   0.2506043071E-04  -0.3834576723E-01  -0.3205546244E-03  -0.5423062871E-03
  -0.1844935552E+01  -0.5906686135E+00   0.1997757842E+00   0.1385788074E-02  -0.1077050458E-02  -0.2242187896E-03   0.0000000000E+00   0.0000000000E+00   0.0000000000E+00   0.7816774269E-01  -0.3664819665E-02   0.1313652064E-03  -0.3551846737E-01  -0.6659756959E-04   0.8210749873E-04
  -0.1889004035E+01  -0.3959310280E+00  -0.1691341050E-03   0.1197655274E-02  -0.1151286021E-02  -0.1691341050E-03   0.0000000000E+00   0.0000000000E+00   0.0000000000E+00   0.6255003224E-01   0.4176912876E-02   0.6471828656E-04  -0.3265223167E-01  -0.5216275181E-03  -0.4017183565E-03
  -0.1888985431E+01  -0.3959144117E+00   0.1997640704E+00   0.1216258964E-02  -0.1134669724E-02  -0.2359325868E-03   0.0000000000E+00   0.0000000000E+00   0.0000000000E+00   0.6416490562E-01   0.2602734009E-02   0.1678063078E-03  -0.3018634829E-01  -0.5812134582E-04   0.5120753847E-04
  -0.1930473721E+01  -0.2006499991E+00  -0.1796914511E-03   0.1072129442E-02  -0.1179926079E-02  -0.1796914511E-03   0.0000000000E+00   0.0000000000E+00   0.0000000000E+00   0.5211799027E-01   0.1017074187E-01   0.3951693930E-04  -0.2346473471E-01  -0.6942551679E-03  -0.2980994316E-03
  -0.1930450294E+01  -0.2006406634E+00   0.1997576990E+00   0.1095556447E-02  -0.1170590425E-02  -0.2423039884E-03   0.0000000000E+00   0.0000000000E+00   0.0000000000E+00   0.5450135562E-01   0.7684442033E-02   0.1280362697E-03  -0.2181920584E-01  -0.8769792252E-04  -0.1059713170E-04
  -0.1543712752E+01  -0.9704446204E+00  -0.8859075245E-04   0.2063618215E-02  -0.9427073792E-03  -0.8859075245E-04   0.0000000000E+00   0.0000000000E+00   0.0000000000E+00   0.1186749335E+00  -0.1902306167E-01   0.6533855485E-04  -0.4039764668E-01   0.1223095995E-03  -0.7816412892E-03
  -0.1543722988E+01  -0.9704143877E+00   0.1998123617E+00   0.2053381689E-02  -0.9124747237E-03  -0.1876413023E-03   0.0000000000E+00   0.0000000000E+00   0.0000000000E+00   0.1160551023E+00  -0.1695940288E-01   0.4474056536E-05  -0.3777625369E-01  -0.1325092662E-03   0.1274306512E-03
  -0.1604621579E+01  -0.7798540755E+00  -0.1284424863E-03   0.1779741421E-02  -0.1067654528E-02  -0.1284424863E-03   0.0000000000E+00   0.0000000000E+00   0.0000000000E+00   0.9788726803E-01  -0.1418693054E-01   0.1380879808E-04  -0.4503640328E-01  -0.1038040722E-03  -0.8493992894E-03
  -0.1604620821E+01  -0.7798215155E+00   0.1997883342E+00   0.1780498581E-02  -0.1035094494E-02  -0.2116688326E-03   0.0000000000E+00   0.0000000000E+00   0.0000000000E+00   0.9643812766E-01  -0.1293264771E-01   0.2306803202E-03  -0.4145863022E-01  -0.1839885807E-03   0.4777607916E-04
  -0.1662077562E+01  -0.5879957450E+00  -0.1647640916E-03   0.1516088017E-02  -0.1156128984E-02  -0.1647640916E-03   0.0000000000E+00   0.0000000000E+00   0.0000000000E+00   0.7595819486E-01  -0.6664835552E-02   0.3487627017E-04  -0.4462024913E-01  -0.4349490514E-03  -0.8189334510E-03
  -0.1662065045E+01  -0.5879650327E+00   0.1997662275E+00   0.1528605400E-02  -0.1125416686E-02  -0.2337755473E-03   0.0000000000E+00   0.0000000000E+00   0.0000000000E+00   0.7600028019E-01  -0.6975312954E-02   0.2555663119E-03  -0.4062672298E-01  -0.2851125296E-03  -0.1802290900E-04
  -0.1714639316E+01  -0.3959089000E+00  -0.1927151962E-03   0.1298773562E-02  -0.1208343033E-02  -0.1927151962E-03   0.0000000000E+00   0.0000000000E+00   0.0000000000E+00   0.5665922009E-01   0.1453681336E-02  -0.2824268461E-04  -0.3843293268E-01  -0.7488500563E-03  -0.6587294751E-03
  -0.1714616290E+01  -0.3958845129E+00   0.1997492744E+00   0.1321800205E-02  -0.1183955922E-02  -0.2507285829E-03   0.0000000000E+00   0.0000000000E+00   0.0000000000E+00   0.5838575633E-01  -0.5128203270E-03   0.3124870138E-03  -0.3487890900E-01  -0.3798116193E-03  -0.6435745980E-04
  -0.1748959707E+01  -0.1988235402E+00  -0.2114700355E-03   0.1149012790E-02  -0.1236050181E-02  -0.2114700355E-03   0.0000000000E+00   0.0000000000E+00   0.0000000000E+00   0.4307777495E-01   0.8227037765E-02   0.7821908237E-04  -0.2754586895E-01  -0.8815854948E-03  -0.4275035733E-03
  -0.1748928859E+01  -0.1988088297E+00   0.1997377205E+00   0.1179860541E-02  -0.1221339729E-02  -0.2622825471E-03   0.0000000000E+00   0.0000000000E+00   0.0000000000E+00   0.4604871362E-01   0.4919799350E-02   0.5096592193E-03  -0.2511522286E-01  -0.3943688572E-03  -0.6523365632E-04
  -0.1351493051E+01  -0.9641225335E+00  -0.7323225957E-04   0.2311179342E-02  -0.9596945058E-03  -0.7323225957E-04   0.0000000000E+00   0.0000000000E+00   0.0000000000E+00   0.1268957293E+00  -0.2120346817E-01  -0.1346099872E-03  -0.4175789057E-01   0.6307771345E-03  -0.9380745480E-03
  -0.1351511896E+01  -0.9640846229E+00   0.1998218259E+00   0.2292334453E-02  -0.9217838861E-03  -0.1781771295E-03   0.0000000000E+00   0.0000000000E+00   0.0000000000E+00   0.1230058525E+00  -0.1708133962E-01   0.2356707206E-03  -0.3922298484E-01  -0.9395610519E-04   0.3868501618E-05
  -0.1418505570E+01  -0.7732413796E+00  -0.1286717620E-03   0.1972300430E-02  -0.1103499632E-02  -0.1286717620E-03   0.0000000000E+00   0.0000000000E+00   0.0000000000E+00   0.1022485903E+00  -0.1796052115E-01  -0.3347020118E-04  -0.4936427629E-01   0.6279380066E-04  -0.1230288715E-02
  -0.1418510702E+01  -0.7731974648E+00   0.1997877323E+00   0.1967168434E-02  -0.1059584781E-02  -0.2122707460E-03   0.0000000000E+00   0.0000000000E+00   0.0000000000E+00   0.9902445023E-01  -0.1540972001E-01   0.1303236846E-03  -0.4486670291E-01  -0.2376242892E-03  -0.2038019364E-03
  -0.1482055178E+01  -0.5823367993E+00  -0.1816182137E-03   0.1652721971E-02  -0.1205341278E-02  -0.1816182137E-03   0.0000000000E+00   0.0000000000E+00   0.0000000000E+00   0.7492871274E-01  -0.1082133779E-01   0.7529769847E-04  -0.5057349763E-01  -0.6158370647E-03  -0.1363727406E-02
  -0.1482043345E+01  -0.5822934375E+00   0.1997550601E+00   0.1664554543E-02  -0.1161979496E-02  -0.2449429306E-03   0.0000000000E+00   0.0000000000E+00   0.0000000000E+00   0.7374288306E-01  -0.1079827685E-01   0.5031949958E-03  -0.4500589840E-01  -0.5615533744E-03  -0.3765021870E-03
  -0.1537027120E+01  -0.3907447171E+00  -0.2241288048E-03   0.1389269640E-02  -0.1263620095E-02  -0.2241288048E-03   0.0000000000E+00   0.0000000000E+00   0.0000000000E+00   0.5031101751E-01  -0.2201235611E-02   0.7823799135E-04  -0.4410394462E-01  -0.1220134996E-02  -0.1137517584E-02
  -0.1536999636E+01  -0.3907091608E+00   0.1997287543E+00   0.1416754117E-02  -0.1228063838E-02  -0.2712486776E-03   0.0000000000E+00   0.0000000000E+00   0.0000000000E+00   0.5138662156E-01  -0.5063513467E-02   0.5512417832E-03  -0.3888295729E-01  -0.8980074546E-03  -0.3914761692E-03
  -0.1582804463E+01  -0.1991244601E+00  -0.2502718133E-03   0.1206377061E-02  -0.1286571100E-02  -0.2502718133E-03   0.0000000000E+00   0.0000000000E+00   0.0000000000E+00   0.3277996634E-01   0.5351143034E-02   0.1466017965E-03  -0.3163488276E-01  -0.1746609695E-02  -0.7968515579E-03
  -0.1582765746E+01  -0.1991023851E+00   0.1997125571E+00   0.1245093881E-02  -0.1264496065E-02  -0.2874458812E-03   0.0000000000E+00   0.0000000000E+00   0.0000000000E+00   0.3575609465E-01   0.9763762293E-04   0.6924608033E-03  -0.2804167036E-01  -0.1134044149E-02  -0.2876178148E-03
  -0.1156970680E+01  -0.9505828962E+00  -0.4410938741E-04   0.2568659700E-02  -0.9473902340E-03  -0.4410938741E-04   0.0000000000E+00   0.0000000000E+00   0.0000000000E+00   0.1358098226E+00  -0.1852775134E-01   0.2268535497E-03  -0.4180974435E-01   0.7899128452E-03  -0.1320071826E-02
  -0.1157005080E+01  -0.9505372581E+00   0.1998391996E+00   0.2534260447E-02  -0.9017520951E-03  -0.1608033665E-03   0.0000000000E+00   0.0000000000E+00   0.0000000000E+00   0.1291388315E+00  -0.1310454469E-01  -0.7624490127E-04  -0.3981809486E-01   0.3951966586E-03   0.4318554380E-04
  -0.1235868660E+01  -0.7601137322E+00  -0.1218894047E-03   0.2159989966E-02  -0.1114623213E-02  -0.1218894047E-03   0.0000000000E+00   0.0000000000E+00   0.0000000000E+00   0.1061104185E+00  -0.1904202971E-01   0.1226190078E-03  -0.5220197226E-01   0.4416023078E-03  -0.1973800465E-02
  -0.1235884091E+01  -0.7600559807E+00   0.1997913703E+00   0.2144558544E-02  -0.1056871673E-02  -0.2086326680E-03   0.0000000000E+00   0.0000000000E+00   0.0000000000E+00   0.1008021668E+00  -0.1437942042E-01   0.5691538610E-03  -0.4689891366E-01   0.1705431498E-04  -0.7387473474E-03
  -0.1307802095E+01  -0.5714793541E+00  -0.1993443060E-03   0.1777034957E-02  -0.1233552064E-02  -0.1993443060E-03   0.0000000000E+00   0.0000000000E+00   0.0000000000E+00   0.7270391389E-01  -0.1422911343E-01  -0.2342675533E-03  -0.5417019226E-01  -0.6270689496E-03  -0.2302962904E-02
  -0.1307794021E+01  -0.5714193643E+00   0.1997431539E+00   0.1785109199E-02  -0.1173562325E-02  -0.2568491204E-03   0.0000000000E+00   0.0000000000E+00   0.0000000000E+00   0.6935016516E-01  -0.1350615582E-01   0.2516628470E-03  -0.4682215251E-01  -0.8597033596E-03  -0.1246638802E-02
  -0.1366090231E+01  -0.3823558521E+00  -0.2630718085E-03   0.1463359121E-02  -0.1302762112E-02  -0.2630718085E-03   0.0000000000E+00   0.0000000000E+00   0.0000000000E+00   0.4284743152E-01  -0.7488917863E-02  -0.3074595515E-03  -0.4746730409E-01  -0.1611249847E-02  -0.1886407864E-02
  -0.1366058895E+01  -0.3823047793E+00   0.1997032086E+00   0.1494695484E-02  -0.1251689335E-02  -0.2967944341E-03   0.0000000000E+00   0.0000000000E+00   0.0000000000E+00   0.4277429073E-01  -0.1142350907E-01   0.5363432617E-03  -0.4017903107E-01  -0.1639946414E-02  -0.1117110881E-02
  -0.1408053766E+01  -0.1918846476E+00  -0.3056945881E-03   0.1247274275E-02  -0.1332383647E-02  -0.3056945881E-03   0.0000000000E+00   0.0000000000E+00   0.0000000000E+00   0.2166330402E-01  -0.1292240750E-02  -0.4224364916E-03  -0.3373370549E-01  -0.2184828599E-02  -0.1318060928E-02
  -0.1408004995E+01  -0.1918521581E+00   0.1996764962E+00   0.1296045125E-02  -0.1299894059E-02  -0.3235067823E-03   0.0000000000E+00   0.0000000000E+00   0.0000000000E+00   0.2434125077E-01  -0.8916176153E-02   0.6337289462E-03  -0.2863347956E-01  -0.2131329155E-02  -0.7937249941E-03
  -0.9645337463E+00  -0.9252154208E+00   0.5116174982E-05   0.2811610708E-02  -0.8984187557E-03   0.5116174982E-05   0.0000000000E+00   0.0000000000E+00   0.0000000000E+00   0.1465360282E+00  -0.1254454118E-01  -0.3276392238E-03  -0.4236752405E-01   0.3427955100E-02  -0.5199882983E-03
  -0.9645868031E+00  -0.9251643941E+00   0.1998709395E+00   0.2758553890E-02  -0.8473921332E-03  -0.1290635249E-03   0.0000000000E+00   0.0000000000E+00   0.0000000000E+00   0.1401696838E+00  -0.2077703353E-02   0.1828609935E-03  -0.4190113000E-01   0.1767870168E-02  -0.1884095751E-03
  -0.1061605193E+01  -0.7372605586E+00  -0.1057181596E-03   0.2318167049E-02  -0.1086034614E-02  -0.1057181596E-03   0.0000000000E+00   0.0000000000E+00   0.0000000000E+00   0.1076670370E+00  -0.1534458803E-01  -0.3861478604E-04  -0.5342560967E-01   0.1359828514E-02  -0.3465849630E-02
  -0.1061636584E+01  -0.7371879020E+00   0.1998015599E+00   0.2286775802E-02  -0.1013378022E-02  -0.1984430933E-03   0.0000000000E+00   0.0000000000E+00   0.0000000000E+00   0.9904738095E-01  -0.6774810760E-02   0.2319960232E-03  -0.4796221055E-01   0.8712384673E-03  -0.2214546435E-02
  -0.1144797919E+01  -0.5535843325E+00  -0.2156424970E-03   0.1873970882E-02  -0.1221711528E-02  -0.2156424970E-03   0.0000000000E+00   0.0000000000E+00   0.0000000000E+00   0.6958820463E-01  -0.1470927737E-01   0.1227652517E-03  -0.5396001422E-01  -0.6293539733E-03  -0.3853732361E-02
  -0.1144797780E+01  -0.5535045676E+00   0.1997319827E+00   0.1874109826E-02  -0.1141946556E-02  -0.2680202511E-03   0.0000000000E+00   0.0000000000E+00   0.0000000000E+00   0.6225431630E-01  -0.1328273499E-01   0.4818012026E-03  -0.4463516095E-01  -0.4382838013E-03  -0.2683028043E-02
  -0.1208414424E+01  -0.3696767125E+00  -0.3073508890E-03   0.1517185834E-02  -0.1307252540E-02  -0.3073508890E-03   0.0000000000E+00   0.0000000000E+00   0.0000000000E+00   0.3614186874E-01  -0.1356584160E-01   0.1625538189E-03  -0.4639009290E-01  -0.2763780251E-02  -0.3603854024E-02
  -0.1208382224E+01  -0.3696076120E+00   0.1996743615E+00   0.1549385804E-02  -0.1238152022E-02  -0.3256414677E-03   0.0000000000E+00   0.0000000000E+00   0.0000000000E+00   0.3258339701E-01  -0.1960518294E-01   0.7953025852E-03  -0.3656847457E-01  -0.1648678112E-02  -0.2425913981E-02
  -0.1251109679E+01  -0.1845468194E+00  -0.3698407484E-03   0.1274150599E-02  -0.1352301447E-02  -0.3698407484E-03   0.0000000000E+00   0.0000000000E+00   0.0000000000E+00   0.1255639630E-01  -0.1084056363E-01   0.5248372361E-03  -0.3292596871E-01  -0.4355436547E-02  -0.2381354930E-02
  -0.1251052883E+01  -0.1845016309E+00   0.1996345826E+00   0.1330947173E-02  -0.1307112902E-02  -0.3654204130E-03   0.0000000000E+00   0.0000000000E+00   0.0000000000E+00   0.1248766699E-01  -0.2304667501E-01   0.1430072884E-02  -0.2581157412E-01  -0.2657751895E-02  -0.1710416969E-02
  -0.7755181105E+00  -0.8821247416E+00   0.8359175123E-04   0.2992817489E-02  -0.8114776133E-03   0.8359175123E-04   0.0000000000E+00   0.0000000000E+00   0.0000000000E+00   0.1374978150E+00   0.2083248134E-01   0.3750791494E-02  -0.5580326468E-01   0.3313269429E-02  -0.3050758326E-02
  -0.7755937903E+00  -0.8820718528E+00   0.1999155012E+00   0.2917137657E-02  -0.7585888135E-03  -0.8450180576E-04   0.0000000000E+00   0.0000000000E+00   0.0000000000E+00   0.1335281117E+00   0.3357747992E-01   0.5476020449E-02  -0.5821784883E-01   0.2047266714E-02  -0.2234376568E-02
  -0.9013344090E+00  -0.7057828032E+00  -0.7722785508E-04   0.2413269025E-02  -0.9989462000E-03  -0.7722785508E-04   0.0000000000E+00   0.0000000000E+00   0.0000000000E+00   0.8880605388E-01   0.1195505357E-01  -0.6169577955E-03  -0.5282812254E-01   0.3070466298E-02  -0.6145262689E-02
  -0.9013849237E+00  -0.7056970298E+00   0.1998194607E+00   0.2362754312E-02  -0.9131728429E-03  -0.1805423013E-03   0.0000000000E+00   0.0000000000E+00   0.0000000000E+00   0.8005592835E-01   0.2037342929E-01  -0.1285620028E-02  -0.4909664495E-01   0.2276432827E-02  -0.4337890543E-02
  -0.9998300245E+00  -0.5319200790E+00  -0.2270924968E-03   0.1927355516E-02  -0.1145903016E-02  -0.2270924968E-03   0.0000000000E+00   0.0000000000E+00   0.0000000000E+00   0.4879075846E-01  -0.1761931558E-02  -0.1188659177E-02  -0.4112695605E-01   0.5073909175E-03  -0.6328620093E-02
  -0.9998406202E+00  -0.5318225393E+00   0.1997264384E+00   0.1916759789E-02  -0.1048363336E-02  -0.2735645523E-03   0.0000000000E+00   0.0000000000E+00   0.0000000000E+00   0.3992506207E-01  -0.2243222313E-02  -0.2191352051E-02  -0.3221099148E-01   0.1243241791E-02  -0.4802123443E-02
  -0.1070612246E+01  -0.3558990096E+00  -0.3520212924E-03   0.1550504076E-02  -0.1253936621E-02  -0.3520212924E-03   0.0000000000E+00   0.0000000000E+00   0.0000000000E+00   0.2044165417E-01  -0.2003890976E-01  -0.3196031592E-02  -0.2831787116E-01  -0.1720737402E-02  -0.5904120737E-02
  -0.1070581506E+01  -0.3558123194E+00   0.1996498086E+00   0.1581243819E-02  -0.1167246397E-02  -0.3501943881E-03   0.0000000000E+00   0.0000000000E+00   0.0000000000E+00   0.1466763209E-01  -0.2994980817E-01  -0.4761647862E-02  -0.1824179562E-01  -0.1576660984E-04  -0.4194798853E-02
  -0.1114084178E+01  -0.1774571570E+00  -0.4394918788E-03   0.1295992368E-02  -0.1332093001E-02  -0.4394918788E-03   0.0000000000E+00   0.0000000000E+00   0.0000000000E+00   0.3746710113E-02  -0.3431551070E-01  -0.3965009776E-02  -0.1855871435E-01  -0.3785167818E-02  -0.3997963906E-02
  -0.1114021129E+01  -0.1773995741E+00   0.1995955629E+00   0.1359040596E-02  -0.1274510099E-02  -0.4044401318E-03   0.0000000000E+00   0.0000000000E+00   0.0000000000E+00   0.1091693853E-02  -0.5254178368E-01  -0.5891795712E-02  -0.1117664186E-01  -0.1129200078E-02  -0.3034142596E-02
  -0.9854381119E+00  -0.1633829748E+00  -0.4986701581E-03   0.1329180131E-02  -0.1240131827E-02  -0.4986701581E-03   0.0000000000E+00   0.0000000000E+00   0.0000000000E+00   0.3670854181E-02  -0.6909730943E-01  -0.5014582434E-02   0.2217130942E-02   0.1920762794E-03  -0.7184974660E-02
  -0.9853672383E+00  -0.1633242461E+00   0.1995577886E+00   0.1400053720E-02  -0.1181403146E-02  -0.4422144354E-03   0.0000000000E+00   0.0000000000E+00   0.0000000000E+00   0.6425965051E-03  -0.9024213460E-01  -0.6234834004E-02   0.8699127850E-02   0.1455271785E-02  -0.5816304587E-02
  -0.9440791707E+00  -0.3263769440E+00  -0.3926241060E-03   0.1541306320E-02  -0.1104949987E-02  -0.3926241060E-03   0.0000000000E+00   0.0000000000E+00   0.0000000000E+00   0.8176900966E-02  -0.3031131853E-01  -0.3973405221E-02  -0.3233270262E-02   0.2487818396E-02  -0.1053332218E-01
  -0.9440440225E+00  -0.3262889203E+00   0.1996240383E+00   0.1576454492E-02  -0.1016926321E-02  -0.3759647124E-03   0.0000000000E+00   0.0000000000E+00   0.0000000000E+00   0.2696423752E-02  -0.4300153434E-01  -0.4962023983E-02   0.5597524571E-02   0.3012821458E-02  -0.8176549789E-02
  -0.8746486078E+00  -0.4823661158E+00  -0.2477602651E-03   0.1857065243E-02  -0.9746257849E-03  -0.2477602651E-03   0.0000000000E+00   0.0000000000E+00   0.0000000000E+00   0.2512243352E-01   0.1226822148E-01  -0.2643092938E-02  -0.2264109568E-01   0.5311423820E-02  -0.1178244933E-01
  -0.8746573553E+00  -0.4822680315E+00   0.1997140109E+00   0.1848317727E-02  -0.8765414943E-03  -0.2859920530E-03   0.0000000000E+00   0.0000000000E+00   0.0000000000E+00   0.1699191772E-01   0.9131116036E-02  -0.3856896215E-02  -0.1510440873E-01   0.5070413442E-02  -0.9216365017E-02
  -0.7758263436E+00  -0.6289899781E+00  -0.7633158769E-04   0.2272180449E-02  -0.8477400594E-03  -0.7633158769E-04   0.0000000000E+00   0.0000000000E+00   0.0000000000E+00   0.6197371295E-01   0.4454902387E-01  -0.8891703115E-03  -0.5360383150E-01   0.8149296318E-02  -0.1116689503E-01
  -0.7758772945E+00  -0.6289062782E+00   0.1998208124E+00   0.2221229495E-02  -0.7640401540E-03  -0.1791905754E-03   0.0000000000E+00   0.0000000000E+00   0.0000000000E+00   0.5511468880E-01   0.5006327486E-01  -0.1602335153E-02  -0.5139269198E-01   0.6653675767E-02  -0.8812609454E-02
  -0.6464804047E+00  -0.7612977255E+00   0.1005235961E-03   0.2779162274E-02  -0.7308355071E-03   0.1005235961E-03   0.0000000000E+00   0.0000000000E+00   0.0000000000E+00   0.1282592413E+00   0.5549506555E-01  -0.6095387015E-04  -0.7963506330E-01   0.7270372060E-02  -0.7700289124E-02
  -0.6465588904E+00  -0.7612456742E+00   0.1999307028E+00   0.2700676621E-02  -0.6787841738E-03  -0.6930024545E-04   0.0000000000E+00   0.0000000000E+00   0.0000000000E+00   0.1254959929E+00   0.6472591738E-01  -0.8244401231E-03  -0.8291738392E-01   0.6551545627E-02  -0.6018590233E-02
   0.6844024100E+00   0.9251843621E+00   0.3997419802E+00   0.7030967984E-02  -0.2580708887E-02  -0.2580258055E-03   0.0000000000E+00   0.0000000000E+00   0.0000000000E+00   0.1446941710E+00   0.9241749456E-02  -0.8456586613E-03  -0.4074883560E-01  -0.4460462298E-02   0.2952017401E-02
   0.4942541630E+00   0.1030608146E+01   0.3997781469E+00   0.6425550985E-02  -0.2944853866E-02  -0.2218591461E-03   0.0000000000E+00   0.0000000000E+00   0.0000000000E+00   0.2161835257E+00   0.2529310500E-01   0.1023576823E-01  -0.4313933430E-01  -0.4898406250E-02   0.1355713187E-02
   0.4328552960E+00   0.9017564456E+00   0.3997900951E+00   0.6713557043E-02  -0.2899964425E-02  -0.2099108768E-03   0.0000000000E+00   0.0000000000E+00   0.0000000000E+00   0.2350841453E+00   0.4167444078E-01   0.4885058089E-02  -0.9574282854E-01  -0.8194035214E-02   0.4092784506E-02
   0.5972718832E+00   0.8047682642E+00   0.3997452753E+00   0.7331991241E-02  -0.2678870810E-02  -0.2547306583E-03   0.0000000000E+00   0.0000000000E+00   0.0000000000E+00   0.1208605625E+00   0.4546331085E-01   0.3958202790E-03  -0.7117658073E-01  -0.7850385018E-02   0.5638475478E-02
   0.2799017607E+00   0.1094910003E+01   0.3998083268E+00   0.5797552724E-02  -0.3237507251E-02  -0.1916792020E-03   0.0000000000E+00   0.0000000000E+00   0.0000000000E+00   0.2881530479E+00   0.3113385599E-01   0.1996843217E-01  -0.3316241989E-01  -0.3875340157E-02  -0.3121940760E-03
   0.2519409510E+00   0.9662252021E+00   0.3998251262E+00   0.6003215953E-02  -0.3060404938E-02  -0.1748798075E-03   0.0000000000E+00   0.0000000000E+00   0.0000000000E+00   0.3500929337E+00   0.2183348513E-01   0.1595703955E-01  -0.7764682867E-01  -0.6002851225E-02   0.1935715327E-02
   0.6266060315E-01   0.1126762165E+01   0.3998219761E+00   0.5160874045E-02  -0.3385054905E-02  -0.1780299000E-03   0.0000000000E+00   0.0000000000E+00   0.0000000000E+00   0.3230147400E+00   0.3188538962E-01   0.2371017289E-01  -0.8455926225E-02  -0.8147130155E-03  -0.1287762379E-02
   0.6503852626E-01   0.9950731897E+00   0.3998422274E+00   0.5243064659E-02  -0.3137479280E-02  -0.1577786421E-03   0.0000000000E+00   0.0000000000E+00   0.0000000000E+00   0.4185798112E+00   0.5698680931E-02   0.2352977180E-01  -0.2009839138E-01  -0.1556467763E-02   0.4749982753E-03
  -0.1601711005E+00   0.1124768126E+01   0.3998155924E+00   0.4527872455E-02  -0.3347294061E-02  -0.1844135762E-03   0.0000000000E+00   0.0000000000E+00   0.0000000000E+00   0.3079108283E+00   0.3150657692E-01   0.2294300071E-01   0.1869811391E-01   0.2529784667E-02  -0.1097706540E-02
  -0.1263901573E+00   0.9882857968E+00   0.3998375255E+00   0.4454331749E-02  -0.3117127164E-02  -0.1624805175E-03   0.0000000000E+00   0.0000000000E+00   0.0000000000E+00   0.3995393473E+00   0.1142683315E-01   0.2079508565E-01   0.5156648779E-01   0.3724950919E-02   0.1072271163E-02
  -0.3869591116E+00   0.1089281536E+01   0.3997911886E+00   0.3905677442E-02  -0.3121513784E-02  -0.2088173783E-03   0.0000000000E+00   0.0000000000E+00   0.0000000000E+00   0.2475899545E+00   0.2652950027E-01   0.1589366100E-01   0.3192264935E-01   0.4493359384E-02  -0.1007721911E-03
  -0.3244783734E+00   0.9416346124E+00   0.3998098186E+00   0.3664060623E-02  -0.2993626573E-02  -0.1901874375E-03   0.0000000000E+00   0.0000000000E+00   0.0000000000E+00   0.2921626660E+00   0.3105695081E-01   0.8646723294E-02   0.8843018960E-01   0.7187721052E-02   0.3506898286E-02
   0.7938685016E+00   0.1068717039E+01   0.3997382155E+00   0.6875891560E-02  -0.2524580645E-02  -0.2617904502E-03   0.0000000000E+00   0.0000000000E+00   0.0000000000E+00   0.1595386916E+00  -0.1463608769E-01  -0.9397693676E-03  -0.1259183387E-01  -0.1846658584E-02   0.8506402867E-03
   0.5198360298E+00   0.1177679049E+01   0.3997720402E+00   0.6189546818E-02  -0.3045571200E-02  -0.2279657667E-03   0.0000000000E+00   0.0000000000E+00   0.0000000000E+00   0.2061997428E+00   0.1108429302E-01   0.7757562558E-03  -0.1295579811E-02  -0.3124214724E-02  -0.7052971108E-03
   0.2845380907E+00   0.1237897263E+01   0.3997938769E+00   0.5623162659E-02  -0.3384486772E-02  -0.2061290552E-03   0.0000000000E+00   0.0000000000E+00   0.0000000000E+00   0.2329577283E+00   0.2976958547E-01   0.1857516250E-02   0.1244139352E-03  -0.2248273432E-02  -0.2069343350E-02
   0.6235772543E-01   0.1268511922E+01   0.3998020899E+00   0.5122655834E-02  -0.3539178290E-02  -0.1979160828E-03   0.0000000000E+00   0.0000000000E+00   0.0000000000E+00   0.2403094457E+00   0.3887040841E-01   0.2130557075E-02   0.1628941216E-02  -0.4430614509E-03  -0.2957842765E-02
  -0.1589734437E+00   0.1275185957E+01   0.3997966436E+00   0.4647654255E-02  -0.3503663480E-02  -0.2033624076E-03   0.0000000000E+00   0.0000000000E+00   0.0000000000E+00   0.2305196539E+00   0.3606884671E-01   0.1189227811E-02  -0.6748904798E-04   0.1376678139E-02  -0.2741357005E-02
  -0.3850519396E+00   0.1261579860E+01   0.3997804271E+00   0.4175748413E-02  -0.3284820118E-02  -0.2195788620E-03   0.0000000000E+00   0.0000000000E+00   0.0000000000E+00   0.2072851481E+00   0.1943482663E-01  -0.2436913377E-02  -0.3792249852E-02   0.2215731849E-02  -0.1522327799E-02
  -0.1706197978E+00   0.1442741741E+01   0.3997719612E+00   0.4698190151E-02  -0.3617418642E-02  -0.2280447560E-03   0.0000000000E+00   0.0000000000E+00   0.0000000000E+00   0.1839349769E+00   0.2531486645E-01  -0.1924894281E-02  -0.8567232962E-02   0.6388948061E-03  -0.2991793108E-02
  -0.3928384693E+00   0.1441099868E+01   0.3997625717E+00   0.4315265657E-02  -0.3416071978E-02  -0.2374343261E-03   0.0000000000E+00   0.0000000000E+00   0.0000000000E+00   0.1776037606E+00   0.1194118897E-01  -0.2597981286E-02  -0.1591768148E-01   0.8906809397E-03  -0.2030757995E-02
  -0.1839025343E+00   0.1621882974E+01   0.3997480231E+00   0.4729968699E-02  -0.3721655517E-02  -0.2519829116E-03   0.0000000000E+00   0.0000000000E+00   0.0000000000E+00   0.1496887429E+00   0.1285049387E-01  -0.2110895972E-02  -0.1043907075E-01   0.7208355113E-04  -0.1609044651E-02
  -0.4049916581E+00   0.1623960670E+01   0.3997450262E+00   0.4406241870E-02  -0.3534139829E-02  -0.2549797683E-03   0.0000000000E+00   0.0000000000E+00   0.0000000000E+00   0.1515188816E+00   0.5885039341E-02  -0.1517358158E-02  -0.1773194308E-01  -0.9160424985E-04  -0.1035618957E-02
  -0.1935143512E+00   0.1807566020E+01   0.3997291464E+00   0.4771332751E-02  -0.3821520375E-02  -0.2708596315E-03   0.0000000000E+00   0.0000000000E+00   0.0000000000E+00   0.1146353785E+00   0.3248007997E-02  -0.6014313966E-02  -0.6773711561E-02  -0.4666071590E-03  -0.4440596516E-03
  -0.4143768283E+00   0.1809314980E+01   0.3997312542E+00   0.4504796726E-02  -0.3643020405E-02  -0.2687517871E-03   0.0000000000E+00   0.0000000000E+00   0.0000000000E+00   0.1241808435E+00   0.1218694819E-02  -0.4066342557E-02  -0.1131594558E-01  -0.8581787787E-03  -0.2793678166E-03
  -0.2012493603E+00   0.1996101125E+01   0.3997109190E+00   0.4842162652E-02  -0.3898874601E-02  -0.2890869581E-03   0.0000000000E+00   0.0000000000E+00   0.0000000000E+00   0.8260453506E-01   0.1814911757E-02  -0.2026252969E-02  -0.2272763535E-02  -0.1361212170E-02   0.2045357840E-04
  -0.4219939695E+00   0.1996265579E+01   0.3997177113E+00   0.4643799512E-02  -0.3734420763E-02  -0.2822946996E-03   0.0000000000E+00   0.0000000000E+00   0.0000000000E+00   0.1010589374E+00   0.1135234218E-02  -0.4288149753E-03  -0.3872923364E-02  -0.2383172857E-02  -0.4590882255E-04
   0.5150009945E-01   0.1433994198E+01   0.3997761687E+00   0.5080598147E-02  -0.3661961772E-02  -0.2238373007E-03   0.0000000000E+00   0.0000000000E+00   0.0000000000E+00   0.1890728958E+00   0.2963916100E-01  -0.1155383459E-02   0.2077429720E-02  -0.1336974441E-03  -0.3324824767E-02
   0.3863478736E-01   0.1614600170E+01   0.3997500043E+00   0.5048370965E-02  -0.3772990450E-02  -0.2500016715E-03   0.0000000000E+00   0.0000000000E+00   0.0000000000E+00   0.1507653858E+00   0.1615381716E-01  -0.1791753089E-02   0.1462288684E-02   0.2694527993E-04  -0.1897370374E-02
   0.2889877968E-01   0.1803568207E+01   0.3997290335E+00   0.5027372783E-02  -0.3875652798E-02  -0.2709724778E-03   0.0000000000E+00   0.0000000000E+00   0.0000000000E+00   0.1118918218E+00   0.4286859489E-02  -0.6942969307E-02   0.7856021936E-03   0.7896030861E-04  -0.5375292536E-03
   0.2137267035E-01   0.1996047424E+01   0.3997086714E+00   0.5012640751E-02  -0.3952575568E-02  -0.2913345765E-03   0.0000000000E+00   0.0000000000E+00   0.0000000000E+00   0.7625846172E-01   0.2067118953E-02  -0.2565025309E-02  -0.1838658019E-03   0.1113720852E-03   0.4272436559E-04
   0.2761723737E+00   0.1411249793E+01   0.3997728748E+00   0.5482617710E-02  -0.3529396713E-02  -0.2271312300E-03   0.0000000000E+00   0.0000000000E+00   0.0000000000E+00   0.1895862951E+00   0.2320574094E-01  -0.8573938326E-03   0.1083983360E-01  -0.9709702189E-03  -0.2734381841E-02
   0.2630392321E+00   0.1600214053E+01   0.3997500303E+00   0.5377889120E-02  -0.3665877234E-02  -0.2499756799E-03   0.0000000000E+00   0.0000000000E+00   0.0000000000E+00   0.1539980230E+00   0.1299847878E-01  -0.1535024068E-02   0.1310527786E-01  -0.7052992888E-04  -0.1670279699E-02
   0.2523696464E+00   0.1796688071E+01   0.3997307087E+00   0.5289648400E-02  -0.3787999413E-02  -0.2692972813E-03   0.0000000000E+00   0.0000000000E+00   0.0000000000E+00   0.1177477502E+00   0.3277462262E-02  -0.6198640075E-02   0.8464493182E-02   0.5345446010E-03  -0.4985839245E-03
   0.2442615411E+00   0.1996118250E+01   0.3997118017E+00   0.5186551136E-02  -0.3881750146E-02  -0.2882042794E-03   0.0000000000E+00   0.0000000000E+00   0.0000000000E+00   0.8485352173E-01   0.1897180826E-02  -0.1496057224E-02   0.2488951911E-02   0.1564230121E-02   0.8285560866E-04
   0.5088324645E+00   0.1374345566E+01   0.3997622571E+00   0.5923161487E-02  -0.3235673818E-02  -0.2377489067E-03   0.0000000000E+00   0.0000000000E+00   0.0000000000E+00   0.1824142132E+00   0.8202357562E-02  -0.5168879214E-03   0.1257720690E-01  -0.1286010332E-02  -0.1351980805E-02
   0.4909810356E+00   0.1579816136E+01   0.3997476980E+00   0.5734675620E-02  -0.3417934366E-02  -0.2523080441E-03   0.0000000000E+00   0.0000000000E+00   0.0000000000E+00   0.1577784865E+00   0.4179711248E-02  -0.1981698261E-02   0.1983996518E-01  -0.9463932999E-04  -0.1087403931E-02
   0.4769633884E+00   0.1787610790E+01   0.3997337507E+00   0.5577760423E-02  -0.3576499629E-02  -0.2662553456E-03   0.0000000000E+00   0.0000000000E+00   0.0000000000E+00   0.1297606743E+00   0.1313121426E-02  -0.3412128763E-02   0.1289874309E-01   0.8422325222E-03  -0.3349739515E-03
   0.4667469054E+00   0.1996298094E+01   0.3997192470E+00   0.5391129429E-02  -0.3701906169E-02  -0.2807590156E-03   0.0000000000E+00   0.0000000000E+00   0.0000000000E+00   0.1044456182E+00   0.1108022407E-02  -0.3808563415E-03   0.3717485384E-02   0.2440544532E-02   0.1007829788E-04
   0.7511530277E+00   0.1329628896E+01   0.3997472085E+00   0.6396448707E-02  -0.2839734185E-02  -0.2527974525E-03   0.0000000000E+00   0.0000000000E+00   0.0000000000E+00   0.1714033305E+00  -0.9208078732E-02  -0.3900027935E-03   0.8872275517E-02  -0.8867700732E-03  -0.1464819915E-03
   0.7188175432E+00   0.1557803176E+01   0.3997436269E+00   0.6114971172E-02  -0.3091554367E-02  -0.2563790713E-03   0.0000000000E+00   0.0000000000E+00   0.0000000000E+00   0.1597681731E+00  -0.3490355692E-02  -0.1913776744E-03   0.1914375579E-01  -0.2902596509E-04  -0.4362004056E-03
   0.6977493918E+00   0.1777747905E+01   0.3997371835E+00   0.5889073840E-02  -0.3291094874E-02  -0.2628224827E-03   0.0000000000E+00   0.0000000000E+00   0.0000000000E+00   0.1422976704E+00  -0.1201636366E-02  -0.1673345461E-02   0.1326028157E-01   0.8267404879E-03  -0.1551392917E-03
   0.6876073004E+00   0.1996548498E+01   0.3997288699E+00   0.5646062435E-02  -0.3451501715E-02  -0.2711361388E-03   0.0000000000E+00   0.0000000000E+00   0.0000000000E+00   0.1288956712E+00   0.4475560290E-03   0.1382695389E-02   0.4706971590E-02   0.2646851031E-02  -0.8775021122E-04
   0.9205839238E+00   0.1772380372E+01   0.3997398442E+00   0.6227453814E-02  -0.2979018310E-02  -0.2601617520E-03   0.0000000000E+00   0.0000000000E+00   0.0000000000E+00   0.1526781495E+00  -0.2430857370E-02   0.3888315315E-03   0.1077199790E-01   0.6144536267E-03  -0.2674598448E-04
   0.9082544453E+00   0.1996830292E+01   0.3997384056E+00   0.5950928323E-02  -0.3169708318E-02  -0.2616003999E-03   0.0000000000E+00   0.0000000000E+00   0.0000000000E+00   0.1508088753E+00  -0.3870478823E-03   0.1782469728E-02   0.3177986323E-02   0.2207919381E-02  -0.9109079546E-04
   0.1140924499E+01   0.1770076696E+01   0.3997417046E+00   0.6573479236E-02  -0.2685843508E-02  -0.2583014135E-03   0.0000000000E+00   0.0000000000E+00   0.0000000000E+00   0.1596370908E+00  -0.2947804945E-02   0.2116069136E-02   0.6002574116E-02   0.3616262141E-03   0.8747446668E-04
   0.1127807346E+01   0.1997106794E+01   0.3997455899E+00   0.6299816368E-02  -0.2893205927E-02  -0.2544160690E-03   0.0000000000E+00   0.0000000000E+00   0.0000000000E+00   0.1662073477E+00  -0.6993212522E-03   0.1355983873E-02   0.2606291763E-02   0.1441655898E-02  -0.1210300678E-03
   0.1359053630E+01   0.1769473782E+01   0.3997426703E+00   0.6925360355E-02  -0.2434257726E-02  -0.2573357018E-03   0.0000000000E+00   0.0000000000E+00   0.0000000000E+00   0.1615909090E+00  -0.2687927533E-02   0.1906659835E-02   0.1318341495E-02   0.1468483494E-03   0.1356876534E-03
   0.1346197534E+01   0.1997353409E+01   0.3997496703E+00   0.6671834122E-02  -0.2646590889E-02  -0.2503356959E-03   0.0000000000E+00   0.0000000000E+00   0.0000000000E+00   0.1745684836E+00  -0.9319881884E-03   0.1327173189E-02   0.6721828321E-03   0.6593825437E-03  -0.1225356890E-03
   0.1575694919E+01   0.1769674030E+01   0.3997426029E+00   0.7272128868E-02  -0.2234129716E-02  -0.2574031449E-03   0.0000000000E+00   0.0000000000E+00   0.0000000000E+00   0.1605500515E+00  -0.1492465918E-02   0.2216400775E-02  -0.2382741445E-02  -0.2850342743E-04   0.1043691002E-03
   0.1563718911E+01   0.1997559153E+01   0.3997508273E+00   0.7055401144E-02  -0.2440846967E-02  -0.2491786864E-03   0.0000000000E+00   0.0000000000E+00   0.0000000000E+00   0.1754235543E+00  -0.8885862830E-03   0.1242132333E-03  -0.1463466834E-03   0.6469323950E-04  -0.1169663503E-03
   0.1791489850E+01   0.1770225820E+01   0.3997416090E+00   0.7612719938E-02  -0.2081460450E-02  -0.2583970044E-03   0.0000000000E+00   0.0000000000E+00   0.0000000000E+00   0.1569701686E+00  -0.7180131651E-03   0.1542813294E-02  -0.4481482860E-02  -0.1430752582E-03   0.5565456398E-04
   0.1780690325E+01   0.1997720712E+01   0.3997496993E+00   0.7434145004E-02  -0.2279287903E-02  -0.2503067138E-03   0.0000000000E+00   0.0000000000E+00   0.0000000000E+00   0.1717743185E+00  -0.6779121291E-03  -0.1968535508E-03  -0.1198277748E-02  -0.3085596594E-03  -0.9619893940E-04
   0.2006844200E+01   0.1770920630E+01   0.3997398941E+00   0.7942589671E-02  -0.1970180376E-02  -0.2601119252E-03   0.0000000000E+00   0.0000000000E+00   0.0000000000E+00   0.1522817711E+00   0.3381843286E-04   0.1297786968E-02  -0.5496574592E-02  -0.1965707357E-03   0.1424826057E-04
   0.1997349703E+01   0.1997843204E+01   0.3997471354E+00   0.7802333070E-02  -0.2156796286E-02  -0.2528705989E-03   0.0000000000E+00   0.0000000000E+00   0.0000000000E+00   0.1652109026E+00  -0.5384129806E-03  -0.8914034013E-03  -0.1345764652E-02  -0.4803010340E-03  -0.7504245383E-04
   0.2221981791E+01   0.1771666756E+01   0.3997378032E+00   0.8262181159E-02  -0.1891144362E-02  -0.2622027897E-03   0.0000000000E+00   0.0000000000E+00   0.0000000000E+00   0.1470499110E+00   0.3805346441E-03   0.7755185201E-03  -0.5520071032E-02  -0.1960783493E-03  -0.1779198435E-04
   0.2213838977E+01   0.1997932482E+01   0.3997438833E+00   0.8154316655E-02  -0.2067517797E-02  -0.2561227238E-03   0.0000000000E+00   0.0000000000E+00   0.0000000000E+00   0.1579429001E+00  -0.3487190662E-03  -0.8980716959E-03  -0.1587232655E-02  -0.5089225536E-03  -0.4725127742E-04
   0.2437011782E+01   0.1772422315E+01   0.3997356534E+00   0.8570492230E-02  -0.1837015486E-02  -0.2643525847E-03   0.0000000000E+00   0.0000000000E+00   0.0000000000E+00   0.1421272630E+00   0.6626499666E-03   0.5973835176E-03  -0.5053397020E-02  -0.1699970854E-03  -0.3843257265E-04
   0.2430235243E+01   0.1997996047E+01   0.3997405702E+00   0.8490653407E-02  -0.2003952899E-02  -0.2594357669E-03   0.0000000000E+00   0.0000000000E+00   0.0000000000E+00   0.1507733898E+00  -0.2539531988E-03  -0.1066518610E-02  -0.1357049693E-02  -0.4536470031E-03  -0.2980060212E-04
   0.2651978201E+01   0.1773157822E+01   0.3997336838E+00   0.8869360677E-02  -0.1800787727E-02  -0.2663222478E-03   0.0000000000E+00   0.0000000000E+00   0.0000000000E+00   0.1377558236E+00   0.7281540417E-03   0.3219872704E-03  -0.4198461752E-02  -0.1319057549E-03  -0.5126507893E-04
   0.2646566358E+01   0.1998039754E+01   0.3997375799E+00   0.8811677511E-02  -0.1960245624E-02  -0.2624260573E-03   0.0000000000E+00   0.0000000000E+00   0.0000000000E+00   0.1446300676E+00  -0.1422662630E-03  -0.9001550310E-03  -0.1222931219E-02  -0.3643119853E-03  -0.1331433620E-04
   0.2866872006E+01   0.1773827142E+01   0.3997320529E+00   0.9159735739E-02  -0.1777577865E-02  -0.2679531297E-03   0.0000000000E+00   0.0000000000E+00   0.0000000000E+00   0.1342874365E+00   0.7952716882E-03   0.2582540614E-03  -0.3228250663E-02  -0.9372073337E-04  -0.5787775863E-04
   0.2862817269E+01   0.1998068937E+01   0.3997351467E+00   0.9120449258E-02  -0.1931063436E-02  -0.2648592600E-03   0.0000000000E+00   0.0000000000E+00   0.0000000000E+00   0.1396581873E+00  -0.1006708790E-03  -0.8914932237E-03  -0.8908519950E-03  -0.2646295254E-03  -0.5662094595E-05
   0.3081624133E+01   0.1774370715E+01   0.3997308471E+00   0.9443862597E-02  -0.1763415260E-02  -0.2691588799E-03   0.0000000000E+00   0.0000000000E+00   0.0000000000E+00   0.1317353438E+00   0.7660879480E-03   0.1259824083E-03  -0.2136708951E-02  -0.6088815492E-04  -0.6081478402E-04
   0.3078918591E+01   0.1998087150E+01   0.3997333739E+00   0.9419340579E-02  -0.1912849973E-02  -0.2666321316E-03   0.0000000000E+00   0.0000000000E+00   0.0000000000E+00   0.1361444784E+00  -0.4524334255E-04  -0.7387895961E-03  -0.6094090554E-03  -0.1732940216E-03   0.1426618692E-05
   0.3296079506E+01   0.1774744385E+01   0.3997301133E+00   0.9723296346E-02  -0.1755955448E-02  -0.2698926815E-03   0.0000000000E+00   0.0000000000E+00   0.0000000000E+00   0.1302283736E+00   0.7833345800E-03   0.1321281715E-03  -0.1139030645E-02  -0.2262962632E-04  -0.6192097330E-04
   0.3294722678E+01   0.1998097140E+01   0.3997323061E+00   0.9711627620E-02  -0.1902860285E-02  -0.2676998941E-03   0.0000000000E+00   0.0000000000E+00   0.0000000000E+00   0.1339988873E+00  -0.4015462223E-04  -0.7413858928E-03  -0.3689257489E-03  -0.7463376824E-04   0.3164120417E-05
   0.3510000000E+01   0.1774895279E+01   0.3997298676E+00   0.1000000000E-01  -0.1753601028E-02  -0.2701383698E-03   0.0000000000E+00   0.0000000000E+00   0.0000000000E+00   0.1297032077E+00   0.7537278382E-03   0.7402751794E-04   0.2196656248E-03  -0.2235822774E-04  -0.6205844365E-04
   0.3510000000E+01   0.1998100254E+01   0.3997319501E+00   0.1000000000E-01  -0.1899745835E-02  -0.2680558984E-03   0.0000000000E+00   0.0000000000E+00   0.0000000000E+00   0.1333200039E+00  -0.1826750530E-04  -0.6655328945E-03   0.2645761586E-03  -0.3193636970E-04   0.5195440932E-05
   0.9466556614E+00   0.1547726521E+01   0.3997394584E+00   0.6491214430E-02  -0.2755629415E-02  -0.2605475779E-03   0.0000000000E+00   0.0000000000E+00   0.0000000000E+00   0.1583514804E+00  -0.8986039500E-02   0.4180393675E-03   0.1318994142E-01  -0.3563929010E-04   0.1048968941E-03
   0.1168675254E+01   0.1544140215E+01   0.3997366438E+00   0.6854004068E-02  -0.2457984860E-02  -0.2633621982E-03   0.0000000000E+00   0.0000000000E+00   0.0000000000E+00   0.1535165030E+00  -0.1082451804E-01  -0.7691863439E-03   0.5320827024E-02  -0.1190944392E-04   0.3624775473E-03
   0.1386076876E+01   0.1543427819E+01   0.3997351512E+00   0.7193996272E-02  -0.2219091368E-02  -0.2648548257E-03   0.0000000000E+00   0.0000000000E+00   0.0000000000E+00   0.1488942695E+00  -0.8613841509E-02  -0.2632649445E-03  -0.1513126509E-02   0.2198022142E-04   0.3767012525E-03
   0.1600739279E+01   0.1543857195E+01   0.3997344401E+00   0.7517019198E-02  -0.2033735012E-02  -0.2655659421E-03   0.0000000000E+00   0.0000000000E+00   0.0000000000E+00   0.1443842197E+00  -0.5682151389E-02  -0.5314995290E-03  -0.6348932183E-02  -0.3250952348E-05   0.3114651190E-03
   0.1813998511E+01   0.1544736999E+01   0.3997338055E+00   0.7824231480E-02  -0.1897081407E-02  -0.2662005394E-03   0.0000000000E+00   0.0000000000E+00   0.0000000000E+00   0.1404069164E+00  -0.2726891655E-02  -0.2390320464E-03  -0.9243802045E-02  -0.5438848718E-04   0.2316947802E-03
   0.2026600730E+01   0.1545810416E+01   0.3997329765E+00   0.8119950381E-02  -0.1798433670E-02  -0.2670294528E-03   0.0000000000E+00   0.0000000000E+00   0.0000000000E+00   0.1366226226E+00  -0.6132216152E-03  -0.3077414756E-03  -0.1032403126E-01  -0.7659513052E-04   0.1572340939E-03
   0.2238906644E+01   0.1546965329E+01   0.3997319763E+00   0.8405234441E-02  -0.1730231338E-02  -0.2680296522E-03   0.0000000000E+00   0.0000000000E+00   0.0000000000E+00   0.1333129680E+00   0.9061550191E-03  -0.1191793786E-03  -0.1017482405E-01  -0.7914035463E-04   0.9290105992E-04
   0.2451081625E+01   0.1548142702E+01   0.3997308944E+00   0.8682834773E-02  -0.1683918444E-02  -0.2691116232E-03   0.0000000000E+00   0.0000000000E+00   0.0000000000E+00   0.1303657394E+00   0.1758764322E-02  -0.1221326890E-03  -0.9134189664E-02  -0.6738701141E-04   0.4539365377E-04
   0.2663191246E+01   0.1549287388E+01   0.3997298610E+00   0.8953736113E-02  -0.1653842190E-02  -0.2701449982E-03   0.0000000000E+00   0.0000000000E+00   0.0000000000E+00   0.1279570655E+00   0.2263490645E-02   0.2117060362E-05  -0.7616659830E-02  -0.5212694852E-04   0.9934549608E-05
   0.2875240096E+01   0.1550324522E+01   0.3997289671E+00   0.9219896016E-02  -0.1634757507E-02  -0.2710388595E-03   0.0000000000E+00   0.0000000000E+00   0.0000000000E+00   0.1260178688E+00   0.2453950730E-02  -0.6338302330E-05  -0.5819653306E-02  -0.3624740367E-04  -0.1191121975E-04
   0.3087166608E+01   0.1551168403E+01   0.3997282872E+00   0.9482207810E-02  -0.1623546966E-02  -0.2717188187E-03   0.0000000000E+00   0.0000000000E+00   0.0000000000E+00   0.1246536295E+00   0.2551886200E-02   0.6704489112E-04  -0.3899258530E-02  -0.2383065851E-04  -0.2637489198E-04
   0.3298830952E+01   0.1551758329E+01   0.3997278639E+00   0.9741992095E-02  -0.1617631481E-02  -0.2721420568E-03   0.0000000000E+00   0.0000000000E+00   0.0000000000E+00   0.1238067770E+00   0.2545641149E-02   0.4122906980E-04  -0.1996809790E-02  -0.7362656561E-05  -0.3292116522E-04
   0.3510000000E+01   0.1551978700E+01   0.3997277209E+00   0.1000000000E-01  -0.1615889919E-02  -0.2722850843E-03   0.0000000000E+00   0.0000000000E+00   0.0000000000E+00   0.1235447107E+00   0.2566106294E-02   0.8540997111E-04   0.1535243549E-03  -0.1336244005E-04  -0.3569382123E-04
   0.9894486539E+00   0.1319545811E+01   0.3997342238E+00   0.6821619895E-02  -0.2483298510E-02  -0.2657821502E-03   0.0000000000E+00   0.0000000000E+00   0.0000000000E+00   0.1560882719E+00  -0.1829699359E-01  -0.1202538513E-02   0.2604830275E-02  -0.5108545170E-03   0.3237346727E-03
   0.1213337820E+01   0.1318364838E+01   0.3997277627E+00   0.7179899748E-02  -0.2206112064E-02  -0.2722433138E-03   0.0000000000E+00   0.0000000000E+00   0.0000000000E+00   0.1439967091E+00  -0.1811181287E-01  -0.1202964244E-03  -0.3595952260E-02  -0.7041674320E-04   0.3832588601E-03
   0.1428560667E+01   0.1319308757E+01   0.3997255119E+00   0.7497956878E-02  -0.1994252849E-02  -0.2744940804E-03   0.0000000000E+00   0.0000000000E+00   0.0000000000E+00   0.1357623441E+00  -0.1395707812E-01  -0.1661994700E-03  -0.8760987542E-02   0.8180633619E-04   0.3395853372E-03
   0.1639501499E+01   0.1320555441E+01   0.3997252706E+00   0.7788229100E-02  -0.1838329020E-02  -0.2747354320E-03   0.0000000000E+00   0.0000000000E+00   0.0000000000E+00   0.1297886521E+00  -0.8612952707E-02   0.3016998364E-04  -0.1200508207E-01   0.5378190073E-04   0.2397945018E-03
   0.1848530678E+01   0.1321776285E+01   0.3997254908E+00   0.8060368292E-02  -0.1723634975E-02  -0.2745152024E-03   0.0000000000E+00   0.0000000000E+00   0.0000000000E+00   0.1253905957E+00  -0.3997905974E-02  -0.1254280924E-03  -0.1341818969E-01   0.1363378994E-04   0.2009385338E-03
   0.2056761041E+01   0.1322997425E+01   0.3997258105E+00   0.8319150648E-02  -0.1642614811E-02  -0.2741955082E-03   0.0000000000E+00   0.0000000000E+00   0.0000000000E+00   0.1223477799E+00  -0.4063898499E-03  -0.5763154212E-04  -0.1349700251E-01  -0.7494068509E-05   0.1419321589E-03
   0.2264667930E+01   0.1324245927E+01   0.3997259466E+00   0.8569419743E-02  -0.1585842674E-02  -0.2740594303E-03   0.0000000000E+00   0.0000000000E+00   0.0000000000E+00   0.1201786774E+00   0.1991875163E-02  -0.9649745576E-04  -0.1253605900E-01  -0.1870556595E-04   0.1086529801E-03
   0.2472443070E+01   0.1325498284E+01   0.3997259364E+00   0.8813589603E-02  -0.1547755857E-02  -0.2740695626E-03   0.0000000000E+00   0.0000000000E+00   0.0000000000E+00   0.1187109569E+00   0.3499925566E-02  -0.1768304778E-04  -0.1095878605E-01  -0.1784203611E-04   0.7057001617E-04
   0.2680161757E+01   0.1326704798E+01   0.3997258003E+00   0.9054227297E-02  -0.1522481620E-02  -0.2742056899E-03   0.0000000000E+00   0.0000000000E+00   0.0000000000E+00   0.1176538222E+00   0.4301091138E-02  -0.3066827397E-04  -0.8984042596E-02  -0.1584743172E-04   0.4806925269E-04
   0.2887838596E+01   0.1327793248E+01   0.3997256155E+00   0.9292356035E-02  -0.1506682278E-02  -0.2743905005E-03   0.0000000000E+00   0.0000000000E+00   0.0000000000E+00   0.1169479775E+00   0.4710595864E-02   0.2917405637E-04  -0.6828259730E-02  -0.1126857562E-04   0.2734273041E-04
   0.3095440888E+01   0.1328685198E+01   0.3997254375E+00   0.9529138413E-02  -0.1497111990E-02  -0.2745685063E-03   0.0000000000E+00   0.0000000000E+00   0.0000000000E+00   0.1164565411E+00   0.4848380955E-02   0.9333116698E-05  -0.4557533112E-02  -0.7988702157E-05   0.1661415703E-04
   0.3302882896E+01   0.1329320192E+01   0.3997253123E+00   0.9764896219E-02  -0.1492257918E-02  -0.2746936737E-03   0.0000000000E+00   0.0000000000E+00   0.0000000000E+00   0.1161937681E+00   0.4907498323E-02   0.4919552388E-04  -0.2333030928E-02  -0.2522690335E-05   0.8582907949E-05
   0.3510000000E+01   0.1329546616E+01   0.3997252684E+00   0.1000000000E-01  -0.1490663973E-02  -0.2747375893E-03   0.0000000000E+00   0.0000000000E+00   0.0000000000E+00   0.1160926679E+00   0.4897808522E-02   0.2055110132E-04   0.1686134051E-03  -0.4410234953E-05   0.7333137328E-05
   0.1052344254E+01   0.1083780843E+01   0.3997203353E+00   0.7260733858E-02  -0.2180256510E-02  -0.2796707302E-03   0.0000000000E+00   0.0000000000E+00   0.0000000000E+00   0.1364280332E+00  -0.2480341308E-01  -0.1406454114E-02  -0.9922712549E-02  -0.5702194645E-03   0.5176360973E-03
   0.1272846923E+01   0.1091912557E+01   0.3997155812E+00   0.7563223072E-02  -0.1944973233E-02  -0.2844247595E-03   0.0000000000E+00   0.0000000000E+00   0.0000000000E+00   0.1246304402E+00  -0.2223525534E-01   0.1633238796E-03  -0.1482386046E-01   0.8993480746E-04   0.3272081642E-03
   0.1481497043E+01   0.1096384741E+01   0.3997148018E+00   0.7829663148E-02  -0.1779338736E-02  -0.2852042473E-03   0.0000000000E+00   0.0000000000E+00   0.0000000000E+00   0.1172768460E+00  -0.1556364059E-01   0.2058224060E-03  -0.1670113234E-01   0.1481146531E-03   0.1912637295E-03
   0.1685986868E+01   0.1098720382E+01   0.3997162002E+00   0.8073677625E-02  -0.1657057815E-02  -0.2838058007E-03   0.0000000000E+00   0.0000000000E+00   0.0000000000E+00   0.1122828645E+00  -0.8649995573E-02   0.1816677472E-03  -0.1725015655E-01   0.1071496779E-03   0.1106920977E-03
   0.1889106470E+01   0.1100100382E+01   0.3997176588E+00   0.8302880320E-02  -0.1569167825E-02  -0.2823471664E-03   0.0000000000E+00   0.0000000000E+00   0.0000000000E+00   0.1092827001E+00  -0.2986424783E-02   0.1597448197E-04  -0.1667018305E-01   0.4372164872E-04   0.6667338784E-04
   0.2091829695E+01   0.1101261066E+01   0.3997191986E+00   0.8522424787E-02  -0.1505323770E-02  -0.2808074470E-03   0.0000000000E+00   0.0000000000E+00   0.0000000000E+00   0.1077164999E+00   0.1259230096E-02  -0.1516390091E-04  -0.1527843498E-01   0.2313585192E-04   0.5340731255E-04
   0.2294439581E+01   0.1102429287E+01   0.3997203419E+00   0.8736161306E-02  -0.1460652971E-02  -0.2796641022E-03   0.0000000000E+00   0.0000000000E+00   0.0000000000E+00   0.1071248172E+00   0.4066834658E-02  -0.2983105455E-04  -0.1345454003E-01   0.6205291054E-05   0.4114847668E-04
   0.2497008384E+01   0.1103599989E+01   0.3997212431E+00   0.8947193796E-02  -0.1429241451E-02  -0.2787629027E-03   0.0000000000E+00   0.0000000000E+00   0.0000000000E+00   0.1070878113E+00   0.5789816873E-02  -0.2894584805E-04  -0.1134567845E-01   0.4353817296E-05   0.3595958475E-04
   0.2699565110E+01   0.1104729043E+01   0.3997218317E+00   0.9157119990E-02  -0.1408236865E-02  -0.2781742686E-03   0.0000000000E+00   0.0000000000E+00   0.0000000000E+00   0.1073351663E+00   0.6738633990E-02  -0.1165741473E-05  -0.9125996844E-02   0.1367896961E-05   0.2830258954E-04
   0.2902120521E+01   0.1105763210E+01   0.3997222322E+00   0.9367161493E-02  -0.1394260129E-02  -0.2777738353E-03   0.0000000000E+00   0.0000000000E+00   0.0000000000E+00   0.1076490694E+00   0.7184774633E-02  -0.1029233011E-04  -0.6845586695E-02   0.1281412392E-05   0.2379622520E-04
   0.3104678214E+01   0.1106634230E+01   0.3997224587E+00   0.9577573913E-02  -0.1385840461E-02  -0.2775473326E-03   0.0000000000E+00   0.0000000000E+00   0.0000000000E+00   0.1079462067E+00   0.7370710451E-02   0.1719433243E-04  -0.4550237270E-02   0.4631125842E-06   0.1913792003E-04
   0.3307260077E+01   0.1107273068E+01   0.3997225849E+00   0.9788556846E-02  -0.1381192251E-02  -0.2774210986E-03   0.0000000000E+00   0.0000000000E+00   0.0000000000E+00   0.1081347791E+00   0.7409542404E-02  -0.1036345384E-05  -0.2306554365E-02  -0.2631239008E-06   0.1717047909E-04
   0.3510000000E+01   0.1107623401E+01   0.3997226197E+00   0.1000000000E-01  -0.1379908643E-02  -0.2773863242E-03   0.0000000000E+00   0.0000000000E+00   0.0000000000E+00   0.1082102548E+00   0.7426050695E-02   0.1990661984E-04   0.1158295460E-03   0.1829542317E-05   0.1593395044E-04
   0.3314057939E+01   0.8860105622E+00   0.3997199537E+00   0.9812939219E-02  -0.1284862831E-02  -0.2800522529E-03   0.0000000000E+00   0.0000000000E+00   0.0000000000E+00   0.1004205910E+00   0.9788021952E-02   0.5905896867E-05  -0.1987181320E-02  -0.8900387706E-06   0.2134121276E-04
   0.3510000000E+01   0.8862031733E+00   0.3997200496E+00   0.1000000000E-01  -0.1283284749E-02  -0.2799563672E-03   0.0000000000E+00   0.0000000000E+00   0.0000000000E+00   0.1006098650E+00   0.9780120534E-02  -0.3442935899E-05   0.1800588471E-03   0.9205013589E-05   0.2045611710E-04
   0.3321182903E+01   0.6647909473E+00   0.3997175319E+00   0.9834223317E-02  -0.1201193723E-02  -0.2824740769E-03   0.0000000000E+00   0.0000000000E+00   0.0000000000E+00   0.9362972670E-01   0.1169169480E-01  -0.7596591953E-05  -0.1380179721E-02  -0.8700674567E-06   0.1966867157E-04
   0.3510000000E+01   0.6648423231E+00   0.3997176625E+00   0.1000000000E-01  -0.1199587885E-02  -0.2823435218E-03   0.0000000000E+00   0.0000000000E+00   0.0000000000E+00   0.9390976874E-01   0.1167927410E-01  -0.2742513713E-05   0.1445267911E-03   0.1282083273E-04   0.1969021940E-04
   0.3327383102E+01   0.4432418014E+00   0.3997154746E+00   0.9850321683E-02  -0.1127753557E-02  -0.2845313754E-03   0.0000000000E+00   0.0000000000E+00   0.0000000000E+00   0.8831807090E-01   0.1285461406E-01  -0.5534327827E-05  -0.6410296265E-03  -0.1372966284E-05   0.1631353187E-04
   0.3510000000E+01   0.4431902850E+00   0.3997156255E+00   0.1000000000E-01  -0.1125654964E-02  -0.2843804708E-03   0.0000000000E+00   0.0000000000E+00   0.0000000000E+00   0.8865270356E-01   0.1282457571E-01  -0.5250542288E-05   0.2392957596E-03   0.1578151617E-04   0.1586660318E-04
   0.3331677001E+01   0.2215578820E+00   0.3997138534E+00   0.9860081280E-02  -0.1060489007E-02  -0.2861525617E-03   0.0000000000E+00   0.0000000000E+00   0.0000000000E+00   0.8488220196E-01   0.1304352400E-01  -0.4178295000E-05   0.2180472502E-03  -0.1282360815E-05   0.1223499301E-04
   0.3510000000E+01   0.2213308535E+00   0.3997140100E+00   0.1000000000E-01  -0.1058173512E-02  -0.2859960427E-03   0.0000000000E+00   0.0000000000E+00   0.0000000000E+00   0.8523199173E-01   0.1300730233E-01  -0.7717398693E-05   0.2222608303E-03   0.1679207593E-04   0.1227454765E-04
   0.3334493675E+01   0.4801384034E-05   0.3997127272E+00   0.9863894623E-02  -0.9953533760E-03  -0.2872787845E-03   0.0000000000E+00   0.0000000000E+00   0.0000000000E+00   0.8352634616E-01   0.1214655835E-01  -0.7420356399E-05   0.1050457848E-02  -0.1030380073E-05   0.7559352268E-05
   0.3510000000E+01  -0.3060194729E-03   0.3997128784E+00   0.1000000000E-01  -0.9924563649E-03  -0.2871275620E-03   0.0000000000E+00   0.0000000000E+00   0.0000000000E+00   0.8386330382E-01   0.1211798082E-01  -0.1929916378E-05   0.3269122467E-03   0.1655955038E-04   0.7357187443E-05
   0.3118221893E+01   0.8856457809E+00   0.3997196627E+00   0.9626762728E-02  -0.1289453103E-02  -0.2803432837E-03   0.0000000000E+00   0.0000000000E+00   0.0000000000E+00   0.9984969699E-01   0.9759088096E-02  -0.8630367297E-05  -0.3884676535E-02   0.3566189928E-05   0.2253090761E-04
   0.3132216782E+01   0.6646706081E+00   0.3997171258E+00   0.9669391577E-02  -0.1206495890E-02  -0.2828801747E-03   0.0000000000E+00   0.0000000000E+00   0.0000000000E+00   0.9279142135E-01   0.1172030369E-01  -0.5191299211E-05  -0.2704877113E-02   0.5840874739E-05   0.2069750023E-04
   0.3144363975E+01   0.4432818542E+00   0.3997150106E+00   0.9701585288E-02  -0.1133685820E-02  -0.2849953957E-03   0.0000000000E+00   0.0000000000E+00   0.0000000000E+00   0.8731285748E-01   0.1292718428E-01  -0.5927508215E-05  -0.1161692763E-02   0.6364738263E-05   0.1642350483E-04
   0.3152841617E+01   0.2217728978E+00   0.3997133684E+00   0.9721087137E-02  -0.1067709231E-02  -0.2866376404E-03   0.0000000000E+00   0.0000000000E+00   0.0000000000E+00   0.8380953956E-01   0.1313858004E-01  -0.6768761421E-05   0.5654802868E-03   0.7419447153E-05   0.1307162840E-04
   0.3158618758E+01   0.4224555425E-03   0.3997122611E+00   0.9728737697E-02  -0.1003563228E-02  -0.2877449304E-03   0.0000000000E+00   0.0000000000E+00   0.0000000000E+00   0.8249912359E-01   0.1223023698E-01  -0.8228375093E-05   0.2320166447E-02   0.7908365469E-05   0.7483854790E-05
   0.2922404696E+01   0.8851373342E+00   0.3997191441E+00   0.9442016053E-02  -0.1297935764E-02  -0.2808618518E-03   0.0000000000E+00   0.0000000000E+00   0.0000000000E+00   0.9893656992E-01   0.9641507927E-02  -0.1174175915E-05  -0.5909626520E-02   0.4575818698E-05   0.2557609301E-04
   0.2943144941E+01   0.6644811611E+00   0.3997164203E+00   0.9506610545E-02  -0.1215340903E-02  -0.2835856868E-03   0.0000000000E+00   0.0000000000E+00   0.0000000000E+00   0.9139943383E-01   0.1168812942E-01  -0.1156077924E-04  -0.4155053244E-02   0.6682428039E-05   0.2118781278E-04
   0.2961116173E+01   0.4432984639E+00   0.3997142035E+00   0.9555203067E-02  -0.1143957149E-02  -0.2858025429E-03   0.0000000000E+00   0.0000000000E+00   0.0000000000E+00   0.8561096689E-01   0.1299731299E-01  -0.1143738171E-04  -0.1838165266E-02   0.7211004760E-05   0.1758396530E-04
   0.2973766966E+01   0.2220071549E+00   0.3997125266E+00   0.9584586032E-02  -0.1079515062E-02  -0.2874794398E-03   0.0000000000E+00   0.0000000000E+00   0.0000000000E+00   0.8199740977E-01   0.1326348168E-01  -0.7037356392E-06   0.7995524156E-03   0.8304945727E-05   0.1378144098E-04
   0.2982671915E+01   0.9503703722E-03   0.3997114538E+00   0.9596045051E-02  -0.1017462078E-02  -0.2885522037E-03   0.0000000000E+00   0.0000000000E+00   0.0000000000E+00   0.8076638723E-01   0.1234140226E-01  -0.1804751281E-04   0.3479679290E-02   0.8904899348E-05   0.7871522916E-05
   0.2726584939E+01   0.8845233003E+00   0.3997183547E+00   0.9259248799E-02  -0.1310678669E-02  -0.2816512998E-03   0.0000000000E+00   0.0000000000E+00   0.0000000000E+00   0.9771576594E-01   0.9264287018E-02  -0.1660592881E-04  -0.7982986187E-02   0.5455818301E-05   0.2727782247E-04
   0.2754007676E+01   0.6642333287E+00   0.3997153585E+00   0.9346825952E-02  -0.1228569294E-02  -0.2846474584E-03   0.0000000000E+00   0.0000000000E+00   0.0000000000E+00   0.8946263033E-01   0.1150144830E-01  -0.1358569575E-04  -0.5701383719E-02   0.8608739267E-05   0.2258351558E-04
   0.2777742875E+01   0.4432905035E+00   0.3997129994E+00   0.9412535036E-02  -0.1158325466E-02  -0.2870066033E-03   0.0000000000E+00   0.0000000000E+00   0.0000000000E+00   0.8320366052E-01   0.1298569588E-01  -0.8152202533E-05  -0.2578603873E-02   0.8054685809E-05   0.1767772724E-04
   0.2795678221E+01   0.2220002999E+00   0.3997112816E+00   0.9452900815E-02  -0.1096160060E-02  -0.2887243587E-03   0.0000000000E+00   0.0000000000E+00   0.0000000000E+00   0.7938147161E-01   0.1335695012E-01  -0.1164960986E-04   0.1034170655E-02   0.1043992731E-04   0.1599238541E-04
   0.2808951116E+01   0.1015945172E-02   0.3997102732E+00   0.9468765821E-02  -0.1036235298E-02  -0.2897327625E-03   0.0000000000E+00   0.0000000000E+00   0.0000000000E+00   0.7824948886E-01   0.1243975754E-01  -0.2734897898E-04   0.4717348201E-02   0.1276006837E-04   0.8237673959E-05
   0.2530760547E+01   0.8838414638E+00   0.3997172325E+00   0.9078526725E-02  -0.1329353204E-02  -0.2827735158E-03   0.0000000000E+00   0.0000000000E+00   0.0000000000E+00   0.9628763341E-01   0.8452788481E-02  -0.1905993501E-04  -0.1016827966E-01   0.8243540133E-05   0.3240316310E-04
   0.2564834952E+01   0.6639441305E+00   0.3997138788E+00   0.9190912086E-02  -0.1246268547E-02  -0.2861272024E-03   0.0000000000E+00   0.0000000000E+00   0.0000000000E+00   0.8701474115E-01   0.1097589779E-01  -0.1202540814E-04  -0.7423078159E-02   0.1019277116E-04   0.2219732261E-04
   0.2594842500E+01   0.4431385144E+00   0.3997113293E+00   0.9275260340E-02  -0.1177336640E-02  -0.2886767491E-03   0.0000000000E+00   0.0000000000E+00   0.0000000000E+00   0.8003704201E-01   0.1277738669E-01  -0.1792093857E-04  -0.3473308494E-02   0.9863368907E-05   0.1888912790E-04
   0.2616575639E+01   0.2222111254E+00   0.3997095469E+00   0.9325899190E-02  -0.1117569643E-02  -0.2904591494E-03   0.0000000000E+00   0.0000000000E+00   0.0000000000E+00   0.7593702689E-01   0.1334745019E-01   0.1283711991E-04   0.1179646696E-02   0.1128822427E-04   0.1797097968E-04
   0.2632978439E+01   0.1608719188E-02   0.3997086250E+00   0.9345059073E-02  -0.1060931872E-02  -0.2913809678E-03   0.0000000000E+00   0.0000000000E+00   0.0000000000E+00   0.7492539470E-01   0.1246524314E-01  -0.4087889167E-04   0.5994362344E-02   0.1233997562E-04   0.8927744069E-05
   0.2334928764E+01   0.8831243580E+00   0.3997156971E+00   0.8899703614E-02  -0.1354986000E-02  -0.2843088992E-03   0.0000000000E+00   0.0000000000E+00   0.0000000000E+00   0.9480110802E-01   0.6910500000E-02  -0.2609031424E-05  -0.1246095877E-01   0.1002179039E-04   0.3216535659E-04
   0.2375643167E+01   0.6636293500E+00   0.3997118703E+00   0.9039316556E-02  -0.1269701024E-02  -0.2881356779E-03   0.0000000000E+00   0.0000000000E+00   0.0000000000E+00   0.8409777930E-01   0.9886416372E-02  -0.2621054197E-04  -0.9400242318E-02   0.1378793728E-04   0.2373173197E-04
   0.2411237051E+01   0.4431242667E+00   0.3997090574E+00   0.9143640964E-02  -0.1200942270E-02  -0.2909485554E-03   0.0000000000E+00   0.0000000000E+00   0.0000000000E+00   0.7608817885E-01   0.1218605782E-01   0.7701000125E-05  -0.4612991913E-02   0.1202180717E-04   0.1853276096E-04
   0.2440025035E+01   0.2219650409E+00   0.3997072280E+00   0.9207665118E-02  -0.1143474088E-02  -0.2927780437E-03   0.0000000000E+00   0.0000000000E+00   0.0000000000E+00   0.7153669738E-01   0.1310156644E-01   0.2012759665E-04   0.1234566904E-02   0.1543723396E-04   0.2075728860E-04
   0.2465612724E+01   0.7719733982E-03   0.3997065197E+00   0.9233543944E-02  -0.1088857532E-02  -0.2934863061E-03   0.0000000000E+00   0.0000000000E+00   0.0000000000E+00   0.7079992827E-01   0.1231487528E-01  -0.7035672739E-04   0.7274237966E-02   0.1518126503E-04   0.8036060304E-05
   0.2139086361E+01   0.8823938087E+00   0.3997136910E+00   0.8721701263E-02  -0.1390426318E-02  -0.2863150085E-03   0.0000000000E+00   0.0000000000E+00   0.0000000000E+00   0.9346869673E-01   0.4309379551E-02   0.5852392353E-05  -0.1490160777E-01   0.2808944968E-04   0.4440029569E-04
   0.2186452852E+01   0.6632890305E+00   0.3997092182E+00   0.8892281816E-02  -0.1299301482E-02  -0.2907878305E-03   0.0000000000E+00   0.0000000000E+00   0.0000000000E+00   0.8083931080E-01   0.7961737146E-02   0.6824332651E-04  -0.1172043147E-01   0.3008617816E-04   0.2558676736E-04
   0.2228297215E+01   0.4429301345E+00   0.3997060382E+00   0.9019834789E-02  -0.1229641475E-02  -0.2939678261E-03   0.0000000000E+00   0.0000000000E+00   0.0000000000E+00   0.7126189687E-01   0.1096872956E-01   0.5821768013E-05  -0.6094137914E-02   0.3229697008E-04   0.2398423602E-04
   0.2264697663E+01   0.2213473270E+00   0.3997041559E+00   0.9098643085E-02  -0.1173427021E-02  -0.2958501474E-03   0.0000000000E+00   0.0000000000E+00   0.0000000000E+00   0.6608046003E-01   0.1247182418E-01   0.1245111550E-03   0.1112328477E-02   0.3589033402E-04   0.2607909999E-04
   0.2301117348E+01  -0.1120538696E-02   0.3997038082E+00   0.9131118464E-02  -0.1120538696E-02  -0.2961977919E-03   0.0000000000E+00   0.0000000000E+00   0.0000000000E+00   0.6573969679E-01   0.1191295497E-01  -0.4606642319E-04   0.8662701751E-02   0.3586363126E-04   0.8084301796E-05
   0.1943240779E+01   0.8815654665E+00   0.3997110979E+00   0.8542909242E-02  -0.1437768518E-02  -0.2889080968E-03   0.0000000000E+00   0.0000000000E+00   0.0000000000E+00   0.9264963947E-01   0.3036268777E-03   0.1708644806E-03  -0.1741871588E-01   0.5961929778E-04   0.5144932019E-04
   0.1997333465E+01   0.6627612257E+00   0.3997057077E+00   0.8749665436E-02  -0.1337096311E-02  -0.2942983250E-03   0.0000000000E+00   0.0000000000E+00   0.0000000000E+00   0.7727168394E-01   0.4753319306E-02   0.1192223557E-03  -0.1448901828E-01   0.7965094898E-04   0.4436841123E-04
   0.2045302242E+01   0.4425534489E+00   0.3997019411E+00   0.8904312288E-02  -0.1263421131E-02  -0.2980649411E-03   0.0000000000E+00   0.0000000000E+00   0.0000000000E+00   0.6554827141E-01   0.8875574950E-02   0.2542587445E-03  -0.8054676090E-02   0.8894173071E-04   0.3689243103E-04
   0.2087580191E+01   0.2209772186E+00   0.3996999556E+00   0.8998620940E-02  -0.1208333384E-02  -0.3000503561E-03   0.0000000000E+00   0.0000000000E+00   0.0000000000E+00   0.5925705909E-01   0.1115640833E-01   0.2097791713E-03   0.6885172715E-03   0.9276151920E-04   0.3748679074E-04
   0.2128402165E+01  -0.1158550171E-02   0.3996999890E+00   0.9033134881E-02  -0.1158550171E-02  -0.3000169798E-03   0.0000000000E+00   0.0000000000E+00   0.0000000000E+00   0.5922123767E-01   0.1100155891E-01   0.8113428836E-04   0.9983328889E-02   0.8166190928E-04   0.5785992341E-05
   0.1747362736E+01   0.8801095697E+00   0.3997080075E+00   0.8360985835E-02  -0.1502135311E-02  -0.2919984696E-03   0.0000000000E+00   0.0000000000E+00   0.0000000000E+00   0.9266201842E-01  -0.5519820302E-02   0.2660496132E-03  -0.1994171879E-01   0.1552401135E-03   0.1254338722E-03
   0.1808457812E+01   0.6613795434E+00   0.3997011394E+00   0.8611161938E-02  -0.1384290647E-02  -0.2988665787E-03   0.0000000000E+00   0.0000000000E+00   0.0000000000E+00   0.7363293869E-01  -0.2858137033E-04   0.5723181695E-03  -0.1776915255E-01   0.2048594597E-03   0.1037293897E-03
   0.1862547301E+01   0.4414012500E+00   0.3996964069E+00   0.8798740824E-02  -0.1303427973E-02  -0.3035990796E-03   0.0000000000E+00   0.0000000000E+00   0.0000000000E+00   0.5860734030E-01   0.5261781041E-02   0.4684511326E-03  -0.1060024992E-01   0.2602697780E-03   0.9106666501E-04
   0.1908658456E+01   0.2205396595E+00   0.3996941231E+00   0.8909655626E-02  -0.1247659513E-02  -0.3058828840E-03   0.0000000000E+00   0.0000000000E+00   0.0000000000E+00   0.5087947759E-01   0.8744060644E-02   0.7703676067E-03  -0.1266249135E-03   0.2692864271E-03   0.6174890432E-04
   0.1950276029E+01  -0.1925440755E-03   0.3996946269E+00   0.8944288563E-02  -0.1201261656E-02  -0.3053791313E-03   0.0000000000E+00   0.0000000000E+00   0.0000000000E+00   0.5094456742E-01   0.9043488219E-02   0.2456157025E-03   0.1129124104E-01   0.2235617142E-03  -0.7069951014E-05
   0.1551265452E+01   0.8767191517E+00   0.3997043639E+00   0.8173681805E-02  -0.1587833340E-02  -0.2956421200E-03   0.0000000000E+00   0.0000000000E+00   0.0000000000E+00   0.9393188225E-01  -0.1281508514E-01   0.8794606747E-03  -0.2211150875E-01   0.2619184784E-03   0.2248980664E-03
   0.1620325160E+01   0.6577632655E+00   0.3996951719E+00   0.8477759630E-02  -0.1445091501E-02  -0.3048341088E-03   0.0000000000E+00   0.0000000000E+00   0.0000000000E+00   0.6962968244E-01  -0.7168406729E-02   0.7358812105E-03  -0.2126461999E-01   0.4398987900E-03   0.2784458587E-03
   0.1680711415E+01   0.4384707594E+00   0.3996886808E+00   0.8704805321E-02  -0.1350245615E-02  -0.3113252187E-03   0.0000000000E+00   0.0000000000E+00   0.0000000000E+00   0.5030919995E-01  -0.4951651313E-03   0.1199648522E-02  -0.1371016911E-01   0.5954641951E-03   0.2333096282E-03
   0.1732190633E+01   0.2188874489E+00   0.3996859298E+00   0.8836892575E-02  -0.1290544122E-02  -0.3140761582E-03   0.0000000000E+00   0.0000000000E+00   0.0000000000E+00   0.4022473927E-01   0.4238381814E-02   0.1216046732E-02  -0.1234784925E-02   0.6336651476E-03   0.1145375328E-03
   0.1779125282E+01  -0.3265610120E-03   0.3996872737E+00   0.8872461742E-02  -0.1244652461E-02  -0.3127322833E-03   0.0000000000E+00   0.0000000000E+00   0.0000000000E+00   0.4075550509E-01   0.5555810648E-02   0.7702615833E-03   0.1241142994E-01   0.5336393753E-03  -0.3532714076E-04
   0.1354754375E+01   0.8693039329E+00   0.3997012631E+00   0.7981224994E-02  -0.1705000120E-02  -0.2987429390E-03   0.0000000000E+00   0.0000000000E+00   0.0000000000E+00   0.9636947639E-01  -0.2180531804E-01   0.5435727985E-03  -0.2366500995E-01   0.3448946776E-03   0.5509359990E-03
   0.1434516609E+01   0.6500095374E+00   0.3996878106E+00   0.8351978592E-02  -0.1523887628E-02  -0.3121954302E-03   0.0000000000E+00   0.0000000000E+00   0.0000000000E+00   0.6536154460E-01  -0.1591200236E-01   0.2034608788E-02  -0.2480145076E-01   0.7828322340E-03   0.7002145523E-03
   0.1502566088E+01   0.4324052703E+00   0.3996784723E+00   0.8626687957E-02  -0.1407556748E-02  -0.3215337158E-03   0.0000000000E+00   0.0000000000E+00   0.0000000000E+00   0.3979941227E-01  -0.9699766021E-02   0.1388617489E-02  -0.1643331199E-01   0.1186255275E-02   0.5508372562E-03
   0.1557252291E+01   0.2159024958E+00   0.3996746496E+00   0.8780361240E-02  -0.1337554242E-02  -0.3253563752E-03   0.0000000000E+00   0.0000000000E+00   0.0000000000E+00   0.2729460218E-01  -0.4000429474E-02   0.1943223144E-02  -0.2529104141E-02   0.1308896089E-02   0.2333615628E-03
   0.1602029581E+01   0.4344235424E-03   0.3996767477E+00   0.8814831373E-02  -0.1289328348E-02  -0.3232582931E-03   0.0000000000E+00   0.0000000000E+00   0.0000000000E+00   0.2778127319E-01  -0.1389049152E-02   0.1447355092E-02   0.1307772068E-01   0.1148098887E-02  -0.1025285719E-03
   0.1158821599E+01   0.8547972802E+00   0.3996993106E+00   0.7788788648E-02  -0.1860880775E-02  -0.3006953782E-03   0.0000000000E+00   0.0000000000E+00   0.0000000000E+00   0.1004095804E+00  -0.2704438799E-01   0.2281335282E-02  -0.2468280070E-01   0.9372834816E-04   0.1171564636E-02
   0.1255240056E+01   0.6359635282E+00   0.3996794341E+00   0.8245445972E-02  -0.1630336761E-02  -0.3205719074E-03   0.0000000000E+00   0.0000000000E+00   0.0000000000E+00   0.5701113277E-01  -0.2634313503E-01   0.4063862138E-03  -0.2563150013E-01   0.1049256280E-02   0.1524594179E-02
   0.1332594695E+01   0.4222124846E+00   0.3996654169E+00   0.8565965453E-02  -0.1481589410E-02  -0.3345890605E-03   0.0000000000E+00   0.0000000000E+00   0.0000000000E+00   0.2761852878E-01  -0.2378034874E-01   0.9930130234E-03  -0.1683034583E-01   0.1802287818E-02   0.1145613997E-02
   0.1387740074E+01   0.2110367438E+00   0.3996595195E+00   0.8740723595E-02  -0.1390246210E-02  -0.3404864931E-03   0.0000000000E+00   0.0000000000E+00   0.0000000000E+00   0.1265509006E-01  -0.1930664398E-01   0.1379060738E-02  -0.2877322067E-02   0.2142337783E-02   0.4255737921E-03
   0.1422657918E+01   0.1829227698E-02   0.3996614949E+00   0.8773277693E-02  -0.1331509752E-02  -0.3385110966E-03   0.0000000000E+00   0.0000000000E+00   0.0000000000E+00   0.1257019922E-01  -0.1554989752E-01   0.1448452212E-02   0.1290450608E-01   0.2027309818E-02  -0.2367761832E-03
   0.9709715346E+00   0.8278030681E+00   0.3997018439E+00   0.7637570585E-02  -0.2063877910E-02  -0.2981620810E-03   0.0000000000E+00   0.0000000000E+00   0.0000000000E+00   0.9836101885E-01  -0.2607751377E-01   0.1609665803E-02  -0.2883798686E-01  -0.7904074766E-03   0.2491750728E-02
   0.1092771656E+01   0.6146986387E+00   0.3996723547E+00   0.8170136321E-02  -0.1773903255E-02  -0.3276513379E-03   0.0000000000E+00   0.0000000000E+00   0.0000000000E+00   0.4603144431E-01  -0.3564154519E-01  -0.2182425805E-02  -0.2176903411E-01   0.3775849109E-03   0.2581004954E-02
   0.1180325802E+01   0.4085453724E+00   0.3996528529E+00   0.8523991739E-02  -0.1578541609E-02  -0.3471530661E-03   0.0000000000E+00   0.0000000000E+00   0.0000000000E+00   0.1422938441E-01  -0.4292645788E-01  -0.1881575294E-02  -0.1206638491E-01   0.1412921549E-02   0.1778159916E-02
   0.1238322576E+01   0.2041641344E+00   0.3996442207E+00   0.8710825518E-02  -0.1448986580E-02  -0.3557852728E-03   0.0000000000E+00   0.0000000000E+00   0.0000000000E+00  -0.5988443647E-03  -0.4417754125E-01  -0.1867918248E-02  -0.6850628213E-03   0.2019459269E-02   0.5812229249E-03
   0.1266620728E+01   0.1071685023E-02   0.3996458086E+00   0.8744098134E-02  -0.1358824757E-02  -0.3541974025E-03   0.0000000000E+00   0.0000000000E+00   0.0000000000E+00  -0.1214159815E-02  -0.3921504510E-01  -0.7968085367E-03   0.1148507112E-01   0.2052972514E-02  -0.5183226759E-03
   0.1109223994E+01   0.1925914638E+00   0.3996312490E+00   0.8675254174E-02  -0.1515249173E-02  -0.3687570369E-03   0.0000000000E+00   0.0000000000E+00   0.0000000000E+00  -0.7729760114E-02  -0.8566794449E-01  -0.1459173843E-01   0.8980336955E-02   0.9726705017E-03   0.7143125465E-03
   0.1132686208E+01  -0.1431110708E-02   0.3996325517E+00   0.8705327668E-02  -0.1369383346E-02  -0.3674543133E-03   0.0000000000E+00   0.0000000000E+00   0.0000000000E+00  -0.6990887900E-02  -0.8256166728E-01  -0.1397214734E-01   0.7374335837E-02   0.1144511780E-02  -0.9979588920E-03
   0.9925331316E+00   0.1769891491E+00   0.3996181847E+00   0.8609457571E-02  -0.1600477931E-02  -0.3818212757E-03   0.0000000000E+00   0.0000000000E+00   0.0000000000E+00  -0.3653824689E-02  -0.1319677374E+00  -0.1609167817E-01   0.2255787418E-01  -0.4186468892E-03   0.8915498156E-03
   0.1008628062E+01  -0.1360729162E-02   0.3996188214E+00   0.8628062339E-02  -0.1360729162E-02  -0.3811846184E-03   0.0000000000E+00   0.0000000000E+00   0.0000000000E+00   0.9725643237E-04  -0.1325698564E+00  -0.1479665218E-01   0.1978010611E-02  -0.2164520519E-03  -0.1616420247E-02
   0.1053268047E+01   0.3881168692E+00   0.3996428570E+00   0.8497567038E-02  -0.1703855753E-02  -0.3571489924E-03   0.0000000000E+00   0.0000000000E+00   0.0000000000E+00  -0.1407971606E-02  -0.6932364947E-01  -0.1471747815E-01   0.6956556558E-02   0.1621037128E-03   0.2526998340E-02
   0.9430649530E+00   0.3538791362E+00   0.3996317822E+00   0.8480276008E-02  -0.1861559760E-02  -0.3682237680E-03   0.0000000000E+00   0.0000000000E+00   0.0000000000E+00  -0.9524904150E-02  -0.9678204281E-01  -0.1581155562E-01   0.3143234456E-01  -0.1440836091E-02   0.3448814822E-02
   0.9629370762E+00   0.5825005672E+00   0.3996677743E+00   0.8155663183E-02  -0.1940319806E-02  -0.3322317071E-03   0.0000000000E+00   0.0000000000E+00   0.0000000000E+00   0.2128558154E-01  -0.3680580399E-01  -0.1139686892E-01  -0.7375830309E-02  -0.1228031404E-02   0.3867698971E-02
   0.8587456583E+00   0.5238068295E+00   0.3996596803E+00   0.8228027296E-02  -0.2139728544E-02  -0.3403257369E-03   0.0000000000E+00   0.0000000000E+00   0.0000000000E+00  -0.3429041186E-02  -0.3850760857E-01  -0.1392333502E-01   0.1649252826E-01  -0.3478464403E-02   0.5278090864E-02
   0.8396942944E+00   0.7713183268E+00   0.3997041243E+00   0.7638546396E-02  -0.2234866175E-02  -0.2958817289E-03   0.0000000000E+00   0.0000000000E+00   0.0000000000E+00   0.7503015666E-01  -0.7968985040E-02  -0.6331586987E-02  -0.2707983875E-01  -0.2885559108E-02   0.3795995035E-02
   0.7409515612E+00   0.6776895924E+00   0.3996994379E+00   0.7838809231E-02  -0.2417583630E-02  -0.3005680905E-03   0.0000000000E+00   0.0000000000E+00   0.0000000000E+00   0.3940429962E-01   0.1450149515E-01  -0.7605498321E-02  -0.2469869427E-01  -0.5859571593E-02   0.6153894911E-02
  -0.6284919754E+00   0.1808567389E+01   0.3997345666E+00   0.4220686641E-02  -0.3388180813E-02  -0.2654394221E-03   0.0000000000E+00   0.0000000000E+00   0.0000000000E+00   0.1370544958E+00  -0.4920296104E-03  -0.1415732265E-02  -0.1248290120E-01  -0.1001168728E-02  -0.1661929826E-03
  -0.6369573378E+00   0.1996501125E+01   0.3997269675E+00   0.4405448194E-02  -0.3498874569E-02  -0.2730385350E-03   0.0000000000E+00   0.0000000000E+00   0.0000000000E+00   0.1243104805E+00   0.4310874067E-03   0.8242270167E-03  -0.3737718125E-02  -0.2685802557E-02  -0.5589876140E-04
  -0.6230793016E+00   0.1620751337E+01   0.3997426179E+00   0.4072903390E-02  -0.3258753458E-02  -0.2573880841E-03   0.0000000000E+00   0.0000000000E+00   0.0000000000E+00   0.1539205109E+00  -0.1026784390E-02  -0.1334200965E-02  -0.1900306768E-01  -0.2276971269E-03  -0.5033880882E-03
  -0.6190966875E+00   0.1430858017E+01   0.3997511349E+00   0.3916451532E-02  -0.3110053018E-02  -0.2488710746E-03   0.0000000000E+00   0.0000000000E+00   0.0000000000E+00   0.1706016690E+00  -0.7926993803E-03  -0.7127884762E-03  -0.1629588096E-01   0.6712587426E-03  -0.9170700079E-03
  -0.6247339165E+00   0.1232930293E+01   0.3997577891E+00   0.3683515546E-02  -0.2923617434E-02  -0.2422168939E-03   0.0000000000E+00   0.0000000000E+00   0.0000000000E+00   0.1852004711E+00  -0.3170556153E-02  -0.2576242103E-02  -0.3373465592E-02   0.1743701587E-02  -0.3851069161E-03
  -0.6496216424E+00   0.1008198436E+01   0.3997508884E+00   0.3221713568E-02  -0.2683944345E-02  -0.2491176355E-03   0.0000000000E+00   0.0000000000E+00   0.0000000000E+00   0.1690957524E+00   0.6409278837E-02   0.3637910249E-02   0.3050048391E-01   0.3469650029E-02   0.1554179081E-02
  -0.5244530593E+00   0.8468752181E+00   0.3997626207E+00   0.2912386732E-02  -0.2763362880E-02  -0.2373853342E-03   0.0000000000E+00   0.0000000000E+00   0.0000000000E+00   0.1688667494E+00   0.4213706700E-01  -0.1624888063E-02   0.8181763736E-01   0.7978674234E-02   0.5490865666E-02
  -0.8160654957E+00   0.7977922541E+00   0.3997091759E+00   0.2443606326E-02  -0.2267540899E-02  -0.2908301443E-03   0.0000000000E+00   0.0000000000E+00   0.0000000000E+00   0.8250188089E-01  -0.2546773060E-02  -0.1053510624E-03   0.3377645536E-01   0.2700687833E-02   0.3925604959E-02
  -0.6983502884E+00   0.7110486153E+00   0.3997107162E+00   0.2267740616E-02  -0.2487945718E-02  -0.2892897796E-03   0.0000000000E+00   0.0000000000E+00   0.0000000000E+00   0.5722929786E-01   0.2357514230E-01  -0.1023594148E-01   0.3336870318E-01   0.6228614809E-02   0.5959379241E-02
  -0.9455204830E+00   0.6001168564E+00   0.3996710932E+00   0.1881279010E-02  -0.1961044608E-02  -0.3289128129E-03   0.0000000000E+00   0.0000000000E+00   0.0000000000E+00   0.2346614734E-01  -0.3379667907E-01  -0.1283130461E-01   0.8515658140E-02   0.1352498008E-02   0.3988808678E-02
  -0.8331627014E+00   0.5480944518E+00   0.3996654216E+00   0.1818501565E-02  -0.2184033212E-02  -0.3345843756E-03   0.0000000000E+00   0.0000000000E+00   0.0000000000E+00  -0.1832354369E-02  -0.3169663238E-01  -0.1511699031E-01  -0.1266770920E-01   0.3707373873E-02   0.5798587167E-02
  -0.1041992516E+01   0.4004047130E+00   0.3996443520E+00   0.1516373526E-02  -0.1712717979E-02  -0.3556539956E-03   0.0000000000E+00   0.0000000000E+00   0.0000000000E+00  -0.8504717946E-03  -0.6676750415E-01  -0.1405060407E-01  -0.6002373045E-02  -0.1433169050E-03   0.2640787912E-02
  -0.9270168134E+00   0.3693140452E+00   0.3996339101E+00   0.1535158579E-02  -0.1888423784E-02  -0.3660958760E-03   0.0000000000E+00   0.0000000000E+00   0.0000000000E+00  -0.9376584239E-02  -0.9294274920E-01  -0.1630054160E-01  -0.3163913043E-01   0.1632538882E-02   0.3664237196E-02
  -0.1103714208E+01   0.1998098481E+00   0.3996321050E+00   0.1325151594E-02  -0.1518816917E-02  -0.3679010435E-03   0.0000000000E+00   0.0000000000E+00   0.0000000000E+00  -0.7821269466E-02  -0.8324043322E-01  -0.1473487943E-01  -0.9152694118E-02  -0.1044902437E-02   0.7206208174E-03
  -0.9808101695E+00   0.1862017300E+00   0.3996185846E+00   0.1393910524E-02  -0.1615142962E-02  -0.3814214149E-03   0.0000000000E+00   0.0000000000E+00   0.0000000000E+00  -0.3863444693E-02  -0.1304717289E+00  -0.1570904460E-01  -0.2272998893E-01   0.4247395044E-03   0.9905803085E-03
  -0.1131305589E+01   0.4359664971E-03   0.3996334137E+00   0.1290780690E-02  -0.1371535043E-02  -0.3665923243E-03   0.0000000000E+00   0.0000000000E+00   0.0000000000E+00  -0.6873211336E-02  -0.8051678271E-01  -0.1360066849E-01  -0.7585521389E-02  -0.1204966397E-02  -0.8872056176E-03
  -0.9986015683E+00   0.6071092595E-02   0.3996186232E+00   0.1370715713E-02  -0.1373386905E-02  -0.3813827557E-03   0.0000000000E+00   0.0000000000E+00   0.0000000000E+00   0.2004394472E-04  -0.1327078482E+00  -0.1410892243E-01  -0.2601711927E-02   0.2799812047E-03  -0.1482212043E-02
  -0.1236858439E+01   0.2076113472E+00   0.3996453236E+00   0.1288341307E-02  -0.1446430812E-02  -0.3546824267E-03   0.0000000000E+00   0.0000000000E+00   0.0000000000E+00   0.3085483642E-03  -0.4144468126E-01  -0.1032317299E-02   0.1028415866E-02  -0.2060111892E-02   0.5811631715E-03
  -0.1273670347E+01   0.9116069893E-03   0.3996474779E+00   0.1252023420E-02  -0.1357065931E-02  -0.3525280964E-03   0.0000000000E+00   0.0000000000E+00   0.0000000000E+00   0.1829005699E-03  -0.3653170457E-01  -0.2717992479E-03  -0.1145605053E-01  -0.2084269524E-02  -0.4443170930E-03
  -0.1390036551E+01   0.2112493588E+00   0.3996607799E+00   0.1257448816E-02  -0.1386397245E-02  -0.3392261132E-03   0.0000000000E+00   0.0000000000E+00   0.0000000000E+00   0.1376116239E-01  -0.1766296555E-01   0.1595766751E-02   0.2758785419E-02  -0.2120531893E-02   0.4418657839E-03
  -0.1431079035E+01   0.7722943086E-03   0.3996631319E+00   0.1222365230E-02  -0.1326599671E-02  -0.3368740841E-03   0.0000000000E+00   0.0000000000E+00   0.0000000000E+00   0.1396926675E-01  -0.1397546572E-01   0.1394796635E-02  -0.1272861270E-01  -0.1997315836E-02  -0.1953230373E-03
  -0.1555081489E+01   0.2124690437E+00   0.3996752682E+00   0.1217121299E-02  -0.1334396282E-02  -0.3247378304E-03   0.0000000000E+00   0.0000000000E+00   0.0000000000E+00   0.2808473728E-01  -0.3429891647E-02   0.1980442250E-02   0.2268259969E-02  -0.1264393579E-02   0.2252319410E-03
  -0.1597290979E+01   0.5689388856E-03   0.3996770787E+00   0.1183160724E-02  -0.1287760464E-02  -0.3229272950E-03   0.0000000000E+00   0.0000000000E+00   0.0000000000E+00   0.2825040879E-01  -0.1000836201E-02   0.1549659303E-02  -0.1277027027E-01  -0.1125015456E-02  -0.6634776662E-04
  -0.1726597245E+01   0.2123492893E+00   0.3996861320E+00   0.1160564516E-02  -0.1288092686E-02  -0.3138739607E-03   0.0000000000E+00   0.0000000000E+00   0.0000000000E+00   0.4053657758E-01   0.4330624661E-02   0.1240415183E-02   0.8888922219E-03  -0.6073993251E-03   0.1100893939E-03
  -0.1767811987E+01   0.4137976143E-03   0.3996871942E+00   0.1127862502E-02  -0.1244749706E-02  -0.3128118406E-03   0.0000000000E+00   0.0000000000E+00   0.0000000000E+00   0.4072435317E-01   0.5643190466E-02   0.8746378332E-03  -0.1213962780E-01  -0.5342598668E-03  -0.1821179434E-04
  -0.1901360132E+01   0.2115251843E+00   0.3996941629E+00   0.1087568203E-02  -0.1245456746E-02  -0.3058431017E-03   0.0000000000E+00   0.0000000000E+00   0.0000000000E+00   0.5079437566E-01   0.8745848900E-02   0.6192181865E-03  -0.3552718156E-03  -0.2618384328E-03   0.5238101706E-04
  -0.1939999746E+01   0.2948559517E-03   0.3996946218E+00   0.1056144180E-02  -0.1201382098E-02  -0.3053842465E-03   0.0000000000E+00   0.0000000000E+00   0.0000000000E+00   0.5087384385E-01   0.9113237850E-02   0.3477694767E-03  -0.1109431525E-01  -0.2305362113E-03   0.3811774621E-05
  -0.2077689228E+01   0.2103438555E+00   0.3996998703E+00   0.9998720065E-03  -0.1206290450E-02  -0.3001356659E-03   0.0000000000E+00   0.0000000000E+00   0.0000000000E+00   0.5916550597E-01   0.1113099540E-01   0.2666871635E-03  -0.1132853381E-02  -0.9150423784E-04   0.3088338358E-04
  -0.2112860645E+01   0.1769179299E-03   0.3996998535E+00   0.9701551522E-03  -0.1159950110E-02  -0.3001525185E-03   0.0000000000E+00   0.0000000000E+00   0.0000000000E+00   0.5903508918E-01   0.1097414087E-01   0.4699375686E-04  -0.9878888572E-02  -0.7994900775E-04   0.6442866850E-05
  -0.2254759509E+01   0.2089871742E+00   0.3997040684E+00   0.8998307685E-03  -0.1171113776E-02  -0.2959376390E-03   0.0000000000E+00   0.0000000000E+00   0.0000000000E+00   0.6593250789E-01   0.1248523697E-01   0.1158033797E-03  -0.1528889473E-02  -0.3533068377E-04   0.2164877095E-04
  -0.2286018614E+01   0.4792901020E-04   0.3997037182E+00   0.8721357880E-03  -0.1121916450E-02  -0.2962877536E-03   0.0000000000E+00   0.0000000000E+00   0.0000000000E+00   0.6566272837E-01   0.1189865597E-01  -0.6137748020E-04  -0.8572091448E-02  -0.3266194287E-04   0.8853552836E-05
  -0.2431867315E+01   0.2076530123E+00   0.3997071516E+00   0.7896847646E-03  -0.1140061749E-02  -0.2928544401E-03   0.0000000000E+00   0.0000000000E+00   0.0000000000E+00   0.7141059895E-01   0.1308579379E-01   0.4629748960E-04  -0.1626355621E-02  -0.1467507783E-04   0.1885493456E-04
  -0.2459307768E+01  -0.8873279965E-04   0.3997065690E+00   0.7642720754E-03  -0.1088147861E-02  -0.2934370410E-03   0.0000000000E+00   0.0000000000E+00   0.0000000000E+00   0.7088919265E-01   0.1232264219E-01  -0.8626748022E-04  -0.7260884582E-02  -0.1633921026E-04   0.8281753604E-05
  -0.2607964753E+01   0.2066831879E+00   0.3997094560E+00   0.6718667412E-03  -0.1113892143E-02  -0.2905499594E-03   0.0000000000E+00   0.0000000000E+00   0.0000000000E+00   0.7576636474E-01   0.1332317040E-01  -0.4316609529E-07  -0.1512623492E-02  -0.1165401707E-04   0.1601282109E-04
  -0.2627738503E+01   0.1449085951E-02   0.3997086736E+00   0.6518073637E-03  -0.1060362729E-02  -0.2913323720E-03   0.0000000000E+00   0.0000000000E+00   0.0000000000E+00   0.7501817395E-01   0.1246734362E-01  -0.5260455798E-04  -0.5944965419E-02  -0.1294464519E-04   0.8025062612E-05
  -0.2784185656E+01   0.2055591421E+00   0.3997111582E+00   0.5471638226E-03  -0.1092187876E-02  -0.2888477503E-03   0.0000000000E+00   0.0000000000E+00   0.0000000000E+00   0.7919504781E-01   0.1332909082E-01  -0.3755910098E-05  -0.1297692813E-02  -0.9312242099E-05   0.1491241011E-04
  -0.2796863846E+01   0.2128212348E-02   0.3997102558E+00   0.5328139962E-03  -0.1037151922E-02  -0.2897501683E-03   0.0000000000E+00   0.0000000000E+00   0.0000000000E+00   0.7825099260E-01   0.1244239368E-01  -0.3147441073E-04  -0.4705860362E-02  -0.1037782826E-04   0.7405859028E-05
  -0.2961890027E+01   0.2041952241E+00   0.3997123977E+00   0.4159929169E-03  -0.1075110897E-02  -0.2876082519E-03   0.0000000000E+00   0.0000000000E+00   0.0000000000E+00   0.8177791784E-01   0.1322867434E-01  -0.1139439734E-04  -0.1015112352E-02  -0.8061186019E-05   0.1303855636E-04
  -0.2971098507E+01   0.1703983569E-02   0.3997114417E+00   0.4052228299E-03  -0.1018063701E-02  -0.2885643324E-03   0.0000000000E+00   0.0000000000E+00   0.0000000000E+00   0.8074492985E-01   0.1234523248E-01  -0.1385521217E-04  -0.3478343459E-02  -0.8809479034E-05   0.8011488116E-05
  -0.3140552555E+01   0.2029608029E+00   0.3997132356E+00   0.2801048824E-03  -0.1062663077E-02  -0.2867704366E-03   0.0000000000E+00   0.0000000000E+00   0.0000000000E+00   0.8360092588E-01   0.1310119432E-01  -0.4417140299E-05  -0.7210573886E-03  -0.7055771063E-05   0.1269695079E-04
  -0.3146774542E+01   0.1131596535E-02   0.3997122483E+00   0.2727380309E-03  -0.1004291205E-02  -0.2877576628E-03   0.0000000000E+00   0.0000000000E+00   0.0000000000E+00   0.8249835440E-01   0.1223057168E-01  -0.9358921482E-05  -0.2320262002E-02  -0.7297478119E-05   0.7497199359E-05
  -0.3319924024E+01   0.2021445853E+00   0.3997137228E+00   0.1409958432E-03  -0.1055233733E-02  -0.2862831902E-03   0.0000000000E+00   0.0000000000E+00   0.0000000000E+00   0.8467904101E-01   0.1300082424E-01  -0.6960201768E-05  -0.2811997580E-03   0.1482509147E-05   0.1164597670E-04
  -0.3323103537E+01   0.7769129257E-03   0.3997127185E+00   0.1372229033E-03  -0.9958893943E-03  -0.2872875363E-03   0.0000000000E+00   0.0000000000E+00   0.0000000000E+00   0.8353092383E-01   0.1214699511E-01  -0.5173915212E-05  -0.1066805554E-02   0.1300213077E-05   0.8179235092E-05
  -0.3500000000E+01   0.2015921663E+00   0.3997138804E+00   0.0000000000E+00  -0.1052583670E-02  -0.2861256087E-03   0.0000000000E+00   0.0000000000E+00   0.0000000000E+00   0.8503919481E-01   0.1296489107E-01  -0.2823126546E-05  -0.2791222534E-03  -0.1690591626E-04   0.1213126594E-04
  -0.3500000000E+01   0.4403944721E-03   0.3997128714E+00   0.0000000000E+00  -0.9930873379E-03  -0.2871346224E-03   0.0000000000E+00   0.0000000000E+00   0.0000000000E+00   0.8387155042E-01   0.1211361701E-01  -0.6741352422E-05  -0.2825224898E-03  -0.1652323222E-04   0.7558995737E-05
  -0.1175590176E+01   0.4120458978E+00   0.3996537007E+00   0.1478654371E-02  -0.1576064192E-02  -0.3463052982E-03   0.0000000000E+00   0.0000000000E+00   0.0000000000E+00   0.1483677312E-01  -0.4165681875E-01  -0.2102208935E-02   0.1249562929E-01  -0.1452160400E-02   0.1785352744E-02
  -0.1331524957E+01   0.4180608516E+00   0.3996659673E+00   0.1427302625E-02  -0.1474427400E-02  -0.3340386780E-03   0.0000000000E+00   0.0000000000E+00   0.0000000000E+00   0.2749151680E-01  -0.2249828230E-01   0.9340882924E-03   0.1685978636E-01  -0.1803683989E-02   0.1082850540E-02
  -0.1500158155E+01   0.4203296917E+00   0.3996784675E+00   0.1361765445E-02  -0.1401422270E-02  -0.3215384961E-03   0.0000000000E+00   0.0000000000E+00   0.0000000000E+00   0.3965398379E-01  -0.8859288530E-02   0.1884465226E-02   0.1580192792E-01  -0.1163340778E-02   0.5086551917E-03
  -0.1675736733E+01   0.4203572250E+00   0.3996883797E+00   0.1281546708E-02  -0.1344503968E-02  -0.3116262660E-03   0.0000000000E+00   0.0000000000E+00   0.0000000000E+00   0.4930129897E-01  -0.1202449932E-03   0.1025928997E-02   0.1266206718E-01  -0.5860289045E-03   0.2052848345E-03
  -0.1854984581E+01   0.4191450192E+00   0.3996959634E+00   0.1188818737E-02  -0.1297561827E-02  -0.3040425768E-03   0.0000000000E+00   0.0000000000E+00   0.0000000000E+00   0.5756034110E-01   0.5612833862E-02   0.5900914402E-03   0.9694319395E-02  -0.2597158320E-03   0.8570462277E-04
  -0.2036110812E+01   0.4172885671E+00   0.3997014944E+00   0.1084867910E-02  -0.1257572886E-02  -0.2985116218E-03   0.0000000000E+00   0.0000000000E+00   0.0000000000E+00   0.6442808475E-01   0.9114314619E-02   0.1840734593E-03   0.7188814059E-02  -0.9237754465E-04   0.3687133495E-04
  -0.2218169878E+01   0.4151136063E+00   0.3997056078E+00   0.9711323334E-03  -0.1222989699E-02  -0.2943982257E-03   0.0000000000E+00   0.0000000000E+00   0.0000000000E+00   0.7025985394E-01   0.1120669296E-01   0.4770207218E-04   0.5299490789E-02  -0.3442783749E-04   0.2486807220E-04
  -0.2400527090E+01   0.4128402836E+00   0.3997086569E+00   0.8489196309E-03  -0.1193636405E-02  -0.2913491394E-03   0.0000000000E+00   0.0000000000E+00   0.0000000000E+00   0.7512605021E-01   0.1236854552E-01  -0.1588469429E-04   0.3884068737E-02  -0.1398387427E-04   0.1973585089E-04
  -0.2582785116E+01   0.4106174726E+00   0.3997109402E+00   0.7195638787E-03  -0.1168964365E-02  -0.2890658448E-03   0.0000000000E+00   0.0000000000E+00   0.0000000000E+00   0.7915082947E-01   0.1291799698E-01  -0.9177241638E-05   0.2839827221E-02  -0.1036280937E-04   0.1915208459E-04
  -0.2765143784E+01   0.4084052492E+00   0.3997126256E+00   0.5839757476E-03  -0.1149053786E-02  -0.2873804095E-03   0.0000000000E+00   0.0000000000E+00   0.0000000000E+00   0.8235218047E-01   0.1311483011E-01  -0.1166842220E-04   0.2047492627E-02  -0.8741763057E-05   0.1766921377E-04
  -0.2948026137E+01   0.4062856421E+00   0.3997138394E+00   0.4430225697E-03  -0.1133443880E-02  -0.2861665756E-03   0.0000000000E+00   0.0000000000E+00   0.0000000000E+00   0.8480210764E-01   0.1311219183E-01  -0.4052092318E-05   0.1423794240E-02  -0.7138634988E-05   0.1737852363E-04
  -0.3131472738E+01   0.4045105823E+00   0.3997146569E+00   0.2978716911E-03  -0.1122390740E-02  -0.2853490961E-03   0.0000000000E+00   0.0000000000E+00   0.0000000000E+00   0.8652282321E-01   0.1303248423E-01  -0.8449940946E-05   0.8817993110E-03  -0.6495170423E-05   0.1597785620E-04
  -0.3315469208E+01   0.4033137416E+00   0.3997151289E+00   0.1497815777E-03  -0.1115634396E-02  -0.2848771050E-03   0.0000000000E+00   0.0000000000E+00   0.0000000000E+00   0.8755124311E-01   0.1295706173E-01  -0.2624371584E-05   0.4876782158E-03   0.1597361957E-05   0.1586663587E-04
  -0.3500000000E+01   0.4026458598E+00   0.3997152816E+00   0.0000000000E+00  -0.1113381160E-02  -0.2847244114E-03   0.0000000000E+00   0.0000000000E+00   0.0000000000E+00   0.8788967320E-01   0.1292502414E-01  -0.6016359309E-05  -0.2006598231E-03  -0.1634365984E-04   0.1514168325E-04
  -0.1090737444E+01   0.6166946252E+00   0.3996729697E+00   0.1829876330E-02  -0.1762989754E-02  -0.3270362674E-03   0.0000000000E+00   0.0000000000E+00   0.0000000000E+00   0.4657640466E-01  -0.3373913921E-01  -0.1060757862E-02   0.2322779221E-01  -0.3574515387E-03   0.2466349152E-02
  -0.1259111061E+01   0.6217063553E+00   0.3996785912E+00   0.1727208819E-02  -0.1612376674E-02  -0.3214147897E-03   0.0000000000E+00   0.0000000000E+00   0.0000000000E+00   0.5666129015E-01  -0.2571875446E-01   0.1596346699E-02   0.2548654260E-01  -0.1073166688E-02   0.1427435607E-02
  -0.1436527280E+01   0.6239224070E+00   0.3996866364E+00   0.1608340369E-02  -0.1506031003E-02  -0.3133695530E-03   0.0000000000E+00   0.0000000000E+00   0.0000000000E+00   0.6180432675E-01  -0.1536607666E-01   0.1206721586E-02   0.2369640674E-01  -0.8322999322E-03   0.6197134260E-03
  -0.1618964180E+01   0.6239018412E+00   0.3996938903E+00   0.1483569725E-02  -0.1428368769E-02  -0.3061156794E-03   0.0000000000E+00   0.0000000000E+00   0.0000000000E+00   0.6635175891E-01  -0.5947912073E-02   0.1083588959E-02   0.2035972510E-01  -0.4701641467E-03   0.2551025103E-03
  -0.1804248732E+01   0.6225092773E+00   0.3997000167E+00   0.1354297539E-02  -0.1369261697E-02  -0.2999893054E-03   0.0000000000E+00   0.0000000000E+00   0.0000000000E+00   0.7050146520E-01   0.8012790591E-03   0.4302650799E-03   0.1674049188E-01  -0.2257569826E-03   0.9420174221E-04
  -0.1991122125E+01   0.6203654658E+00   0.3997047180E+00   0.1220945038E-02  -0.1322423189E-02  -0.2952880189E-03   0.0000000000E+00   0.0000000000E+00   0.0000000000E+00   0.7460450471E-01   0.5529486730E-02   0.2093194309E-03   0.1351814629E-01  -0.8455959519E-04   0.3876533961E-04
  -0.2178844381E+01   0.6178380608E+00   0.3997083449E+00   0.1082969034E-02  -0.1284921198E-02  -0.2916610813E-03   0.0000000000E+00   0.0000000000E+00   0.0000000000E+00   0.7845334352E-01   0.8579057354E-02   0.3664531101E-04   0.1077473640E-01  -0.3325369842E-04   0.2209386572E-04
  -0.2366943525E+01   0.6151474609E+00   0.3997110756E+00   0.9401552419E-03  -0.1254450080E-02  -0.2889303522E-03   0.0000000000E+00   0.0000000000E+00   0.0000000000E+00   0.8198329180E-01   0.1042582462E-01   0.2120245964E-05   0.8514592029E-02  -0.1319661932E-04   0.1964207059E-04
  -0.2555168109E+01   0.6124276045E+00   0.3997131413E+00   0.7925506572E-03  -0.1230227545E-02  -0.2868646899E-03   0.0000000000E+00   0.0000000000E+00   0.0000000000E+00   0.8506098152E-01   0.1144849509E-01  -0.1879517950E-04   0.6632091898E-02  -0.9875699395E-05   0.1922917450E-04
  -0.2743512116E+01   0.6097714175E+00   0.3997146642E+00   0.6404335963E-03  -0.1211060532E-02  -0.2853417789E-03   0.0000000000E+00   0.0000000000E+00   0.0000000000E+00   0.8764111611E-01   0.1193245374E-01  -0.1038436327E-04   0.5028039948E-02  -0.7907680843E-05   0.1971133963E-04
  -0.2932113819E+01   0.6073295042E+00   0.3997157579E+00   0.4842914567E-03  -0.1196725757E-02  -0.2842480956E-03   0.0000000000E+00   0.0000000000E+00   0.0000000000E+00   0.8966508455E-01   0.1210551786E-01  -0.8599182984E-05   0.3627783710E-02  -0.6447443609E-05   0.1889501464E-04
  -0.3121064287E+01   0.6053224186E+00   0.3997164887E+00   0.3248628973E-03  -0.1186551426E-02  -0.2835172928E-03   0.0000000000E+00   0.0000000000E+00   0.0000000000E+00   0.9112269943E-01   0.1212142760E-01  -0.3645114061E-05   0.2334943228E-02  -0.5563152672E-05   0.1869828912E-04
  -0.3310385707E+01   0.6039524505E+00   0.3997169090E+00   0.1630733496E-03  -0.1180606491E-02  -0.2830970455E-03   0.0000000000E+00   0.0000000000E+00   0.0000000000E+00   0.9199264527E-01   0.1209166678E-01  -0.3891748566E-05   0.1211383394E-02   0.1391906842E-05   0.1777481172E-04
  -0.3500000000E+01   0.6032155602E+00   0.3997170431E+00   0.0000000000E+00  -0.1178458792E-02  -0.2829628610E-03   0.0000000000E+00   0.0000000000E+00   0.0000000000E+00   0.9228328920E-01   0.1207584474E-01  -0.3916564379E-05  -0.2054029827E-03  -0.1410087015E-04   0.1796861944E-04
  -0.9964582692E+00   0.8146498948E+00   0.3996986468E+00   0.2306245850E-02  -0.2006456179E-02  -0.3013591641E-03   0.0000000000E+00   0.0000000000E+00   0.0000000000E+00   0.1001267951E+00  -0.2717021771E-01   0.2880592826E-02   0.2613288535E-01   0.8609872587E-03   0.2026317801E-02
  -0.1180333688E+01   0.8236834158E+00   0.3996965239E+00   0.2122921979E-02  -0.1808787157E-02  -0.3034821180E-03   0.0000000000E+00   0.0000000000E+00   0.0000000000E+00   0.9185881278E-01  -0.2788612514E-01  -0.1730178557E-03   0.2473829282E-01  -0.2613505509E-03   0.1172295875E-02
  -0.1370521599E+01   0.8248589790E+00   0.3996981599E+00   0.1929941218E-02  -0.1657171976E-02  -0.3018461050E-03   0.0000000000E+00   0.0000000000E+00   0.0000000000E+00   0.9003305097E-01  -0.2007077903E-01   0.1419438018E-02   0.2435883814E-01  -0.4212469290E-03   0.5289909465E-03
  -0.1561426513E+01   0.8243601375E+00   0.3997020139E+00   0.1745706901E-02  -0.1548284531E-02  -0.2979921328E-03   0.0000000000E+00   0.0000000000E+00   0.0000000000E+00   0.8780362298E-01  -0.1172297000E-01   0.6185152122E-03   0.2249040527E-01  -0.3344991934E-03   0.2821664474E-03
  -0.1753443095E+01   0.8227530504E+00   0.3997059039E+00   0.1569295438E-02  -0.1467726637E-02  -0.2941020734E-03   0.0000000000E+00   0.0000000000E+00   0.0000000000E+00   0.8753673061E-01  -0.4187204729E-02   0.5257002599E-03   0.1985699401E-01  -0.1642743969E-03   0.1008737521E-03
  -0.1947922202E+01   0.8202788573E+00   0.3997093897E+00   0.1395967949E-02  -0.1407171659E-02  -0.2906163106E-03   0.0000000000E+00   0.0000000000E+00   0.0000000000E+00   0.8811633656E-01   0.1455085536E-02   0.1254544459E-03   0.1694787218E-01  -0.7634275862E-04   0.5826758755E-04
  -0.2141592451E+01   0.8176926890E+00   0.3997121653E+00   0.1225998601E-02  -0.1361557035E-02  -0.2878407117E-03   0.0000000000E+00   0.0000000000E+00   0.0000000000E+00   0.8950893805E-01   0.5353847546E-02   0.6168642087E-04   0.1424694821E-01  -0.2852589126E-04   0.3111923408E-04
  -0.2335222653E+01   0.8150082091E+00   0.3997143455E+00   0.1056266545E-02  -0.1327230884E-02  -0.2856604829E-03   0.0000000000E+00   0.0000000000E+00   0.0000000000E+00   0.9123891308E-01   0.7819151255E-02  -0.9143207247E-05   0.1174025075E-01  -0.1529431012E-04   0.3036810752E-04
  -0.2528917136E+01   0.8123072867E+00   0.3997159988E+00   0.8851835795E-03  -0.1301121257E-02  -0.2840071947E-03   0.0000000000E+00   0.0000000000E+00   0.0000000000E+00   0.9304181967E-01   0.9282962586E-02  -0.7644895115E-05   0.9451411109E-02  -0.9321822162E-05   0.2577980944E-04
  -0.2722708107E+01   0.8096939438E+00   0.3997172227E+00   0.7120331986E-03  -0.1281846179E-02  -0.2827833492E-03   0.0000000000E+00   0.0000000000E+00   0.0000000000E+00   0.9469752068E-01   0.1006155705E-01  -0.8707046017E-05   0.7346299509E-02  -0.7922237428E-05   0.2466762634E-04
  -0.2916668746E+01   0.8073164368E+00   0.3997180910E+00   0.5365842184E-03  -0.1267776158E-02  -0.2819149509E-03   0.0000000000E+00   0.0000000000E+00   0.0000000000E+00   0.9608068563E-01   0.1041128742E-01  -0.5247685008E-05   0.5391003586E-02  -0.5645363428E-05   0.2241097872E-04
  -0.3110874642E+01   0.8053592483E+00   0.3997186659E+00   0.3590676743E-03  -0.1258369705E-02  -0.2813401335E-03   0.0000000000E+00   0.0000000000E+00   0.0000000000E+00   0.9711000988E-01   0.1053544267E-01  -0.9517300196E-06   0.3525525723E-02  -0.4771155126E-05   0.2090153857E-04
  -0.3305353460E+01   0.8039994174E+00   0.3997189923E+00   0.1799502588E-03  -0.1252776638E-02  -0.2810136730E-03   0.0000000000E+00   0.0000000000E+00   0.0000000000E+00   0.9773609988E-01   0.1055750185E-01  -0.1688138376E-05   0.1788385273E-02   0.9386162095E-06   0.1998115317E-04
  -0.3500000000E+01   0.8032172439E+00   0.3997190944E+00   0.0000000000E+00  -0.1250911079E-02  -0.2809116069E-03   0.0000000000E+00   0.0000000000E+00   0.0000000000E+00   0.9794623289E-01   0.1055970458E-01   0.4268462501E-06  -0.1398715702E-03  -0.1073724053E-04   0.1943765548E-04
  -0.9002785062E+00   0.1019362091E+01   0.3997241469E+00   0.2840580793E-02  -0.2312538938E-02  -0.2758590646E-03   0.0000000000E+00   0.0000000000E+00   0.0000000000E+00   0.1413200935E+00  -0.2300518265E-01  -0.2123052957E-02   0.1083979053E-01   0.1395663859E-02   0.9594370108E-03
  -0.1110144987E+01   0.1024033760E+01   0.3997143083E+00   0.2545223123E-02  -0.2044339756E-02  -0.2856977197E-03   0.0000000000E+00   0.0000000000E+00   0.0000000000E+00   0.1246849163E+00  -0.2566792483E-01   0.8348921346E-04   0.1644994173E-01   0.2155251372E-03   0.6614158905E-03
  -0.1305523834E+01   0.1025620854E+01   0.3997110402E+00   0.2287665990E-02  -0.1853786495E-02  -0.2889657845E-03   0.0000000000E+00   0.0000000000E+00   0.0000000000E+00   0.1161215648E+00  -0.2181395825E-01   0.1492417461E-03   0.1798761046E-01  -0.1593753014E-03   0.4309312290E-03
  -0.1504184429E+01   0.1024289927E+01   0.3997116340E+00   0.2044140600E-02  -0.1705443330E-02  -0.2883720462E-03   0.0000000000E+00   0.0000000000E+00   0.0000000000E+00   0.1095138316E+00  -0.1446758803E-01   0.3163007169E-03   0.1880770334E-01  -0.1894747742E-03   0.2273548658E-03
  -0.1702842405E+01   0.1022221754E+01   0.3997132136E+00   0.1817535380E-02  -0.1596856130E-02  -0.2867924383E-03   0.0000000000E+00   0.0000000000E+00   0.0000000000E+00   0.1053064455E+00  -0.7535737629E-02   0.1156066344E-03   0.1853674594E-01  -0.1105217921E-03   0.1148609727E-03
  -0.1908135812E+01   0.1018857455E+01   0.3997152687E+00   0.1596167841E-02  -0.1513984952E-02  -0.2847372960E-03   0.0000000000E+00   0.0000000000E+00   0.0000000000E+00   0.1030234335E+00  -0.1694557045E-02   0.4442010307E-04   0.1711097024E-01  -0.5645484425E-04   0.6924732986E-04
  -0.2106613608E+01   0.1016430723E+01   0.3997169769E+00   0.1391442366E-02  -0.1456747122E-02  -0.2830290796E-03   0.0000000000E+00   0.0000000000E+00   0.0000000000E+00   0.1020768348E+00   0.2431681765E-02  -0.1376122921E-04   0.1533444878E-01  -0.1995041084E-04   0.4630814046E-04
  -0.2305248184E+01   0.1013922284E+01   0.3997184135E+00   0.1191216223E-02  -0.1414945956E-02  -0.2815924968E-03   0.0000000000E+00   0.0000000000E+00   0.0000000000E+00   0.1020261355E+00   0.5205770123E-02  -0.2361223416E-04   0.1318269474E-01  -0.1099133374E-04   0.3843780068E-04
  -0.2503963357E+01   0.1011410742E+01   0.3997194743E+00   0.9931227326E-03  -0.1385187924E-02  -0.2805317236E-03   0.0000000000E+00   0.0000000000E+00   0.0000000000E+00   0.1024267966E+00   0.6896287444E-02  -0.2084218768E-04   0.1096842361E-01  -0.4424388446E-05   0.3130066109E-04
  -0.2702753366E+01   0.1008976369E+01   0.3997202560E+00   0.7955444366E-03  -0.1363961173E-02  -0.2797499517E-03   0.0000000000E+00   0.0000000000E+00   0.0000000000E+00   0.1030156197E+00   0.7840347467E-02  -0.1429950867E-04   0.8718831867E-02  -0.4251134513E-05   0.2727366936E-04
  -0.2901657829E+01   0.1006733714E+01   0.3997207823E+00   0.5977106234E-03  -0.1349506351E-02  -0.2792236525E-03   0.0000000000E+00   0.0000000000E+00   0.0000000000E+00   0.1036122975E+00   0.8308733982E-02   0.6891247759E-06   0.6501000773E-02  -0.2505150402E-05   0.2269703811E-04
  -0.3100753957E+01   0.1004837359E+01   0.3997211236E+00   0.3991833251E-03  -0.1339950650E-02  -0.2788824454E-03   0.0000000000E+00   0.0000000000E+00   0.0000000000E+00   0.1040936462E+00   0.8498860384E-02  -0.1322480187E-05   0.4294293007E-02  -0.2469382698E-05   0.2036366083E-04
  -0.3300150733E+01   0.1003455212E+01   0.3997213058E+00   0.1999367999E-03  -0.1334617998E-02  -0.2787001712E-03   0.0000000000E+00   0.0000000000E+00   0.0000000000E+00   0.1044037525E+00   0.8566085110E-02   0.1115782714E-04   0.2190203095E-02   0.9952110903E-06   0.1818296887E-04
  -0.3500000000E+01   0.1002728161E+01   0.3997213640E+00   0.0000000000E+00  -0.1332699499E-02  -0.2786420036E-03   0.0000000000E+00   0.0000000000E+00   0.0000000000E+00   0.1045046334E+00   0.8575715706E-02   0.2501190819E-05  -0.1643919336E-03  -0.6755571709E-05   0.1805669778E-04
  -0.3297154960E+01   0.1202533625E+01   0.3997237202E+00   0.2195303449E-03  -0.1427275187E-02  -0.2762857538E-03   0.0000000000E+00   0.0000000000E+00   0.0000000000E+00   0.1115413555E+00   0.6330029114E-02   0.1000775238E-04   0.2334352857E-02   0.6559320932E-06   0.1266769506E-04
  -0.3500000000E+01   0.1201943279E+01   0.3997237146E+00   0.0000000000E+00  -0.1425501389E-02  -0.2762913903E-03   0.0000000000E+00   0.0000000000E+00   0.0000000000E+00   0.1115270160E+00   0.6354701127E-02   0.2603110196E-04  -0.1250304470E-03   0.2957978425E-06   0.1088037565E-04
  -0.3295776593E+01   0.1401459371E+01   0.3997261412E+00   0.2377167813E-03  -0.1531568955E-02  -0.2738648065E-03   0.0000000000E+00   0.0000000000E+00   0.0000000000E+00   0.1187021488E+00   0.4108838079E-02   0.5903818781E-04   0.2207725086E-02   0.3201870926E-05  -0.1129145846E-05
  -0.3500000000E+01   0.1401033347E+01   0.3997260651E+00   0.0000000000E+00  -0.1529632549E-02  -0.2739409091E-03   0.0000000000E+00   0.0000000000E+00   0.0000000000E+00   0.1185330697E+00   0.4110915204E-02   0.3812465800E-04  -0.1647638694E-03   0.6543484629E-05  -0.2500816563E-05
  -0.3295413016E+01   0.1600357180E+01   0.3997283670E+00   0.2534439458E-03  -0.1646869718E-02  -0.2716390293E-03   0.0000000000E+00   0.0000000000E+00   0.0000000000E+00   0.1252754393E+00   0.2095866275E-02   0.4774455513E-04   0.1805481330E-02   0.8270913552E-05  -0.4109977052E-04
  -0.3500000000E+01   0.1600087403E+01   0.3997282078E+00   0.0000000000E+00  -0.1644846685E-02  -0.2717981901E-03   0.0000000000E+00   0.0000000000E+00   0.0000000000E+00   0.1249753238E+00   0.2113202764E-02   0.7734093528E-04  -0.1629536414E-03   0.1510671001E-04  -0.4335044920E-04
  -0.3295450178E+01   0.1799246975E+01   0.3997303591E+00   0.2658716131E-03  -0.1771734616E-02  -0.2696468569E-03   0.0000000000E+00   0.0000000000E+00   0.0000000000E+00   0.1307451252E+00   0.6301314283E-03   0.7530470701E-04   0.9979028565E-03   0.2537593922E-04  -0.5675894281E-04
  -0.3500000000E+01   0.1799118832E+01   0.3997301234E+00   0.0000000000E+00  -0.1769348362E-02  -0.2698826067E-03   0.0000000000E+00   0.0000000000E+00   0.0000000000E+00   0.1302449372E+00   0.6128832142E-03   0.3609509019E-04  -0.2147738171E-03   0.2184907223E-04  -0.5666919559E-04
  -0.3295549931E+01   0.1998097188E+01   0.3997323329E+00   0.2738792862E-03  -0.1902812143E-02  -0.2676731321E-03   0.0000000000E+00   0.0000000000E+00   0.0000000000E+00   0.1339949005E+00  -0.3668502355E-04  -0.7236211282E-03   0.3270200661E-03   0.7205351698E-04   0.8304189067E-05
  -0.3500000000E+01   0.1998100021E+01   0.3997320087E+00   0.0000000000E+00  -0.1899979475E-02  -0.2679972840E-03   0.0000000000E+00   0.0000000000E+00   0.0000000000E+00   0.1333757448E+00  -0.2191942500E-04  -0.6725316787E-03  -0.2571248445E-03   0.3087927022E-04   0.7898198972E-05
  -0.3094791772E+01   0.1203626531E+01   0.3997237157E+00   0.4388083766E-03  -0.1432758507E-02  -0.2762902561E-03   0.0000000000E+00   0.0000000000E+00   0.0000000000E+00   0.1116138699E+00   0.6263604871E-02   0.2105889929E-04   0.4586643112E-02   0.1602472988E-05   0.1504041734E-04
  -0.3091916219E+01   0.1402243699E+01   0.3997263633E+00   0.4757511562E-03  -0.1537241014E-02  -0.2736426947E-03   0.0000000000E+00   0.0000000000E+00   0.0000000000E+00   0.1191713323E+00   0.4045034487E-02   0.2895374717E-04   0.4296364681E-02   0.1048581149E-04   0.6081236776E-05
  -0.3091019452E+01   0.1600853631E+01   0.3997288298E+00   0.5080076410E-03  -0.1653248718E-02  -0.2711761788E-03   0.0000000000E+00   0.0000000000E+00   0.0000000000E+00   0.1262180503E+00   0.2087287077E-02   0.6465558608E-04   0.3496475280E-02   0.2725990972E-04  -0.3594634082E-04
  -0.3090954512E+01   0.1799481849E+01   0.3997310676E+00   0.5336076926E-03  -0.1779100922E-02  -0.2689384122E-03   0.0000000000E+00   0.0000000000E+00   0.0000000000E+00   0.1321934133E+00   0.6163392685E-03   0.7684699805E-04   0.1853655560E-02   0.6579547887E-04  -0.5499855185E-04
  -0.3091054889E+01   0.1998088220E+01   0.3997332974E+00   0.5505312063E-03  -0.1911779895E-02  -0.2667086029E-03   0.0000000000E+00   0.0000000000E+00   0.0000000000E+00   0.1359263238E+00  -0.4544174351E-04  -0.7317965391E-03   0.5164165208E-03   0.1670197328E-03   0.6319662233E-05
  -0.2892723351E+01   0.1205105018E+01   0.3997236848E+00   0.6582488508E-03  -0.1442481682E-02  -0.2763211857E-03   0.0000000000E+00   0.0000000000E+00   0.0000000000E+00   0.1117386304E+00   0.6053569925E-02  -0.4665444169E-05   0.6876348637E-02   0.2224256245E-05   0.2181349446E-04
  -0.2888281490E+01   0.1403300753E+01   0.3997267046E+00   0.7151095949E-03  -0.1547827425E-02  -0.2733014254E-03   0.0000000000E+00   0.0000000000E+00   0.0000000000E+00   0.1199878875E+00   0.3905900809E-02   0.4074765214E-04   0.6412030226E-02   0.1613424856E-04   0.1696451797E-04
  -0.2886755554E+01   0.1601522861E+01   0.3997295852E+00   0.7649960497E-03  -0.1664939073E-02  -0.2704208290E-03   0.0000000000E+00   0.0000000000E+00   0.0000000000E+00   0.1277453089E+00   0.2002899861E-02   0.1500050829E-04   0.5208309333E-02   0.4105676267E-04  -0.2438605927E-04
  -0.2886507628E+01   0.1799797883E+01   0.3997322282E+00   0.8052620550E-03  -0.1792676706E-02  -0.2677778187E-03   0.0000000000E+00   0.0000000000E+00   0.0000000000E+00   0.1346314046E+00   0.6292423877E-03   0.1713446906E-03   0.2790732014E-02   0.1013885232E-03  -0.5250624179E-04
  -0.2886548110E+01   0.1998072023E+01   0.3997348994E+00   0.8324901563E-03  -0.1927976818E-02  -0.2651066213E-03   0.0000000000E+00   0.0000000000E+00   0.0000000000E+00   0.1390990590E+00  -0.8764028825E-04  -0.8387308438E-03   0.7694737109E-03   0.2533938132E-03   0.4548883771E-05
  -0.2690829578E+01   0.1206844603E+01   0.3997235837E+00   0.8785120114E-03  -0.1458136869E-02  -0.2764222916E-03   0.0000000000E+00   0.0000000000E+00   0.0000000000E+00   0.1120072043E+00   0.5596858868E-02  -0.7454841037E-06   0.9104401734E-02   0.3211095982E-05   0.2872083817E-04
  -0.2684781915E+01   0.1404544001E+01   0.3997271361E+00   0.9566447065E-03  -0.1564858863E-02  -0.2728699397E-03   0.0000000000E+00   0.0000000000E+00   0.0000000000E+00   0.1211375245E+00   0.3550831978E-02  -0.6314405996E-05   0.8400303386E-02   0.2259159252E-04   0.3654714682E-04
  -0.2682572562E+01   0.1602310317E+01   0.3997305937E+00   0.1025957605E-02  -0.1684052995E-02  -0.2694122987E-03   0.0000000000E+00   0.0000000000E+00   0.0000000000E+00   0.1298975078E+00   0.1844930184E-02   0.2092046530E-04   0.6795716073E-02   0.6020103198E-04  -0.7090697128E-05
  -0.2682096078E+01   0.1800168246E+01   0.3997338139E+00   0.1082581790E-02  -0.1814394399E-02  -0.2661921221E-03   0.0000000000E+00   0.0000000000E+00   0.0000000000E+00   0.1379668542E+00   0.5808869314E-03   0.2329533296E-03   0.3628878092E-02   0.1416382793E-03  -0.4611403226E-04
  -0.2682040817E+01   0.1998046465E+01   0.3997370995E+00   0.1122582795E-02  -0.1953535123E-02  -0.2629065471E-03   0.0000000000E+00   0.0000000000E+00   0.0000000000E+00   0.1435704217E+00  -0.1245377003E-03  -0.8604502505E-03   0.1042019583E-02   0.3486107438E-03  -0.8507529930E-06
  -0.2489036088E+01   0.1208736626E+01   0.3997233740E+00   0.1100291968E-02  -0.1481563626E-02  -0.2766319896E-03   0.0000000000E+00   0.0000000000E+00   0.0000000000E+00   0.1124903385E+00   0.4678252988E-02  -0.3598077451E-04   0.1121316378E-01   0.3481153814E-05   0.4261595044E-04
  -0.2481358485E+01   0.1405898396E+01   0.3997276041E+00   0.1201674611E-02  -0.1591263847E-02  -0.2724019059E-03   0.0000000000E+00   0.0000000000E+00   0.0000000000E+00   0.1227171725E+00   0.2880677619E-02  -0.1980847235E-05   0.1017962099E-01   0.2983081199E-04   0.6155344780E-04
  -0.2478437121E+01   0.1603168410E+01   0.3997318062E+00   0.1292059075E-02  -0.1713349638E-02  -0.2681998360E-03   0.0000000000E+00   0.0000000000E+00   0.0000000000E+00   0.1325821717E+00   0.1470291304E-02  -0.5658362835E-04   0.8153642571E-02   0.7830734278E-04   0.2132473890E-04
  -0.2477705903E+01   0.1800568601E+01   0.3997357501E+00   0.1367617141E-02  -0.1847369397E-02  -0.2642559441E-03   0.0000000000E+00   0.0000000000E+00   0.0000000000E+00   0.1421799316E+00   0.5299800974E-03   0.4350432978E-03   0.4370206162E-02   0.1837453165E-03  -0.3668082732E-04
  -0.2477532921E+01   0.1998008676E+01   0.3997398246E+00   0.1423059073E-02  -0.1991324266E-02  -0.2601814375E-03   0.0000000000E+00   0.0000000000E+00   0.0000000000E+00   0.1491477478E+00  -0.2079002235E-03  -0.9628600585E-03   0.1193220990E-02   0.4356625481E-03  -0.7694390110E-05
  -0.2287302129E+01   0.1210698979E+01   0.3997230009E+00   0.1325021184E-02  -0.1516211226E-02  -0.2770051287E-03   0.0000000000E+00   0.0000000000E+00   0.0000000000E+00   0.1133881395E+00   0.3080330930E-02  -0.3365434881E-04   0.1308019379E-01   0.9333135898E-06   0.5444059837E-04
  -0.2277978817E+01   0.1407306773E+01   0.3997280542E+00   0.1451333340E-02  -0.1630446981E-02  -0.2719517713E-03   0.0000000000E+00   0.0000000000E+00   0.0000000000E+00   0.1247426875E+00   0.1670294279E-02  -0.6724447444E-04   0.1155330883E-01   0.3376147789E-04   0.9987318359E-04
  -0.2274326796E+01   0.1604059469E+01   0.3997331320E+00   0.1564983688E-02  -0.1757130992E-02  -0.2668739695E-03   0.0000000000E+00   0.0000000000E+00   0.0000000000E+00   0.1358120397E+00   0.8467812135E-03  -0.4981568119E-04   0.9103209827E-02   0.9675721464E-04   0.5933012508E-04
  -0.2273326619E+01   0.1800978733E+01   0.3997379215E+00   0.1661550800E-02  -0.1895597440E-02  -0.2620844920E-03   0.0000000000E+00   0.0000000000E+00   0.0000000000E+00   0.1470085267E+00   0.3465415060E-03   0.6065763750E-03   0.4836299316E-02   0.2154161365E-03  -0.2031585929E-04
  -0.2273020701E+01   0.1997954535E+01   0.3997429023E+00   0.1736448540E-02  -0.2045465380E-02  -0.2571037303E-03   0.0000000000E+00   0.0000000000E+00   0.0000000000E+00   0.1557066999E+00  -0.2817819814E-03  -0.8637064804E-03   0.1397366599E-02   0.5011409422E-03  -0.2043826707E-04
  -0.2085619561E+01   0.1212672233E+01   0.3997224430E+00   0.1554379165E-02  -0.1565696618E-02  -0.2775630248E-03   0.0000000000E+00   0.0000000000E+00   0.0000000000E+00   0.1149061701E+00   0.5018696026E-03  -0.5375106149E-04   0.1450964356E-01  -0.6162852064E-05   0.8152052370E-04
  -0.2074628716E+01   0.1408725778E+01   0.3997284317E+00   0.1707664318E-02  -0.1687722026E-02  -0.2715742520E-03   0.0000000000E+00   0.0000000000E+00   0.0000000000E+00   0.1273886411E+00  -0.2349508628E-03  -0.5419050212E-04   0.1227511640E-01   0.3370214535E-04   0.1438458826E-03
  -0.2070231885E+01   0.1604954153E+01   0.3997344635E+00   0.1845625254E-02  -0.1820417151E-02  -0.2655424631E-03   0.0000000000E+00   0.0000000000E+00   0.0000000000E+00   0.1393950471E+00  -0.2223278112E-03  -0.1518806800E-03   0.9346042446E-02   0.1026021475E-03   0.1121845768E-03
  -0.2068950789E+01   0.1801381412E+01   0.3997401242E+00   0.1965860591E-02  -0.1964508411E-02  -0.2598818217E-03   0.0000000000E+00   0.0000000000E+00   0.0000000000E+00   0.1522219402E+00   0.1189668772E-03   0.1001549176E-02   0.4932476305E-02   0.2285580300E-03   0.5962034234E-06
  -0.2068500893E+01   0.1997879273E+01   0.3997460516E+00   0.2063617315E-02  -0.2120726743E-02  -0.2539543626E-03   0.0000000000E+00   0.0000000000E+00   0.0000000000E+00   0.1626229582E+00  -0.4195690037E-03  -0.8074782418E-03   0.1312742528E-02   0.5037953652E-03  -0.3590619106E-04
  -0.1884025104E+01   0.1214603746E+01   0.3997217382E+00   0.1791236335E-02  -0.1635944126E-02  -0.2782677630E-03   0.0000000000E+00   0.0000000000E+00   0.0000000000E+00   0.1174007624E+00  -0.3226671836E-02  -0.1931757400E-04   0.1521595459E-01  -0.2682016747E-04   0.1027608192E-03
  -0.1871325071E+01   0.1410127171E+01   0.3997287150E+00   0.1972379133E-02  -0.1768698638E-02  -0.2712910434E-03   0.0000000000E+00   0.0000000000E+00   0.0000000000E+00   0.1307158784E+00  -0.3014937118E-02  -0.1132422544E-03   0.1196827943E-01   0.1993751532E-04   0.2044628254E-03
  -0.1866157092E+01   0.1605840861E+01   0.3997356634E+00   0.2135597757E-02  -0.1910029363E-02  -0.2643425805E-03   0.0000000000E+00   0.0000000000E+00   0.0000000000E+00   0.1432744994E+00  -0.1705908536E-02  -0.9617616176E-04   0.8564506780E-02   0.9485199683E-04   0.1724821217E-03
  -0.1864580282E+01   0.1801776669E+01   0.3997420898E+00   0.2280107652E-02  -0.2060150863E-02  -0.2579162325E-03   0.0000000000E+00   0.0000000000E+00   0.0000000000E+00   0.1571601097E+00  -0.3509733597E-03   0.1296494303E-02   0.4342494793E-02   0.1931622444E-03   0.2947756564E-04
  -0.1863972146E+01   0.1997777033E+01   0.3997488141E+00   0.2405204368E-02  -0.2222967356E-02  -0.2511918549E-03   0.0000000000E+00   0.0000000000E+00   0.0000000000E+00   0.1692642126E+00  -0.5234098667E-03  -0.3431988009E-03   0.1258932426E-02   0.4052256111E-03  -0.5737381237E-04
  -0.1680810014E+01   0.1216733391E+01   0.3997210497E+00   0.2041296048E-02  -0.1733849302E-02  -0.2789562554E-03   0.0000000000E+00   0.0000000000E+00   0.0000000000E+00   0.1213064838E+00  -0.8273877349E-02   0.8011561058E-04   0.1495343876E-01  -0.5858865947E-04   0.1720106252E-03
  -0.1667644669E+01   0.1411609715E+01   0.3997290056E+00   0.2249070624E-02  -0.1881534562E-02  -0.2710003650E-03   0.0000000000E+00   0.0000000000E+00   0.0000000000E+00   0.1349688761E+00  -0.6597112475E-02  -0.3143158106E-04   0.1029442635E-01  -0.1519330633E-06   0.2648749980E-03
  -0.1661988952E+01   0.1606812270E+01   0.3997366427E+00   0.2435228236E-02  -0.2032730306E-02  -0.2633632688E-03   0.0000000000E+00   0.0000000000E+00   0.0000000000E+00   0.1470928107E+00  -0.3762681125E-02  -0.2464618556E-03   0.6355499329E-02   0.5568554934E-04   0.2405916294E-03
  -0.1660172802E+01   0.1802228866E+01   0.3997434705E+00   0.2604148318E-02  -0.2189573919E-02  -0.2565354879E-03   0.0000000000E+00   0.0000000000E+00   0.0000000000E+00   0.1612443061E+00  -0.8509732055E-03   0.1868005328E-02   0.2935320361E-02   0.1003179164E-03   0.5677279832E-04
  -0.1659430470E+01   0.1997642481E+01   0.3997505941E+00   0.2758060392E-02  -0.2357519243E-02  -0.2494119080E-03   0.0000000000E+00   0.0000000000E+00   0.0000000000E+00   0.1741170479E+00  -0.6853611234E-03   0.3378860008E-04   0.6510963594E-03   0.1400833561E-03  -0.7719173758E-04
  -0.1478717740E+01   0.1218653707E+01   0.3997209014E+00   0.2305329940E-02  -0.1867022693E-02  -0.2791045913E-03   0.0000000000E+00   0.0000000000E+00   0.0000000000E+00   0.1270826727E+00  -0.1406098267E-01   0.1921073273E-03   0.1307993390E-01  -0.8167400998E-04   0.2307195236E-03
  -0.1463995201E+01   0.1413308128E+01   0.3997295953E+00   0.2539409039E-02  -0.2032651514E-02  -0.2704106988E-03   0.0000000000E+00   0.0000000000E+00   0.0000000000E+00   0.1401437987E+00  -0.1067089691E-01  -0.1943725658E-03   0.6863829094E-02  -0.2570776890E-04   0.3396657785E-03
  -0.1457683523E+01   0.1608121360E+01   0.3997373881E+00   0.2745906794E-02  -0.2196349835E-02  -0.2626178917E-03   0.0000000000E+00   0.0000000000E+00   0.0000000000E+00   0.1508155153E+00  -0.5884269246E-02  -0.5532823642E-04   0.2437205950E-02   0.4187048210E-05   0.2894157898E-03
  -0.1455682445E+01   0.1802907420E+01   0.3997439498E+00   0.2934404857E-02  -0.2358479512E-02  -0.2560562063E-03   0.0000000000E+00   0.0000000000E+00   0.0000000000E+00   0.1632633371E+00  -0.1594617189E-02   0.1994343083E-02   0.3806451043E-03  -0.7870555928E-04   0.8018096592E-04
  -0.1454881198E+01   0.1997470917E+01   0.3997506817E+00   0.3118031797E-02  -0.2529083469E-02  -0.2493243430E-03   0.0000000000E+00   0.0000000000E+00   0.0000000000E+00   0.1758576743E+00  -0.7360095998E-03   0.9296405095E-03   0.1068506241E-03  -0.3127366728E-03  -0.9663882522E-04
  -0.1270748170E+01   0.1220569353E+01   0.3997222724E+00   0.2597300485E-02  -0.2048277299E-02  -0.2777336246E-03   0.0000000000E+00   0.0000000000E+00   0.0000000000E+00   0.1350992936E+00  -0.1945299843E-01  -0.2905835411E-04   0.9529889583E-02  -0.1850234125E-04   0.3822195536E-03
  -0.1258127118E+01   0.1415758138E+01   0.3997311698E+00   0.2850391735E-02  -0.2232661656E-02  -0.2688361886E-03   0.0000000000E+00   0.0000000000E+00   0.0000000000E+00   0.1466968538E+00  -0.1404965751E-01   0.2626346570E-04   0.1606696841E-02   0.2470840442E-04   0.3746151255E-03
  -0.1252420821E+01   0.1610315897E+01   0.3997381040E+00   0.3067219035E-02  -0.2405782570E-02  -0.2619019800E-03   0.0000000000E+00   0.0000000000E+00   0.0000000000E+00   0.1537217757E+00  -0.7687318509E-02  -0.3116843037E-03  -0.3157866670E-02  -0.6714795601E-04   0.2981044037E-03
  -0.1250925658E+01   0.1804136340E+01   0.3997432779E+00   0.3268362298E-02  -0.2570679764E-02  -0.2567281311E-03   0.0000000000E+00   0.0000000000E+00   0.0000000000E+00   0.1625492568E+00  -0.2019496800E-02   0.2269592704E-02  -0.3063268620E-02  -0.3164177987E-03   0.6969990099E-04
  -0.1250465173E+01   0.1997262029E+01   0.3997484259E+00   0.3474337305E-02  -0.2737971228E-02  -0.2515801301E-03   0.0000000000E+00   0.0000000000E+00   0.0000000000E+00   0.1722084390E+00  -0.7268997992E-03   0.1355614447E-02  -0.1219669868E-02  -0.9728780811E-03  -0.1117881491E-03
  -0.1066214841E+01   0.1223224243E+01   0.3997271766E+00   0.2910099269E-02  -0.2280867214E-02  -0.2728293758E-03   0.0000000000E+00   0.0000000000E+00   0.0000000000E+00   0.1459723350E+00  -0.2159344577E-01  -0.3594539088E-03   0.4106346362E-02   0.3273294638E-03   0.4199832001E-03
  -0.1051133720E+01   0.1419476424E+01   0.3997348164E+00   0.3180889891E-02  -0.2482376399E-02  -0.2651895888E-03   0.0000000000E+00   0.0000000000E+00   0.0000000000E+00   0.1541986503E+00  -0.1489719850E-01  -0.4876867275E-03  -0.5079478395E-02   0.1654674340E-03   0.3060418203E-03
  -0.1046084346E+01   0.1613501866E+01   0.3997390589E+00   0.3398474461E-02  -0.2661863577E-02  -0.2609471359E-03   0.0000000000E+00   0.0000000000E+00   0.0000000000E+00   0.1557908668E+00  -0.7714296471E-02   0.3893806708E-04  -0.9881724881E-02  -0.1051480485E-03   0.1641920658E-03
  -0.1045815309E+01   0.1805609147E+01   0.3997413455E+00   0.3597180734E-02  -0.2822122679E-02  -0.2586604523E-03   0.0000000000E+00   0.0000000000E+00   0.0000000000E+00   0.1576800740E+00  -0.2129096007E-02   0.1540168006E-02  -0.7136605009E-02  -0.6370148830E-03   0.2700341614E-04
  -0.1046703240E+01   0.1997021163E+01   0.3997434776E+00   0.3815989504E-02  -0.2978836606E-02  -0.2565284182E-03   0.0000000000E+00   0.0000000000E+00   0.0000000000E+00   0.1624862390E+00  -0.5120026291E-03   0.1960455809E-02  -0.2022412344E-02  -0.1701598156E-02  -0.1114152402E-03
  -0.8568784207E+00   0.1225213495E+01   0.3997379473E+00   0.3255227309E-02  -0.2567085188E-02  -0.2620587021E-03   0.0000000000E+00   0.0000000000E+00   0.0000000000E+00   0.1611726387E+00  -0.1580482125E-01  -0.9060612501E-03   0.7367477869E-03   0.1079767090E-02   0.2590368996E-03
  -0.8406806550E+00   0.1423430720E+01   0.3997412370E+00   0.3533904042E-02  -0.2779559733E-02  -0.2587689605E-03   0.0000000000E+00   0.0000000000E+00   0.0000000000E+00   0.1633517782E+00  -0.1057986504E-01   0.6305755545E-04  -0.1218928206E-01   0.3850051942E-03  -0.8201079296E-04
  -0.8373434159E+00   0.1616356920E+01   0.3997406065E+00   0.3732481110E-02  -0.2952740026E-02  -0.2593995079E-03   0.0000000000E+00   0.0000000000E+00   0.0000000000E+00   0.1554344280E+00  -0.5337338751E-02  -0.5446937120E-03  -0.1583022648E-01  -0.1889358503E-03  -0.1114734001E-03
  -0.8390580554E+00   0.1806822453E+01   0.3997382334E+00   0.3916726588E-02  -0.3101677356E-02  -0.2617725626E-03   0.0000000000E+00   0.0000000000E+00   0.0000000000E+00   0.1490113745E+00  -0.1681943048E-02   0.4523996460E-03  -0.1051462881E-01  -0.9000101852E-03  -0.6367514484E-04
  -0.8445720758E+00   0.1996763252E+01   0.3997361264E+00   0.4126063154E-02  -0.3236748227E-02  -0.2638795817E-03   0.0000000000E+00   0.0000000000E+00   0.0000000000E+00   0.1459922158E+00  -0.1322674929E-03   0.1686822459E-02  -0.3487253632E-02  -0.2368318103E-02  -0.7424052182E-04
   0.6337303895E+00  -0.1762224126E+01   0.3997659884E+00   0.5950190468E-02  -0.1322459757E-03  -0.2340176246E-03   0.0000000000E+00   0.0000000000E+00   0.0000000000E+00   0.1716942180E+00   0.2887397822E-01  -0.9941054170E-03   0.1644808515E-02  -0.5205347468E-04   0.1496010551E-03
   0.4249699545E+00  -0.1769894374E+01   0.3997733556E+00   0.5626274525E-02  -0.9907375191E-04  -0.2266504218E-03   0.0000000000E+00   0.0000000000E+00   0.0000000000E+00   0.1735858369E+00   0.4221389665E-01  -0.6089172775E-03   0.5230357276E-03  -0.8175597182E-04   0.2470670886E-03
   0.4157838422E+00  -0.2000000000E+01   0.3997721824E+00   0.5595555196E-02   0.0000000000E+00  -0.2278236451E-03   0.0000000000E+00   0.0000000000E+00   0.0000000000E+00   0.1702189665E+00   0.4260171959E-01  -0.6897366899E-03   0.1338647305E-02  -0.5178085482E-04   0.6111424602E-04
   0.6236557104E+00  -0.2000000000E+01   0.3997653675E+00   0.5910966381E-02   0.0000000000E+00  -0.2346384856E-03   0.0000000000E+00   0.0000000000E+00   0.0000000000E+00   0.1697458824E+00   0.3019330714E-01  -0.1452062758E-03   0.1644764217E-02  -0.7032819153E-04   0.8737758739E-04
   0.2161243379E+00  -0.1777874464E+01   0.3997786002E+00   0.5311321881E-02  -0.7521388837E-04  -0.2214057911E-03   0.0000000000E+00   0.0000000000E+00   0.0000000000E+00   0.1740421621E+00   0.5163759545E-01  -0.1105838477E-02  -0.4952571447E-04  -0.8006806823E-04   0.3500817397E-03
   0.2069658463E+00  -0.2000000000E+01   0.3997766807E+00   0.5289880321E-02   0.0000000000E+00  -0.2233252819E-03   0.0000000000E+00   0.0000000000E+00   0.0000000000E+00   0.1704614765E+00   0.5182334886E-01  -0.4216353245E-03   0.6673610404E-03  -0.1236082963E-04   0.1135018477E-03
   0.6254213403E-02  -0.1782719627E+01   0.3997804285E+00   0.5001901653E-02  -0.6581734353E-04  -0.2195775079E-03   0.0000000000E+00   0.0000000000E+00   0.0000000000E+00   0.1739736688E+00   0.5544071651E-01  -0.1111025915E-02   0.2354258267E-04   0.7487478525E-05   0.3994014056E-03
  -0.5394317901E-02  -0.2000000000E+01   0.3997782381E+00   0.4985016099E-02   0.0000000000E+00  -0.2217678513E-03   0.0000000000E+00   0.0000000000E+00   0.0000000000E+00   0.1704128478E+00   0.5486043780E-01  -0.6100932598E-03  -0.4414335272E-05   0.1142163118E-04   0.1227723220E-03
  -0.2014765367E+00  -0.1784601320E+01   0.3997784874E+00   0.4696153279E-02  -0.7259024869E-04  -0.2215186145E-03   0.0000000000E+00   0.0000000000E+00   0.0000000000E+00   0.1737419363E+00   0.5179326634E-01  -0.1118568264E-02   0.1593757718E-03   0.1038904990E-03   0.3355444007E-03
  -0.2151737201E+00  -0.2000000000E+01   0.3997763669E+00   0.4683540892E-02   0.0000000000E+00  -0.2236390610E-03   0.0000000000E+00   0.0000000000E+00   0.0000000000E+00   0.1704419697E+00   0.5145343489E-01  -0.4094855231E-03  -0.6576276997E-03   0.1774857911E-04   0.9390863236E-04
  -0.4109757255E+00  -0.1783994024E+01   0.3997731529E+00   0.4381804455E-02  -0.9233377713E-04  -0.2268531267E-03   0.0000000000E+00   0.0000000000E+00   0.0000000000E+00   0.1731639395E+00   0.4251868354E-01  -0.6165891397E-03  -0.3859456057E-03   0.8205136877E-04   0.2265913552E-03
  -0.4215276213E+00  -0.2000000000E+01   0.3997717635E+00   0.4380735749E-02   0.0000000000E+00  -0.2282425238E-03   0.0000000000E+00   0.0000000000E+00   0.0000000000E+00   0.1701541737E+00   0.4219013010E-01  -0.5895787755E-03  -0.1299087231E-02   0.4404298122E-04   0.6905877545E-05
   0.6503571627E+00  -0.1523339461E+01   0.3997682629E+00   0.6060158747E-02  -0.2766312436E-03  -0.2317431065E-03   0.0000000000E+00   0.0000000000E+00   0.0000000000E+00   0.1776124468E+00   0.2671715841E-01  -0.4503842181E-03   0.7205416296E-02  -0.3901845390E-03   0.5813572807E-03
   0.4394586670E+00  -0.1542187745E+01   0.3997790213E+00   0.5706220043E-02  -0.2087853497E-03  -0.2209847099E-03   0.0000000000E+00   0.0000000000E+00   0.0000000000E+00   0.1828962525E+00   0.4053005226E-01  -0.1938706652E-02   0.4145268283E-02  -0.4457250598E-03   0.1001807707E-02
   0.2297843032E+00  -0.1559709476E+01   0.3997864005E+00   0.5361505179E-02  -0.1578761565E-03  -0.2136055406E-03   0.0000000000E+00   0.0000000000E+00   0.0000000000E+00   0.1863833071E+00   0.5175819236E-01  -0.1838420033E-02   0.2065576241E-02  -0.3063271123E-03   0.1313675569E-02
   0.2167463827E-01  -0.1569972333E+01   0.3997891157E+00   0.5026796466E-02  -0.1369128881E-03  -0.2108902659E-03   0.0000000000E+00   0.0000000000E+00   0.0000000000E+00   0.1877713748E+00   0.5616940188E-01  -0.1420087280E-02   0.1410010161E-03  -0.2631399154E-04   0.1445104180E-02
  -0.1858817013E+00  -0.1572703375E+01   0.3997866852E+00   0.4695745658E-02  -0.1477146513E-03  -0.2133207806E-03   0.0000000000E+00   0.0000000000E+00   0.0000000000E+00   0.1857356276E+00   0.5300794415E-01  -0.1820823328E-02  -0.1582287802E-02   0.2548515232E-03   0.1337303576E-02
  -0.3945289881E+00  -0.1568875492E+01   0.3997797454E+00   0.4360106921E-02  -0.1871022438E-03  -0.2202605819E-03   0.0000000000E+00   0.0000000000E+00   0.0000000000E+00   0.1819421210E+00   0.4271468867E-01  -0.2001490138E-02  -0.3180231216E-02   0.3948124722E-03   0.1031241206E-02
   0.6756704361E+00  -0.1279964539E+01   0.3997706383E+00   0.6277731145E-02  -0.4445086300E-03  -0.2293676899E-03   0.0000000000E+00   0.0000000000E+00   0.0000000000E+00   0.1841689541E+00   0.2227858007E-01  -0.3418414103E-02   0.1939411118E-01  -0.9976243092E-03   0.7459399485E-03
   0.4550012115E+00  -0.1319026604E+01   0.3997870336E+00   0.5857891481E-02  -0.3327241380E-03  -0.2129724034E-03   0.0000000000E+00   0.0000000000E+00   0.0000000000E+00   0.1987183864E+00   0.4029158863E-01  -0.2702752855E-02   0.1509887441E-01  -0.1076227164E-02   0.1260465248E-02
   0.2421194053E+00  -0.1350492375E+01   0.3997980601E+00   0.5450982346E-02  -0.2577450838E-03  -0.2019459002E-03   0.0000000000E+00   0.0000000000E+00   0.0000000000E+00   0.2118244207E+00   0.5114152256E-01  -0.1609649171E-02   0.9068938993E-02  -0.7105473858E-03   0.1765073168E-02
   0.3419084405E-01  -0.1367007612E+01   0.3998024472E+00   0.5055249948E-02  -0.2270916404E-03  -0.1975588419E-03   0.0000000000E+00   0.0000000000E+00   0.0000000000E+00   0.2162467978E+00   0.5466754324E-01  -0.2209148971E-02   0.8443218962E-03  -0.1001996026E-03   0.1973683240E-02
  -0.1743814882E+00  -0.1367800784E+01   0.3997993138E+00   0.4663771844E-02  -0.2375338891E-03  -0.2006922081E-03   0.0000000000E+00   0.0000000000E+00   0.0000000000E+00   0.2116192997E+00   0.5353261592E-01  -0.1827616576E-02  -0.7010216308E-02   0.4968944700E-03   0.1866794087E-02
  -0.3837649602E+00  -0.1355292917E+01   0.3997899215E+00   0.4278741768E-02  -0.2902765933E-03  -0.2100845225E-03   0.0000000000E+00   0.0000000000E+00   0.0000000000E+00   0.1990675116E+00   0.4450082524E-01  -0.3636427724E-02  -0.1175738143E-01   0.9095861530E-03   0.1503836825E-02
   0.7083699295E+00  -0.1013739731E+01   0.3997639160E+00   0.6712515498E-02  -0.6293305032E-03  -0.2360899968E-03   0.0000000000E+00   0.0000000000E+00   0.0000000000E+00   0.1703965573E+00   0.3218147479E-01   0.4399350260E-02   0.5023382315E-01  -0.1915140772E-02  -0.5245504521E-03
   0.4624655117E+00  -0.1104357376E+01   0.3997919655E+00   0.6129937670E-02  -0.4767364571E-03  -0.2080405180E-03   0.0000000000E+00   0.0000000000E+00   0.0000000000E+00   0.2229086712E+00   0.4332701031E-01   0.1041573022E-01   0.4813664464E-01  -0.2064624207E-02   0.3958978423E-03
   0.2470601213E+00  -0.1157515164E+01   0.3998087229E+00   0.5597056329E-02  -0.3987535273E-03  -0.1912831114E-03   0.0000000000E+00   0.0000000000E+00   0.0000000000E+00   0.2618569233E+00   0.4068463659E-01   0.1095813191E-01   0.3207411444E-01  -0.1286582197E-02   0.8606358418E-03
   0.4221377310E-01  -0.1180248845E+01   0.3998152718E+00   0.5091814103E-02  -0.3666745739E-03  -0.1847341809E-03   0.0000000000E+00   0.0000000000E+00   0.0000000000E+00   0.2757776917E+00   0.3912055434E-01   0.1140539637E-01   0.5693010362E-02  -0.1821360139E-03   0.1126720762E-02
  -0.1621008384E+00  -0.1176288094E+01   0.3998116523E+00   0.4594607599E-02  -0.3742838145E-03  -0.1883537197E-03   0.0000000000E+00   0.0000000000E+00   0.0000000000E+00   0.2680491265E+00   0.4022694039E-01   0.1138558350E-01  -0.2143748696E-01   0.8914818550E-03   0.1017539676E-02
  -0.3747167330E+00  -0.1145735404E+01   0.3997985334E+00   0.4090781999E-02  -0.4242837989E-03  -0.2014725711E-03   0.0000000000E+00   0.0000000000E+00   0.0000000000E+00   0.2357214969E+00   0.4311830667E-01   0.1154378503E-01  -0.3946355915E-01   0.1666414273E-02   0.7060078629E-03
  -0.1295357375E+00  -0.9916004903E+00   0.3998264704E+00   0.4522112522E-02  -0.6269582915E-03  -0.1735356253E-03   0.0000000000E+00   0.0000000000E+00   0.0000000000E+00   0.3434666347E+00   0.1398993176E-01   0.5740024047E-02  -0.4300711532E-01   0.1435459764E-02  -0.7834363078E-03
  -0.3065330106E+00  -0.9512246119E+00   0.3998123832E+00   0.3895847383E-02  -0.6279809130E-03  -0.1876228472E-03   0.0000000000E+00   0.0000000000E+00   0.0000000000E+00   0.2883479891E+00   0.3312156824E-01   0.3740924779E-02  -0.8362454740E-01   0.2965945450E-02  -0.1750973400E-02
   0.4576911469E-01  -0.9998015497E+00   0.3998294639E+00   0.5148392786E-02  -0.6268957082E-03  -0.1705420557E-03   0.0000000000E+00   0.0000000000E+00   0.0000000000E+00   0.3554907110E+00   0.8572533732E-02   0.6356255581E-02   0.1181573172E-01  -0.3620378091E-03  -0.5692643240E-03
   0.2220777864E+00  -0.9769545627E+00   0.3998215501E+00   0.5777775358E-02  -0.6276207499E-03  -0.1784558913E-03   0.0000000000E+00   0.0000000000E+00   0.0000000000E+00   0.3267339880E+00   0.2043554807E-01   0.6497950886E-02   0.6396857003E-01  -0.2168113906E-02  -0.9370069005E-03
   0.4015114772E+00  -0.9192716264E+00   0.3998019522E+00   0.6411420174E-02  -0.6335164037E-03  -0.1980538352E-03   0.0000000000E+00   0.0000000000E+00   0.0000000000E+00   0.2554013678E+00   0.4326739113E-01   0.4748275087E-02   0.9545588962E-01  -0.3597397175E-02  -0.2126747639E-02
   0.5805866669E+00  -0.8198299873E+00   0.3997702659E+00   0.7036144861E-02  -0.6598103119E-03  -0.2297401189E-03   0.0000000000E+00   0.0000000000E+00   0.0000000000E+00   0.1728509684E+00   0.6160902378E-01   0.2427013622E-02   0.9844186688E-01  -0.4445518872E-02  -0.3555954370E-02
   0.8644151151E+00  -0.7844497702E+00   0.3997295367E+00   0.7427877096E-02  -0.8325722087E-03  -0.2704692547E-03   0.0000000000E+00   0.0000000000E+00   0.0000000000E+00   0.1015105525E+00   0.2983843579E-01   0.5261718719E-02   0.5541221023E-01  -0.1878694388E-02  -0.2742825144E-02
   0.7403305794E+00  -0.6812571732E+00   0.3997311601E+00   0.7621648383E-02  -0.7150621861E-03  -0.2688459334E-03   0.0000000000E+00   0.0000000000E+00   0.0000000000E+00   0.8311810337E-01   0.5871254410E-01  -0.1466356423E-02   0.6388507525E-01  -0.4397407095E-02  -0.4679412535E-02
   0.9854682936E+00  -0.5799449181E+00   0.3996940381E+00   0.7975364647E-02  -0.9835460511E-03  -0.3059679235E-03   0.0000000000E+00   0.0000000000E+00   0.0000000000E+00   0.4640686016E-01   0.2211340162E-02  -0.5767735272E-02   0.3455507395E-01  -0.1328311327E-02  -0.3766199296E-02
   0.8628882141E+00  -0.5197399524E+00   0.3996907252E+00   0.8062896125E-02  -0.8240604087E-03  -0.3092807590E-03   0.0000000000E+00   0.0000000000E+00   0.0000000000E+00   0.2137065519E-01   0.1849511851E-01  -0.5935754611E-02   0.2165274594E-01  -0.3441530644E-02  -0.5903134943E-02
   0.1071593861E+01  -0.3839442541E+00   0.3996642937E+00   0.8359531133E-02  -0.1121889050E-02  -0.3357123345E-03   0.0000000000E+00   0.0000000000E+00   0.0000000000E+00   0.1532339270E-01  -0.3305976245E-01  -0.8828788548E-02   0.1712856411E-01  -0.2869403720E-03  -0.3525486421E-02
   0.9460682450E+00  -0.3484098129E+00   0.3996564561E+00   0.8365588992E-02  -0.9710599227E-03  -0.3435499175E-03   0.0000000000E+00   0.0000000000E+00   0.0000000000E+00   0.1859853062E-02  -0.4377621462E-01  -0.1047953678E-01  -0.7838699377E-02  -0.2073527023E-02  -0.5366456183E-02
   0.1120712254E+01  -0.1928233609E+00   0.3996437025E+00   0.8598893813E-02  -0.1245374859E-02  -0.3563034829E-03   0.0000000000E+00   0.0000000000E+00   0.0000000000E+00  -0.5624161671E-04  -0.6363067461E-01  -0.1224196396E-01   0.8770744761E-02   0.6572045141E-03  -0.2432159105E-02
   0.9932592156E+00  -0.1753458033E+00   0.3996318511E+00   0.8547687590E-02  -0.1152853298E-02  -0.3681549454E-03   0.0000000000E+00   0.0000000000E+00   0.0000000000E+00  -0.4659750867E-03  -0.1000894143E+00  -0.1276859341E-01  -0.1130331570E-01  -0.8948178287E-03  -0.3803759499E-02
   0.1256408488E+01  -0.1990118423E+00   0.3996544216E+00   0.8636868239E-02  -0.1285175253E-02  -0.3455843570E-03   0.0000000000E+00   0.0000000000E+00   0.0000000000E+00   0.1040287583E-01  -0.3249747475E-01  -0.5635675154E-03   0.2422762907E-01   0.1652706027E-02  -0.1460261254E-02
   0.1411380006E+01  -0.2033775717E+00   0.3996673274E+00   0.8676955841E-02  -0.1283925664E-02  -0.3326785577E-03   0.0000000000E+00   0.0000000000E+00   0.0000000000E+00   0.2308807183E-01  -0.1429587216E-01   0.1452602574E-02   0.2759123822E-01   0.1745687135E-02  -0.7978237848E-03
   0.1580449583E+01  -0.2067378045E+00   0.3996796117E+00   0.8729813077E-02  -0.1255947524E-02  -0.3203943355E-03   0.0000000000E+00   0.0000000000E+00   0.0000000000E+00   0.3589719089E-01  -0.2962830495E-02   0.1730472084E-02   0.2717764901E-01   0.1027865658E-02  -0.3520167258E-03
   0.1754363814E+01  -0.2091942599E+00   0.3996887462E+00   0.8799113977E-02  -0.1213656879E-02  -0.3112597991E-03   0.0000000000E+00   0.0000000000E+00   0.0000000000E+00   0.4690671152E-01   0.2888198951E-02   0.1082782061E-02   0.2470268829E-01   0.4950044709E-03  -0.1503369277E-03
   0.1928606771E+01  -0.2109208199E+00   0.3996954481E+00   0.8882781259E-02  -0.1166888929E-02  -0.3045579366E-03   0.0000000000E+00   0.0000000000E+00   0.0000000000E+00   0.5579789201E-01   0.6276049743E-02   0.5247532301E-03   0.2171579829E-01   0.2100640829E-03  -0.5914643062E-04
   0.2111180164E+01  -0.2135720655E+00   0.3997004132E+00   0.8983473861E-02  -0.1118133463E-02  -0.2995927504E-03   0.0000000000E+00   0.0000000000E+00   0.0000000000E+00   0.6318588043E-01   0.8142761033E-02   0.1750167557E-03   0.1857705707E-01   0.7091340531E-04  -0.3024716528E-04
   0.2294965287E+01  -0.2158976075E+00   0.3997040454E+00   0.9096167081E-02  -0.1072483489E-02  -0.2959605835E-03   0.0000000000E+00   0.0000000000E+00   0.0000000000E+00   0.6894092554E-01   0.9271485544E-02   0.8774777161E-05   0.1559174329E-01   0.3299603362E-04  -0.1685165785E-04
   0.2457698679E+01  -0.2152967521E+00   0.3997064281E+00   0.9204249068E-02  -0.1036904132E-02  -0.2935779281E-03   0.0000000000E+00   0.0000000000E+00   0.0000000000E+00   0.7331156000E-01   0.9779050521E-02  -0.1387650162E-04   0.1299895578E-01   0.1000867861E-04  -0.9445506781E-05
   0.2628071032E+01  -0.2157891719E+00   0.3997083588E+00   0.9323321948E-02  -0.1004042902E-02  -0.2916472004E-03   0.0000000000E+00   0.0000000000E+00   0.0000000000E+00   0.7676158600E-01   0.1009047881E-01  -0.3425510848E-04   0.1053117632E-01   0.1156280627E-04  -0.6184603334E-05
   0.2802934702E+01  -0.2169831093E+00   0.3997098346E+00   0.9450971798E-02  -0.9759962836E-03  -0.2901714177E-03   0.0000000000E+00   0.0000000000E+00   0.0000000000E+00   0.7965363385E-01   0.1020544351E-01  -0.1770841755E-04   0.8197863348E-02   0.9865884664E-05  -0.1931153685E-05
   0.2978606062E+01  -0.2182295372E+00   0.3997109185E+00   0.9583552097E-02  -0.9536491555E-03  -0.2890875309E-03   0.0000000000E+00   0.0000000000E+00   0.0000000000E+00   0.8181651298E-01   0.1024185964E-01  -0.5974696705E-05   0.6003314607E-02   0.8737367080E-05   0.4817755798E-06
   0.3155230831E+01  -0.2194760082E+00   0.3997116562E+00   0.9720160621E-02  -0.9375902488E-03  -0.2883497915E-03   0.0000000000E+00   0.0000000000E+00   0.0000000000E+00   0.8332780206E-01   0.1021255302E-01  -0.1006105722E-04   0.3966700764E-02   0.7046320463E-05   0.1958668591E-05
   0.3332347632E+01  -0.2203509161E+00   0.3997120860E+00   0.9859321591E-02  -0.9277110967E-03  -0.2879200340E-03   0.0000000000E+00   0.0000000000E+00   0.0000000000E+00   0.8422247841E-01   0.1019236197E-01  -0.2236780064E-05   0.1868856187E-02  -0.8657530186E-06   0.2660125314E-05
   0.3510000000E+01  -0.2211489361E+00   0.3997122254E+00   0.1000000000E-01  -0.9243621191E-03  -0.2877805870E-03   0.0000000000E+00   0.0000000000E+00   0.0000000000E+00   0.8451729448E-01   0.1017576041E-01  -0.3912686672E-05   0.3162197808E-03   0.1505516826E-04   0.3059713136E-05
   0.1210704937E+01  -0.3971200211E+00   0.3996700926E+00   0.8398906789E-02  -0.1199208111E-02  -0.3299134189E-03   0.0000000000E+00   0.0000000000E+00   0.0000000000E+00   0.3300580482E-01  -0.2382492897E-01  -0.5499837601E-03   0.3533006111E-01   0.8666575480E-03  -0.2161246660E-02
   0.1373611808E+01  -0.4070650861E+00   0.3996783990E+00   0.8464218497E-02  -0.1222156141E-02  -0.3216069647E-03   0.0000000000E+00   0.0000000000E+00   0.0000000000E+00   0.4386646134E-01  -0.1441846931E-01   0.8213639997E-03   0.3921339587E-01   0.1155458655E-02  -0.1181477445E-02
   0.1544051209E+01  -0.4130077888E+00   0.3996866400E+00   0.8548779039E-02  -0.1205049751E-02  -0.3133660063E-03   0.0000000000E+00   0.0000000000E+00   0.0000000000E+00   0.5351567515E-01  -0.7362822181E-02   0.1358863056E-02   0.3811686860E-01   0.7357236451E-03  -0.5378867834E-03
   0.1719271156E+01  -0.4171589603E+00   0.3996932153E+00   0.8648126229E-02  -0.1166879314E-02  -0.3067907409E-03   0.0000000000E+00   0.0000000000E+00   0.0000000000E+00   0.6046472357E-01  -0.2363617641E-02   0.6051056487E-03   0.3425964087E-01   0.3786866718E-03  -0.2240257667E-03
   0.1896823740E+01  -0.4204865996E+00   0.3996983185E+00   0.8758160278E-02  -0.1119375624E-02  -0.3016874839E-03   0.0000000000E+00   0.0000000000E+00   0.0000000000E+00   0.6641138629E-01   0.1177547549E-02   0.4015507735E-03   0.2991339764E-01   0.1691442454E-03  -0.9243135843E-04
   0.2074547257E+01  -0.4234117644E+00   0.3997020859E+00   0.8876287221E-02  -0.1069762384E-02  -0.2979201057E-03   0.0000000000E+00   0.0000000000E+00   0.0000000000E+00   0.7121864928E-01   0.3425955645E-02   0.1007836231E-03   0.2551480033E-01   0.6117262934E-04  -0.3907098728E-04
   0.2255434787E+01  -0.4264279301E+00   0.3997049827E+00   0.9003436972E-02  -0.1021295136E-02  -0.2950232827E-03   0.0000000000E+00   0.0000000000E+00   0.0000000000E+00   0.7528341390E-01   0.4897896874E-02   0.6877348357E-04   0.2139675751E-01   0.2459275370E-04  -0.2178522002E-04
   0.2432000524E+01  -0.4287392467E+00   0.3997071096E+00   0.9133223783E-02  -0.9781686955E-03  -0.2928964271E-03   0.0000000000E+00   0.0000000000E+00   0.0000000000E+00   0.7861081098E-01   0.5915314171E-02   0.4637943561E-04   0.1765127700E-01   0.8740619340E-05  -0.1552782992E-04
   0.2609422355E+01  -0.4311292669E+00   0.3997087504E+00   0.9268675147E-02  -0.9405519349E-03  -0.2912555590E-03   0.0000000000E+00   0.0000000000E+00   0.0000000000E+00   0.8123873363E-01   0.6476311971E-02  -0.1942648142E-04   0.1422818880E-01   0.5471862296E-05  -0.1131770906E-04
   0.2788302580E+01  -0.4337133573E+00   0.3997099888E+00   0.9409109809E-02  -0.9084743361E-03  -0.2900171929E-03   0.0000000000E+00   0.0000000000E+00   0.0000000000E+00   0.8331670550E-01   0.6897319110E-02  -0.9668291394E-05   0.1105790166E-01   0.5447805837E-05  -0.8048639389E-05
   0.2967875348E+01  -0.4362776750E+00   0.3997108983E+00   0.9553297826E-02  -0.8831489546E-03  -0.2891077313E-03   0.0000000000E+00   0.0000000000E+00   0.0000000000E+00   0.8491124430E-01   0.7135890739E-02  -0.1157690191E-04   0.8081736666E-02   0.5650441781E-05  -0.4244290104E-05
   0.3148030329E+01  -0.4385460036E+00   0.3997115211E+00   0.9700349061E-02  -0.8645666225E-03  -0.2884849118E-03   0.0000000000E+00   0.0000000000E+00   0.0000000000E+00   0.8603071018E-01   0.7283049444E-02   0.1142509437E-05   0.5330453578E-02   0.5258444485E-05  -0.2185018056E-05
   0.3328708125E+01  -0.4400993916E+00   0.3997118842E+00   0.9849505106E-02  -0.8534225717E-03  -0.2881218239E-03   0.0000000000E+00   0.0000000000E+00   0.0000000000E+00   0.8669514006E-01   0.7346252027E-02  -0.8065728199E-05   0.2513748307E-02  -0.1105829862E-05  -0.6752910432E-06
   0.3510000000E+01  -0.4413149166E+00   0.3997120035E+00   0.1000000000E-01  -0.8493175946E-03  -0.2880024789E-03   0.0000000000E+00   0.0000000000E+00   0.0000000000E+00   0.8691846141E-01   0.7367047338E-02   0.4132460872E-05   0.4093331260E-03   0.1260778777E-04  -0.4456857371E-06
   0.1137122652E+01  -0.5982458863E+00   0.3996924193E+00   0.8036162168E-02  -0.1086381312E-02  -0.3075867010E-03   0.0000000000E+00   0.0000000000E+00   0.0000000000E+00   0.6731584534E-01  -0.1210867870E-01   0.2890217266E-03   0.4426425876E-01  -0.1440768048E-03  -0.2225463638E-02
   0.1306453014E+01  -0.6104650012E+00   0.3996935842E+00   0.8145593688E-02  -0.1127731199E-02  -0.3064217762E-03   0.0000000000E+00   0.0000000000E+00   0.0000000000E+00   0.7442841023E-01  -0.1414472665E-01   0.1509525090E-02   0.4524940498E-01   0.4094042149E-03  -0.1174318752E-02
   0.1483411799E+01  -0.6185372420E+00   0.3996966261E+00   0.8280049265E-02  -0.1124675017E-02  -0.3033799101E-03   0.0000000000E+00   0.0000000000E+00   0.0000000000E+00   0.7755237161E-01  -0.1205671898E-01   0.7836113770E-03   0.4308520519E-01   0.3822294816E-03  -0.4972308711E-03
   0.1664275455E+01  -0.6244773086E+00   0.3996998012E+00   0.8423614521E-02  -0.1095097627E-02  -0.3002047928E-03   0.0000000000E+00   0.0000000000E+00   0.0000000000E+00   0.7971538361E-01  -0.8286077731E-02   0.7548364815E-03   0.3930320990E-01   0.2317327955E-03  -0.2173517176E-03
   0.1847181894E+01  -0.6294116432E+00   0.3997027376E+00   0.8571963913E-02  -0.1050775214E-02  -0.2972683512E-03   0.0000000000E+00   0.0000000000E+00   0.0000000000E+00   0.8152827215E-01  -0.5101732866E-02   0.2923122160E-03   0.3468504004E-01   0.1161264237E-03  -0.8299306660E-04
   0.2031039526E+01  -0.6338943376E+00   0.3997051234E+00   0.8723065531E-02  -0.1001252591E-02  -0.2948826083E-03   0.0000000000E+00   0.0000000000E+00   0.0000000000E+00   0.8330497267E-01  -0.2463330782E-02   0.1760947898E-03   0.2987196397E-01   0.4167370105E-04  -0.3887180448E-04
   0.2215868869E+01  -0.6382074621E+00   0.3997070526E+00   0.8876959043E-02  -0.9512570924E-03  -0.2929533600E-03   0.0000000000E+00   0.0000000000E+00   0.0000000000E+00   0.8490852575E-01  -0.5117114553E-03  -0.4186999204E-05   0.2518964916E-01   0.1580902998E-04  -0.1869801927E-04
   0.2399892557E+01  -0.6422791126E+00   0.3997085546E+00   0.9032237468E-02  -0.9050015568E-03  -0.2914514349E-03   0.0000000000E+00   0.0000000000E+00   0.0000000000E+00   0.8639233484E-01   0.9869394077E-03   0.8775876676E-06   0.2079010124E-01   0.4552503491E-05  -0.1283825051E-04
   0.2583947752E+01  -0.6462915576E+00   0.3997097297E+00   0.9189222154E-02  -0.8637946162E-03  -0.2902762778E-03   0.0000000000E+00   0.0000000000E+00   0.0000000000E+00   0.8769911828E-01   0.2069422977E-02   0.2319135106E-04   0.1671665488E-01   0.2709532007E-05  -0.9737873579E-05
   0.2768419761E+01  -0.6502903555E+00   0.3997106346E+00   0.9348411184E-02  -0.8291454651E-03  -0.2893714287E-03   0.0000000000E+00   0.0000000000E+00   0.0000000000E+00   0.8875021808E-01   0.2801291215E-02  -0.1091810972E-04   0.1297420630E-01   0.2122749265E-05  -0.8107557866E-05
   0.2953244440E+01  -0.6541005355E+00   0.3997113031E+00   0.9509320346E-02  -0.8012634814E-03  -0.2887028518E-03   0.0000000000E+00   0.0000000000E+00   0.0000000000E+00   0.8956653555E-01   0.3350107460E-02   0.5020683043E-05   0.9485432259E-02   0.2430542532E-05  -0.6099174420E-05
   0.3138427607E+01  -0.6573658955E+00   0.3997117640E+00   0.9671797328E-02  -0.7810965172E-03  -0.2882419520E-03   0.0000000000E+00   0.0000000000E+00   0.0000000000E+00   0.9014207299E-01   0.3693638455E-02  -0.7235383051E-05   0.6237979283E-02   0.2997920243E-05  -0.3851849375E-05
   0.3324001298E+01  -0.6596249257E+00   0.3997120345E+00   0.9835467518E-02  -0.7686526767E-03  -0.2879715088E-03   0.0000000000E+00   0.0000000000E+00   0.0000000000E+00   0.9049866376E-01   0.3897393341E-02   0.2719043996E-05   0.2972921880E-02  -0.1101407995E-05  -0.2864062076E-05
   0.3510000000E+01  -0.6611742596E+00   0.3997121241E+00   0.1000000000E-01  -0.7642725881E-03  -0.2878819025E-03   0.0000000000E+00   0.0000000000E+00   0.0000000000E+00   0.9061286929E-01   0.3946806140E-02  -0.5166588933E-05   0.3696409114E-03   0.8966804948E-05  -0.2248979130E-05
   0.1045922998E+01  -0.8085617419E+00   0.3997184206E+00   0.7560497553E-02  -0.9331099305E-03  -0.2815854357E-03   0.0000000000E+00   0.0000000000E+00   0.0000000000E+00   0.1158485659E+00  -0.3502688217E-02   0.2700314110E-02   0.4613543021E-01  -0.9625313139E-03  -0.1325015364E-02
   0.1232357060E+01  -0.8216949948E+00   0.3997119643E+00   0.7753049880E-02  -0.9876738283E-03  -0.2880417185E-03   0.0000000000E+00   0.0000000000E+00   0.0000000000E+00   0.1077739375E+00  -0.1366367572E-01  -0.3106810671E-03   0.4295350646E-01  -0.2643769032E-03  -0.6926550950E-03
   0.1419693233E+01  -0.8301111798E+00   0.3997088112E+00   0.7953643307E-02  -0.1001749784E-02  -0.2911947552E-03   0.0000000000E+00   0.0000000000E+00   0.0000000000E+00   0.1047423144E+00  -0.1508151465E-01   0.6362572657E-03   0.4177929417E-01   0.5942850005E-04  -0.3204680271E-03
   0.1607880024E+01  -0.8366203646E+00   0.3997082854E+00   0.8152873766E-02  -0.9841656469E-03  -0.2917205952E-03   0.0000000000E+00   0.0000000000E+00   0.0000000000E+00   0.1013171843E+00  -0.1362349554E-01   0.2188448716E-03   0.3897626753E-01   0.1077128774E-03  -0.1767436240E-03
   0.1796925082E+01  -0.8423678675E+00   0.3997085404E+00   0.8347882097E-02  -0.9487664574E-03  -0.2914656210E-03   0.0000000000E+00   0.0000000000E+00   0.0000000000E+00   0.9907719126E-01  -0.1100292460E-01   0.2131711349E-03   0.3514725293E-01   0.5558599059E-04  -0.6543214842E-04
   0.1986613073E+01  -0.8477857192E+00   0.3997092307E+00   0.8538762882E-02  -0.9036742377E-03  -0.2907752525E-03   0.0000000000E+00   0.0000000000E+00   0.0000000000E+00   0.9747718715E-01  -0.8442561736E-02   0.4790995840E-04   0.3078612280E-01   0.2753539968E-04  -0.3818571215E-04
   0.2176743809E+01  -0.8530433209E+00   0.3997099242E+00   0.8726418710E-02  -0.8562838810E-03  -0.2900818258E-03   0.0000000000E+00   0.0000000000E+00   0.0000000000E+00   0.9648472001E-01  -0.6164696934E-02   0.3288352521E-04   0.2625740795E-01   0.5219245130E-05  -0.1685128713E-04
   0.2366799838E+01  -0.8581753671E+00   0.3997106004E+00   0.8911137858E-02  -0.8103551142E-03  -0.2894055872E-03   0.0000000000E+00   0.0000000000E+00   0.0000000000E+00   0.9585516664E-01  -0.4287143521E-02  -0.7623675448E-05   0.2184967174E-01   0.2329331092E-05  -0.1398053214E-04
   0.2556859332E+01  -0.8632271392E+00   0.3997111730E+00   0.9094082139E-02  -0.7690292206E-03  -0.2888330495E-03   0.0000000000E+00   0.0000000000E+00   0.0000000000E+00   0.9547825480E-01  -0.2787037179E-02  -0.2270726967E-04   0.1764134705E-01  -0.3151132520E-06  -0.8949530447E-05
   0.2747051778E+01  -0.8681610400E+00   0.3997116491E+00   0.9275737588E-02  -0.7334519963E-03  -0.2883568670E-03   0.0000000000E+00   0.0000000000E+00   0.0000000000E+00   0.9528480710E-01  -0.1615615487E-02   0.7860782895E-05   0.1370492802E-01   0.4908634331E-06  -0.7958644540E-05
   0.2937421582E+01  -0.8727816824E+00   0.3997120155E+00   0.9456891783E-02  -0.7050513966E-03  -0.2879904565E-03   0.0000000000E+00   0.0000000000E+00   0.0000000000E+00   0.9516416096E-01  -0.7776288847E-03  -0.1427400698E-04   0.1001598077E-01   0.1189558899E-06  -0.5625249328E-05
   0.3128017371E+01  -0.8767260183E+00   0.3997122761E+00   0.9637780724E-02  -0.6840692515E-03  -0.2877298868E-03   0.0000000000E+00   0.0000000000E+00   0.0000000000E+00   0.9510660662E-01  -0.1775213970E-03   0.8470526414E-05   0.6589248784E-02   0.1054489914E-05  -0.4741242571E-05
   0.3318883186E+01  -0.8795394317E+00   0.3997124317E+00   0.9818795869E-02  -0.6713286548E-03  -0.2875743263E-03   0.0000000000E+00   0.0000000000E+00   0.0000000000E+00   0.9507850786E-01   0.1511969047E-03  -0.1097786000E-04   0.3130284902E-02  -0.8667051887E-06  -0.3273819146E-05
   0.3510000000E+01  -0.8813328145E+00   0.3997124845E+00   0.1000000000E-01  -0.6665585147E-03  -0.2875215406E-03   0.0000000000E+00   0.0000000000E+00   0.0000000000E+00   0.9508029704E-01   0.2652125561E-03   0.1250644319E-04   0.4121010088E-03   0.4874965608E-05  -0.3350152744E-05
   0.9516499387E+00  -0.1032645227E+01   0.3997412130E+00   0.7055912712E-02  -0.7370770858E-03  -0.2587930382E-03   0.0000000000E+00   0.0000000000E+00   0.0000000000E+00   0.1511979776E+00   0.1473825356E-02  -0.1356886694E-02   0.3255213743E-01  -0.1175828864E-02  -0.1507177464E-03
   0.1159344601E+01  -0.1040559102E+01   0.3997284134E+00   0.7346680770E-02  -0.8100718434E-03  -0.2715926424E-03   0.0000000000E+00   0.0000000000E+00   0.0000000000E+00   0.1362595111E+00  -0.1022622648E-01  -0.3175051223E-03   0.3485029308E-01  -0.4601911939E-03  -0.1632336441E-03
   0.1356960598E+01  -0.1046413439E+01   0.3997208019E+00   0.7615038018E-02  -0.8381788211E-03  -0.2792040817E-03   0.0000000000E+00   0.0000000000E+00   0.0000000000E+00   0.1286222333E+00  -0.1578694244E-01   0.4409462637E-04   0.3465316512E-01  -0.8905601979E-04  -0.1732658920E-03
   0.1552171764E+01  -0.1052150601E+01   0.3997170234E+00   0.7868583846E-02  -0.8362505005E-03  -0.2829826413E-03   0.0000000000E+00   0.0000000000E+00   0.0000000000E+00   0.1215472471E+00  -0.1653708188E-01   0.1899510297E-03   0.3373018464E-01   0.2162838501E-04  -0.8913661349E-04
   0.1747319718E+01  -0.1058038668E+01   0.3997148352E+00   0.8110428347E-02  -0.8118884686E-03  -0.2851707962E-03   0.0000000000E+00   0.0000000000E+00   0.0000000000E+00   0.1161104731E+00  -0.1546152689E-01   0.1396028153E-03   0.3147650758E-01   0.1625565456E-04  -0.5070217178E-04
   0.1942786121E+01  -0.1063949188E+01   0.3997137829E+00   0.8342410948E-02  -0.7758984436E-03  -0.2862230760E-03   0.0000000000E+00   0.0000000000E+00   0.0000000000E+00   0.1117175371E+00  -0.1345935688E-01   0.9547317620E-04   0.2824948154E-01   0.1205131977E-04  -0.2406518670E-04
   0.2138447300E+01  -0.1069805541E+01   0.3997131970E+00   0.8565679792E-02  -0.7342507054E-03  -0.2868090028E-03   0.0000000000E+00   0.0000000000E+00   0.0000000000E+00   0.1083010426E+00  -0.1131323852E-01   0.4691646672E-04   0.2454721980E-01  -0.1701998048E-05  -0.1603519378E-04
   0.2334132178E+01  -0.1075601189E+01   0.3997129561E+00   0.8781898005E-02  -0.6926990329E-03  -0.2870498664E-03   0.0000000000E+00   0.0000000000E+00   0.0000000000E+00   0.1056544784E+00  -0.9261729199E-02   0.2080121722E-04   0.2064380080E-01  -0.1765436195E-05  -0.1045959621E-04
   0.2529845966E+01  -0.1081333305E+01   0.3997128575E+00   0.8992205848E-02  -0.6538853292E-03  -0.2871485013E-03   0.0000000000E+00   0.0000000000E+00   0.0000000000E+00   0.1036478962E+00  -0.7461391841E-02   0.2688993584E-04   0.1679949808E-01  -0.2929957148E-05  -0.8152550546E-05
   0.2725592644E+01  -0.1086932864E+01   0.3997128601E+00   0.9198224031E-02  -0.6203338245E-03  -0.2871459062E-03   0.0000000000E+00   0.0000000000E+00   0.0000000000E+00   0.1021237029E+00  -0.5982576816E-02  -0.4365475233E-05   0.1309946593E-01  -0.1461991559E-05  -0.5889384110E-05
   0.2921406779E+01  -0.1092227635E+01   0.3997128890E+00   0.9400878917E-02  -0.5928847800E-03  -0.2871170116E-03   0.0000000000E+00   0.0000000000E+00   0.0000000000E+00   0.1010386591E+00  -0.4813280287E-02   0.2077994492E-04   0.9590572386E-02  -0.1269919263E-05  -0.4863095596E-05
   0.3117350930E+01  -0.1096894749E+01   0.3997129322E+00   0.9601470121E-02  -0.5726885432E-03  -0.2870737897E-03   0.0000000000E+00   0.0000000000E+00   0.0000000000E+00   0.1002866267E+00  -0.4005653334E-02  -0.8129707026E-05   0.6302379852E-02  -0.4064423623E-06  -0.3680547530E-05
   0.3313512982E+01  -0.1100467719E+01   0.3997129610E+00   0.9800851589E-02  -0.5599592468E-03  -0.2870450457E-03   0.0000000000E+00   0.0000000000E+00   0.0000000000E+00   0.9987346595E-01  -0.3509313574E-02   0.1220767372E-04   0.3013713638E-02  -0.5221395971E-06  -0.3340654237E-05
   0.3510000000E+01  -0.1102436290E+01   0.3997129751E+00   0.1000000000E-01  -0.5553795118E-03  -0.2870308921E-03   0.0000000000E+00   0.0000000000E+00   0.0000000000E+00   0.9972961802E-01  -0.3366103670E-02  -0.6957788681E-05   0.3327245179E-03   0.1308951396E-05  -0.2867265136E-05
   0.3309296468E+01  -0.1323136090E+01   0.3997135170E+00   0.9784557677E-02  -0.4348700874E-03  -0.2864889902E-03   0.0000000000E+00   0.0000000000E+00   0.0000000000E+00   0.1042984577E+00  -0.6793174687E-02  -0.1344242739E-04   0.2563303507E-02   0.3844126902E-06  -0.2264752051E-05
   0.3510000000E+01  -0.1324966560E+01   0.3997134872E+00   0.1000000000E-01  -0.4307095681E-03  -0.2865187574E-03   0.0000000000E+00   0.0000000000E+00   0.0000000000E+00   0.1040426822E+00  -0.6575705086E-02   0.1767410395E-04   0.3076659802E-03  -0.3457922468E-05  -0.2133075927E-05
   0.3306329213E+01  -0.1547645123E+01   0.3997139944E+00   0.9771552749E-02  -0.2974630610E-03  -0.2860116433E-03   0.0000000000E+00   0.0000000000E+00   0.0000000000E+00   0.1078917588E+00  -0.9354902980E-02   0.1820555334E-04   0.1890656200E-02   0.7283561974E-06  -0.2484074345E-05
   0.3510000000E+01  -0.1548982999E+01   0.3997139322E+00   0.1000000000E-01  -0.2944693710E-03  -0.2860737968E-03   0.0000000000E+00   0.0000000000E+00   0.0000000000E+00   0.1075046438E+00  -0.9127276518E-02  -0.1171809409E-04   0.1964130093E-03  -0.5683365625E-05  -0.2374741432E-05
   0.3304544631E+01  -0.1773480633E+01   0.3997143186E+00   0.9763180806E-02  -0.1511328813E-03  -0.2856874461E-03   0.0000000000E+00   0.0000000000E+00   0.0000000000E+00   0.1102033541E+00  -0.1101815809E-01  -0.1307375331E-04   0.9314417699E-03   0.1284501197E-05   0.1581182846E-05
   0.3510000000E+01  -0.1774159821E+01   0.3997142297E+00   0.1000000000E-01  -0.1495210181E-03  -0.2857762554E-03   0.0000000000E+00   0.0000000000E+00   0.0000000000E+00   0.1097684862E+00  -0.1073156528E-01   0.2092994006E-04   0.1133848775E-03  -0.8499694889E-05   0.1679794418E-05
   0.3303421959E+01  -0.2000000000E+01   0.3997144311E+00   0.9759648645E-02   0.0000000000E+00  -0.2855749297E-03   0.0000000000E+00   0.0000000000E+00   0.0000000000E+00   0.1110209289E+00  -0.1156654896E-01   0.2145902034E-04   0.1962212692E-03   0.1139818790E-05  -0.9490253894E-05
   0.3510000000E+01  -0.2000000000E+01   0.3997143365E+00   0.1000000000E-01   0.0000000000E+00  -0.2856694792E-03   0.0000000000E+00   0.0000000000E+00   0.0000000000E+00   0.1105341150E+00  -0.1130492421E-01  -0.1274266609E-04  -0.3383546531E-07  -0.8305420483E-05  -0.9611085573E-05
   0.3108943425E+01  -0.1319920459E+01   0.3997136107E+00   0.9568175201E-02  -0.4457593059E-03  -0.2863952555E-03   0.0000000000E+00   0.0000000000E+00   0.0000000000E+00   0.1051215200E+00  -0.7397598402E-02   0.1705081438E-04   0.5378017562E-02  -0.1535497544E-05  -0.2553029036E-05
   0.3102996200E+01  -0.1545302733E+01   0.3997141980E+00   0.9541600196E-02  -0.3055134714E-03  -0.2858079795E-03   0.0000000000E+00   0.0000000000E+00   0.0000000000E+00   0.1090153491E+00  -0.1009665628E-01  -0.1464720710E-04   0.3944125185E-02  -0.2301560125E-05  -0.3030001252E-05
   0.3099416968E+01  -0.1772286638E+01   0.3997145906E+00   0.9524337969E-02  -0.1553179526E-03  -0.2854153779E-03   0.0000000000E+00   0.0000000000E+00   0.0000000000E+00   0.1115644378E+00  -0.1179349575E-01   0.2323092469E-04   0.1957510199E-02  -0.2946820149E-05   0.2138557013E-05
   0.3097153395E+01  -0.2000000000E+01   0.3997147334E+00   0.9517165498E-02   0.0000000000E+00  -0.2852726289E-03   0.0000000000E+00   0.0000000000E+00   0.0000000000E+00   0.1124325897E+00  -0.1239876161E-01  -0.1586126703E-04   0.3810374225E-03  -0.3078395846E-05  -0.1232644110E-04
   0.2908804911E+01  -0.1315773218E+01   0.3997137943E+00   0.9349360614E-02  -0.4632176234E-03  -0.2862116603E-03   0.0000000000E+00   0.0000000000E+00   0.0000000000E+00   0.1065044950E+00  -0.8436168869E-02  -0.1541472826E-04   0.8169993196E-02  -0.2292975308E-05  -0.3388651764E-05
   0.2899871620E+01  -0.1542280055E+01   0.3997145672E+00   0.9307889666E-02  -0.3181452239E-03  -0.2854388329E-03   0.0000000000E+00   0.0000000000E+00   0.0000000000E+00   0.1109525002E+00  -0.1125208370E-01   0.2012420781E-04   0.5992819956E-02  -0.3291854709E-05  -0.3818368099E-05
   0.2894496866E+01  -0.1770738224E+01   0.3997150887E+00   0.9281106158E-02  -0.1619843785E-03  -0.2849172654E-03   0.0000000000E+00   0.0000000000E+00   0.0000000000E+00   0.1138148042E+00  -0.1307104306E-01  -0.1247486067E-04   0.2954240614E-02  -0.4028512007E-05   0.2440095777E-05
   0.2891078317E+01  -0.2000000000E+01   0.3997152758E+00   0.9269796825E-02   0.0000000000E+00  -0.2847302086E-03   0.0000000000E+00   0.0000000000E+00   0.0000000000E+00   0.1148348745E+00  -0.1366785166E-01   0.2035952578E-04   0.6239698484E-03  -0.4417672291E-05  -0.1497370250E-04
   0.2708789237E+01  -0.1311070036E+01   0.3997140983E+00   0.9126317290E-02  -0.4864463584E-03  -0.2859076674E-03   0.0000000000E+00   0.0000000000E+00   0.0000000000E+00   0.1085324839E+00  -0.9815072762E-02   0.1750977412E-04   0.1113483347E-01  -0.3571009088E-05  -0.4193766821E-05
   0.2696866288E+01  -0.1538840509E+01   0.3997151605E+00   0.9068508373E-02  -0.3350794337E-03  -0.2848454799E-03   0.0000000000E+00   0.0000000000E+00   0.0000000000E+00   0.1136792934E+00  -0.1281420687E-01  -0.1870415042E-04   0.8136361234E-02  -0.5476652243E-05  -0.5536221926E-05
   0.2689698268E+01  -0.1768967223E+01   0.3997158687E+00   0.9030868482E-02  -0.1707827628E-03  -0.2841372612E-03   0.0000000000E+00   0.0000000000E+00   0.0000000000E+00   0.1170303673E+00  -0.1467497039E-01   0.3204205218E-04   0.4009592889E-02  -0.7051807088E-05   0.3396993503E-05
   0.2685115256E+01  -0.2000000000E+01   0.3997161321E+00   0.9015236166E-02   0.0000000000E+00  -0.2838739471E-03   0.0000000000E+00   0.0000000000E+00   0.0000000000E+00   0.1181845334E+00  -0.1533314873E-01  -0.2530615709E-04   0.8253281544E-03  -0.7467857076E-05  -0.2103455112E-04
   0.2508836594E+01  -0.1306071438E+01   0.3997145866E+00   0.8897634190E-02  -0.5148979614E-03  -0.2854193971E-03   0.0000000000E+00   0.0000000000E+00   0.0000000000E+00   0.1112112797E+00  -0.1153063659E-01  -0.1729705203E-04   0.1419544225E-01  -0.5396218794E-05  -0.6685167207E-05
   0.2493922578E+01  -0.1535167726E+01   0.3997160509E+00   0.8821117547E-02  -0.3553963078E-03  -0.2839551118E-03   0.0000000000E+00   0.0000000000E+00   0.0000000000E+00   0.1172904789E+00  -0.1459208947E-01   0.2341436639E-04   0.1033014084E-01  -0.8288594913E-05  -0.7671102886E-05
   0.2484964611E+01  -0.1767067395E+01   0.3997170298E+00   0.8771661003E-02  -0.1813951314E-03  -0.2829762421E-03   0.0000000000E+00   0.0000000000E+00   0.0000000000E+00   0.1211583415E+00  -0.1651289715E-01  -0.1130541057E-04   0.5036233781E-02  -0.1053710370E-04   0.3656295456E-05
   0.2479210045E+01  -0.2000000000E+01   0.3997173916E+00   0.8750824951E-02   0.0000000000E+00  -0.2826144143E-03   0.0000000000E+00   0.0000000000E+00   0.0000000000E+00   0.1225428797E+00  -0.1712328404E-01   0.2048081502E-04   0.1139581851E-02  -0.1194540217E-04  -0.2701871483E-04
   0.2308913498E+01  -0.1300928183E+01   0.3997153407E+00   0.8661297562E-02  -0.5468830658E-03  -0.2846652879E-03   0.0000000000E+00   0.0000000000E+00   0.0000000000E+00   0.1146705486E+00  -0.1342263250E-01   0.1955461245E-04   0.1730412636E-01  -0.6884802767E-05  -0.8270346651E-05
   0.2291007205E+01  -0.1531374246E+01   0.3997173555E+00   0.8564154777E-02  -0.3781656167E-03  -0.2826504916E-03   0.0000000000E+00   0.0000000000E+00   0.0000000000E+00   0.1217475520E+00  -0.1646471250E-01  -0.2378955303E-04   0.1246599111E-01  -0.1130524103E-04  -0.1213115047E-04
   0.2280260570E+01  -0.1765097519E+01   0.3997186865E+00   0.8501060436E-02  -0.1930191958E-03  -0.2813194860E-03   0.0000000000E+00   0.0000000000E+00   0.0000000000E+00   0.1262476084E+00  -0.1823271677E-01   0.5143204274E-04   0.6043606346E-02  -0.1633102690E-04   0.4315312345E-05
   0.2273330105E+01  -0.2000000000E+01   0.3997191909E+00   0.8474955180E-02   0.0000000000E+00  -0.2808151127E-03   0.0000000000E+00   0.0000000000E+00   0.0000000000E+00   0.1277954719E+00  -0.1884412502E-01  -0.4405375488E-04   0.1361791185E-02  -0.1725718499E-04  -0.3709689569E-04
   0.2109008174E+01  -0.1295714596E+01   0.3997164921E+00   0.8416033796E-02  -0.5806458303E-03  -0.2835138865E-03   0.0000000000E+00   0.0000000000E+00   0.0000000000E+00   0.1189339581E+00  -0.1536291506E-01  -0.9471722133E-05   0.2026427606E-01  -0.6916640728E-05  -0.1536587657E-04
   0.2088102478E+01  -0.1527518859E+01   0.3997192169E+00   0.8295437677E-02  -0.4012487709E-03  -0.2807890987E-03   0.0000000000E+00   0.0000000000E+00   0.0000000000E+00   0.1271244444E+00  -0.1805100494E-01   0.3957148567E-04   0.1442593946E-01  -0.1580900026E-04  -0.1788310049E-04
   0.2075566995E+01  -0.1763091038E+01   0.3997210062E+00   0.8218034834E-02  -0.2047478908E-03  -0.2789998067E-03   0.0000000000E+00   0.0000000000E+00   0.0000000000E+00   0.1321335508E+00  -0.1955686182E-01  -0.1690511391E-04   0.6856556354E-02  -0.2234141352E-04   0.2687032316E-05
   0.2067455723E+01  -0.2000000000E+01   0.3997216765E+00   0.8185583175E-02   0.0000000000E+00  -0.2783294575E-03   0.0000000000E+00   0.0000000000E+00   0.0000000000E+00   0.1339154062E+00  -0.1996122348E-01   0.3047948255E-04   0.1745672916E-02  -0.2621868661E-04  -0.4565679354E-04
   0.1909119995E+01  -0.1290452676E+01   0.3997182221E+00   0.8159784571E-02  -0.6123362281E-03  -0.2817839170E-03   0.0000000000E+00   0.0000000000E+00   0.0000000000E+00   0.1241415499E+00  -0.1700041368E-01   0.4987026708E-04   0.2286953164E-01  -0.5370668474E-05  -0.2208337764E-04
   0.1885205372E+01  -0.1523626758E+01   0.3997218422E+00   0.8014301788E-02  -0.4223080746E-03  -0.2781637826E-03   0.0000000000E+00   0.0000000000E+00   0.0000000000E+00   0.1332787667E+00  -0.1901832550E-01  -0.3710107458E-04   0.1592590850E-01  -0.2009029986E-04  -0.2988679594E-04
   0.1870875320E+01  -0.1761062881E+01   0.3997241567E+00   0.7921060210E-02  -0.2148313376E-03  -0.2758493260E-03   0.0000000000E+00   0.0000000000E+00   0.0000000000E+00   0.1387537209E+00  -0.1981928589E-01   0.8731736401E-04   0.7452360021E-02  -0.3270632616E-04   0.7388323747E-06
   0.1861579035E+01  -0.2000000000E+01   0.3997250436E+00   0.7882804545E-02   0.0000000000E+00  -0.2749623653E-03   0.0000000000E+00   0.0000000000E+00   0.0000000000E+00   0.1405737422E+00  -0.2006813350E-01  -0.8355147867E-04   0.1938553203E-02  -0.3677764236E-04  -0.5947777854E-04
   0.1709326440E+01  -0.1285207610E+01   0.3997208243E+00   0.7891829748E-02  -0.6378704082E-03  -0.2791816741E-03   0.0000000000E+00   0.0000000000E+00   0.0000000000E+00   0.1302723950E+00  -0.1791473198E-01  -0.1348711595E-04   0.2470762796E-01  -0.7160343340E-05  -0.4712939153E-04
   0.1682354845E+01  -0.1519788685E+01   0.3997254738E+00   0.7719435046E-02  -0.4369653642E-03  -0.2745321960E-03   0.0000000000E+00   0.0000000000E+00   0.0000000000E+00   0.1402072957E+00  -0.1862145698E-01   0.7281905528E-04   0.1675304376E-01  -0.3127819920E-04  -0.4243414416E-04
   0.1666210557E+01  -0.1759099901E+01   0.3997283615E+00   0.7611297475E-02  -0.2214307321E-03  -0.2716445107E-03   0.0000000000E+00   0.0000000000E+00   0.0000000000E+00   0.1456806486E+00  -0.1853908113E-01  -0.6075387938E-04   0.7543995288E-02  -0.4568631562E-04  -0.7601963918E-05
   0.1655696337E+01  -0.2000000000E+01   0.3997294508E+00   0.7566277485E-02   0.0000000000E+00  -0.2705552032E-03   0.0000000000E+00   0.0000000000E+00   0.0000000000E+00   0.1475787658E+00  -0.1827236647E-01   0.5721663202E-04   0.2346037598E-02  -0.5397596729E-04  -0.6639921362E-04
   0.1509672941E+01  -0.1280276077E+01   0.3997247447E+00   0.7610500639E-02  -0.6497069081E-03  -0.2752613471E-03   0.0000000000E+00   0.0000000000E+00   0.0000000000E+00   0.1374687752E+00  -0.1722794546E-01   0.5985599006E-04   0.2549936951E-01  -0.3363293996E-04  -0.6194505605E-04
   0.1479590540E+01  -0.1516401776E+01   0.3997304531E+00   0.7412080028E-02  -0.4410856406E-03  -0.2695528776E-03   0.0000000000E+00   0.0000000000E+00   0.0000000000E+00   0.1475570801E+00  -0.1630488854E-01  -0.1566732689E-03   0.1654846599E-01  -0.5729618791E-04  -0.6512542219E-04
   0.1461632911E+01  -0.1757464618E+01   0.3997337800E+00   0.7289230685E-02  -0.2214582682E-03  -0.2662259543E-03   0.0000000000E+00   0.0000000000E+00   0.0000000000E+00   0.1527299781E+00  -0.1472793220E-01   0.1045400932E-03   0.7147413640E-02  -0.7108791695E-04  -0.9322216854E-05
   0.1449888901E+01  -0.2000000000E+01   0.3997350363E+00   0.7239650779E-02   0.0000000000E+00  -0.2649697013E-03   0.0000000000E+00   0.0000000000E+00   0.0000000000E+00   0.1542172988E+00  -0.1409876329E-01  -0.1410161979E-03   0.2351654209E-02  -0.6624791265E-04  -0.7131082202E-04
   0.1309685978E+01  -0.1276339340E+01   0.3997307131E+00   0.7315187546E-02  -0.6417496408E-03  -0.2692928641E-03   0.0000000000E+00   0.0000000000E+00   0.0000000000E+00   0.1456263990E+00  -0.1403342305E-01  -0.3640530885E-03   0.2495831039E-01  -0.1329780122E-03  -0.1054751465E-03
   0.1276647165E+01  -0.1514212079E+01   0.3997371459E+00   0.7091595426E-02  -0.4281486847E-03  -0.2628600832E-03   0.0000000000E+00   0.0000000000E+00   0.0000000000E+00   0.1554144053E+00  -0.1085447377E-01  -0.1401517800E-04   0.1517956979E-01  -0.1362487995E-03  -0.4850418914E-04
   0.1257056315E+01  -0.1756582416E+01   0.3997405302E+00   0.6959514838E-02  -0.2128257344E-03  -0.2594757911E-03   0.0000000000E+00   0.0000000000E+00   0.0000000000E+00   0.1591256157E+00  -0.7992257170E-02  -0.1596913705E-03   0.6022185679E-02  -0.8809149809E-04  -0.4827413866E-05
   0.1244233542E+01  -0.2000000000E+01   0.3997417671E+00   0.6905372426E-02   0.0000000000E+00  -0.2582389024E-03   0.0000000000E+00   0.0000000000E+00   0.0000000000E+00   0.1602182522E+00  -0.6716556343E-02   0.5550549286E-04   0.2666552362E-02  -0.8216980770E-04  -0.5625081043E-04
   0.1107432659E+01  -0.1274217156E+01   0.3997396800E+00   0.7001218500E-02  -0.6042957558E-03  -0.2603259953E-03   0.0000000000E+00   0.0000000000E+00   0.0000000000E+00   0.1554741165E+00  -0.6462189452E-02  -0.4302088429E-03   0.2303302022E-01  -0.3729660042E-03  -0.2862142625E-04
   0.1072497070E+01  -0.1514140738E+01   0.3997458868E+00   0.6760539928E-02  -0.3956684978E-03  -0.2541191798E-03   0.0000000000E+00   0.0000000000E+00   0.0000000000E+00   0.1631116909E+00  -0.1691491207E-02  -0.4116828681E-03   0.1292096107E-01  -0.2126195351E-03   0.8301176801E-05
   0.1051994811E+01  -0.1756949540E+01   0.3997484703E+00   0.6623871454E-02  -0.1934699673E-03  -0.2515356612E-03   0.0000000000E+00   0.0000000000E+00   0.0000000000E+00   0.1647578599E+00   0.2162180495E-02  -0.1052069768E-04   0.4548797445E-02  -0.1193655477E-03   0.4846665278E-04
   0.1038502189E+01  -0.2000000000E+01   0.3997494031E+00   0.6570669120E-02   0.0000000000E+00  -0.2506029409E-03   0.0000000000E+00   0.0000000000E+00   0.0000000000E+00   0.1646967028E+00   0.3610759819E-02  -0.2400747489E-03   0.2271903230E-02  -0.4479764353E-04  -0.2766321990E-04
   0.8987173264E+00  -0.1275080336E+01   0.3997528965E+00   0.6663007355E-02  -0.5370463106E-03  -0.2471094597E-03   0.0000000000E+00   0.0000000000E+00   0.0000000000E+00   0.1673254852E+00   0.7419992226E-02  -0.1056778691E-02   0.2235763361E-01  -0.7719023147E-03   0.2256118238E-03
   0.8653682934E+00  -0.1517407523E+01   0.3997563758E+00   0.6416605416E-02  -0.3423527036E-03  -0.2436302408E-03   0.0000000000E+00   0.0000000000E+00   0.0000000000E+00   0.1712685719E+00   0.1118643775E-01  -0.2713518646E-03   0.9791552144E-02  -0.2920728397E-03   0.2139997408E-03
   0.8457574519E+00  -0.1759143671E+01   0.3997572345E+00   0.6289329939E-02  -0.1653012804E-03  -0.2427714765E-03   0.0000000000E+00   0.0000000000E+00   0.0000000000E+00   0.1687533795E+00   0.1509504345E-01  -0.3044177403E-03   0.2936958321E-02  -0.8424241031E-04   0.9636895866E-04
   0.8320069245E+00  -0.2000000000E+01   0.3997574097E+00   0.6237202497E-02   0.0000000000E+00  -0.2425963342E-03   0.0000000000E+00   0.0000000000E+00   0.0000000000E+00   0.1679970499E+00   0.1625644411E-01  -0.2482140433E-03   0.2426009294E-02  -0.4867616040E-04   0.5906550073E-04
  -0.6209030064E+00  -0.1083765701E+01   0.3997744584E+00   0.3544100640E-02  -0.5458109454E-03  -0.2255476018E-03   0.0000000000E+00   0.0000000000E+00   0.0000000000E+00   0.1893640564E+00   0.3519279260E-01   0.5651556314E-02  -0.4532958566E-01   0.1799586883E-02   0.1028201065E-04
  -0.4849064072E+00  -0.8733863845E+00   0.3997867676E+00   0.3269372847E-02  -0.6410495372E-03  -0.2132383764E-03   0.0000000000E+00   0.0000000000E+00   0.0000000000E+00   0.2168441695E+00   0.5573364231E-01   0.2055494584E-02  -0.1016163214E+00   0.3919474677E-02  -0.2942352569E-02
  -0.6118100559E+00  -0.1336695070E+01   0.3997744656E+00   0.3867539072E-02  -0.3827801417E-03  -0.2255404433E-03   0.0000000000E+00   0.0000000000E+00   0.0000000000E+00   0.1858211927E+00   0.2763700743E-01  -0.3965744320E-02  -0.1447336323E-01   0.9051766023E-03   0.1012566504E-02
  -0.6097868616E+00  -0.1562923039E+01   0.3997693676E+00   0.4008657355E-02  -0.2432694001E-03  -0.2306384418E-03   0.0000000000E+00   0.0000000000E+00   0.0000000000E+00   0.1772551176E+00   0.2925687618E-01  -0.5287068483E-03  -0.5813903896E-02   0.3362229580E-03   0.6115163984E-03
  -0.6173624015E+00  -0.1782173610E+01   0.3997659596E+00   0.4063703486E-02  -0.1196601938E-03  -0.2340464003E-03   0.0000000000E+00   0.0000000000E+00   0.0000000000E+00   0.1713851402E+00   0.2964985622E-01  -0.8083499447E-03  -0.1338155520E-02   0.3425998615E-04   0.1375207710E-03
  -0.6248898408E+00  -0.2000000000E+01   0.3997650129E+00   0.4071603203E-02   0.0000000000E+00  -0.2349930537E-03   0.0000000000E+00   0.0000000000E+00   0.0000000000E+00   0.1695581161E+00   0.2993585306E-01  -0.1906389487E-03  -0.1549621552E-02   0.7526250555E-04   0.3308277847E-04
  -0.8243319624E+00  -0.1781435375E+01   0.3997576703E+00   0.3734684573E-02  -0.1479452458E-03  -0.2423357244E-03   0.0000000000E+00   0.0000000000E+00   0.0000000000E+00   0.1687140675E+00   0.1602419143E-01  -0.3016663190E-03  -0.2531876272E-02   0.6285936301E-04   0.9531668966E-04
  -0.8280635563E+00  -0.2000000000E+01   0.3997571489E+00   0.3753116732E-02   0.0000000000E+00  -0.2428570736E-03   0.0000000000E+00   0.0000000000E+00   0.0000000000E+00   0.1677995289E+00   0.1642487801E-01  -0.2038736305E-03  -0.2135892936E-02   0.5883699616E-04   0.5681019258E-04
  -0.1030753742E+01  -0.1781971602E+01   0.3997490074E+00   0.3400907565E-02  -0.1720521527E-03  -0.2509986028E-03   0.0000000000E+00   0.0000000000E+00   0.0000000000E+00   0.1649441832E+00   0.3024193974E-02  -0.3170953072E-04  -0.3891804213E-02   0.1135634832E-03   0.4783967342E-04
  -0.1031895580E+01  -0.2000000000E+01   0.3997492463E+00   0.3424339920E-02   0.0000000000E+00  -0.2507596512E-03   0.0000000000E+00   0.0000000000E+00   0.0000000000E+00   0.1646197764E+00   0.3817502232E-02  -0.1492644206E-03  -0.2102239177E-02   0.4003761915E-04  -0.2156407227E-04
  -0.1236622747E+01  -0.1783159266E+01   0.3997410746E+00   0.3064693489E-02  -0.1887162752E-03  -0.2589313688E-03   0.0000000000E+00   0.0000000000E+00   0.0000000000E+00   0.1595575277E+00  -0.7383285718E-02  -0.1193443847E-03  -0.5245907331E-02   0.8066667734E-04  -0.4125779587E-05
  -0.1236412811E+01  -0.2000000000E+01   0.3997416814E+00   0.3091408874E-02   0.0000000000E+00  -0.2583245510E-03   0.0000000000E+00   0.0000000000E+00   0.0000000000E+00   0.1601499630E+00  -0.6588097072E-02   0.5208864661E-04  -0.2376459408E-02   0.8167108481E-04  -0.4801722966E-04
  -0.1442250204E+01  -0.1784587610E+01   0.3997342793E+00   0.2732685566E-02  -0.1964497631E-03  -0.2657266591E-03   0.0000000000E+00   0.0000000000E+00   0.0000000000E+00   0.1532717668E+00  -0.1440835804E-01   0.5126057280E-04  -0.6274202160E-02   0.7019357575E-04  -0.7993638313E-05
  -0.1441458658E+01  -0.2000000000E+01   0.3997349935E+00   0.2758432141E-02   0.0000000000E+00  -0.2650124613E-03   0.0000000000E+00   0.0000000000E+00   0.0000000000E+00   0.1542009765E+00  -0.1399416941E-01  -0.6777805631E-04  -0.2137617817E-02   0.6229452800E-04  -0.5882572706E-04
  -0.1647853228E+01  -0.1786100046E+01   0.3997287781E+00   0.2408171516E-02  -0.1967159782E-03  -0.2712279023E-03   0.0000000000E+00   0.0000000000E+00   0.0000000000E+00   0.1462815206E+00  -0.1839123792E-01  -0.5577263610E-04  -0.6683052757E-02   0.4401770479E-04  -0.7498541949E-05
  -0.1646863277E+01  -0.2000000000E+01   0.3997294511E+00   0.2432413043E-02   0.0000000000E+00  -0.2705548619E-03   0.0000000000E+00   0.0000000000E+00   0.0000000000E+00   0.1475712448E+00  -0.1823660412E-01   0.5718527431E-04  -0.2091968531E-02   0.5153067730E-04  -0.5575273064E-04
  -0.1853507061E+01  -0.1787648278E+01   0.3997244897E+00   0.2095559070E-02  -0.1912878258E-03  -0.2755163393E-03   0.0000000000E+00   0.0000000000E+00   0.0000000000E+00   0.1393332871E+00  -0.1983628418E-01   0.4307485841E-04  -0.6621437684E-02   0.3462293563E-04   0.5491688313E-06
  -0.1852490495E+01  -0.2000000000E+01   0.3997250710E+00   0.2116494952E-02   0.0000000000E+00  -0.2749350346E-03   0.0000000000E+00   0.0000000000E+00   0.0000000000E+00   0.1406045854E+00  -0.2002918838E-01  -0.3163982603E-04  -0.1750256048E-02   0.3393577174E-04  -0.5108684826E-04
  -0.2059214736E+01  -0.1789214603E+01   0.3997212571E+00   0.1795863582E-02  -0.1826234245E-03  -0.2787489402E-03   0.0000000000E+00   0.0000000000E+00   0.0000000000E+00   0.1326790870E+00  -0.1965039951E-01  -0.1671722238E-04  -0.6121493647E-02   0.2340597750E-04   0.6045969461E-06
  -0.2058242555E+01  -0.2000000000E+01   0.3997217171E+00   0.1813895130E-02   0.0000000000E+00  -0.2782888647E-03   0.0000000000E+00   0.0000000000E+00   0.0000000000E+00   0.1339529924E+00  -0.1996408118E-01   0.3684520555E-04  -0.1565477278E-02   0.2709829457E-04  -0.4020112879E-04
  -0.2264957234E+01  -0.1790789868E+01   0.3997188722E+00   0.1510096029E-02  -0.1723978208E-03  -0.2811337521E-03   0.0000000000E+00   0.0000000000E+00   0.0000000000E+00   0.1267184150E+00  -0.1838997049E-01   0.3103025978E-04  -0.5413503291E-02   0.1809926133E-04   0.2887807093E-05
  -0.2264058608E+01  -0.2000000000E+01   0.3997192309E+00   0.1524671690E-02   0.0000000000E+00  -0.2807751489E-03   0.0000000000E+00   0.0000000000E+00   0.0000000000E+00   0.1278474590E+00  -0.1885062468E-01  -0.1714659150E-04  -0.1227013234E-02   0.1801027663E-04  -0.3305287378E-04
  -0.2470720187E+01  -0.1792364853E+01   0.3997171647E+00   0.1237022962E-02  -0.1621429040E-03  -0.2828412683E-03   0.0000000000E+00   0.0000000000E+00   0.0000000000E+00   0.1215511114E+00  -0.1667736482E-01  -0.1763600281E-04  -0.4525755927E-02   0.1140029787E-04   0.1971171984E-05
  -0.2469905426E+01  -0.2000000000E+01   0.3997174276E+00   0.1248783603E-02   0.0000000000E+00  -0.2825784129E-03   0.0000000000E+00   0.0000000000E+00   0.0000000000E+00   0.1225963465E+00  -0.1715010274E-01   0.2694007746E-04  -0.1023018446E-02   0.1324619356E-04  -0.2346582749E-04
  -0.2676506135E+01  -0.1793905768E+01   0.3997159650E+00   0.9755149838E-03  -0.1527382414E-03  -0.2840409643E-03   0.0000000000E+00   0.0000000000E+00   0.0000000000E+00   0.1173552087E+00  -0.1484270238E-01   0.2197745442E-04  -0.3605626161E-02   0.8146840059E-05   0.2640608601E-05
  -0.2675779387E+01  -0.2000000000E+01   0.3997161647E+00   0.9843831712E-03   0.0000000000E+00  -0.2838413067E-03   0.0000000000E+00   0.0000000000E+00   0.0000000000E+00   0.1182361387E+00  -0.1535665822E-01  -0.1480130353E-04  -0.7438230724E-03   0.7937158047E-05  -0.1912145375E-04
  -0.2882341031E+01  -0.1795326931E+01   0.3997151600E+00   0.7232394546E-03  -0.1449410589E-03  -0.2848460202E-03   0.0000000000E+00   0.0000000000E+00   0.0000000000E+00   0.1140851840E+00  -0.1322452145E-01  -0.1243983379E-04  -0.2660983803E-02   0.4392118002E-05   0.1572032135E-05
  -0.2881711756E+01  -0.2000000000E+01   0.3997153035E+00   0.7297642402E-03   0.0000000000E+00  -0.2847025242E-03   0.0000000000E+00   0.0000000000E+00   0.0000000000E+00   0.1148849342E+00  -0.1369693451E-01   0.1999614240E-04  -0.5586477380E-03   0.5163013487E-05  -0.1301633307E-04
  -0.3088246460E+01  -0.1796498990E+01   0.3997146441E+00   0.4781496633E-03  -0.1390898822E-03  -0.2853618830E-03   0.0000000000E+00   0.0000000000E+00   0.0000000000E+00   0.1117942960E+00  -0.1194108162E-01   0.1740654938E-04  -0.1763551030E-02   0.3499887922E-05   0.1735477263E-05
  -0.3087746572E+01  -0.2000000000E+01   0.3997147591E+00   0.4823684928E-03   0.0000000000E+00  -0.2852469374E-03   0.0000000000E+00   0.0000000000E+00   0.0000000000E+00   0.1124835682E+00  -0.1242318382E-01  -0.1066126050E-04  -0.3432745659E-03   0.3271209017E-05  -0.1144889475E-04
  -0.3294182455E+01  -0.1797307085E+01   0.3997143637E+00   0.2377851695E-03  -0.1354946775E-03  -0.2856422683E-03   0.0000000000E+00   0.0000000000E+00   0.0000000000E+00   0.1104124712E+00  -0.1115370783E-01  -0.9521524439E-05  -0.8404470027E-03  -0.1266741088E-05   0.1026742915E-05
  -0.3293878237E+01  -0.2000000000E+01   0.3997144542E+00   0.2399330582E-03   0.0000000000E+00  -0.2855517502E-03   0.0000000000E+00   0.0000000000E+00   0.0000000000E+00   0.1110720113E+00  -0.1159682032E-01   0.1728265124E-04  -0.1754646927E-03  -0.8311171543E-06  -0.8315072847E-05
  -0.3500000000E+01  -0.1797702509E+01   0.3997142713E+00   0.0000000000E+00  -0.1341892003E-03  -0.2857346736E-03   0.0000000000E+00   0.0000000000E+00   0.0000000000E+00   0.1099689514E+00  -0.1086984676E-01   0.1630958808E-04  -0.1008968106E-03   0.8939321071E-05   0.1370904804E-05
  -0.3500000000E+01  -0.2000000000E+01   0.3997143602E+00   0.0000000000E+00   0.0000000000E+00  -0.2856458092E-03   0.0000000000E+00   0.0000000000E+00   0.0000000000E+00   0.1105879981E+00  -0.1133124104E-01  -0.8909721960E-05   0.9201431938E-08   0.8116614734E-05  -0.9069253887E-05
  -0.8246645313E+00  -0.1563486104E+01   0.3997580374E+00   0.3658236652E-02  -0.2999335002E-03  -0.2419685921E-03   0.0000000000E+00   0.0000000000E+00   0.0000000000E+00   0.1715184343E+00   0.1398291081E-01  -0.4199491821E-03  -0.7785089386E-02   0.2572738806E-03   0.2335887632E-03
  -0.1035773273E+01  -0.1566581193E+01   0.3997476524E+00   0.3312237091E-02  -0.3466027127E-03  -0.2523535625E-03   0.0000000000E+00   0.0000000000E+00   0.0000000000E+00   0.1644670700E+00   0.5076731350E-03  -0.3109824633E-03  -0.1065952001E-01   0.1938908902E-03   0.2637496633E-04
  -0.1243182507E+01  -0.1569878928E+01   0.3997388394E+00   0.2975852799E-02  -0.3762178009E-03  -0.2611665869E-03   0.0000000000E+00   0.0000000000E+00   0.0000000000E+00   0.1572399476E+00  -0.9450381613E-02  -0.7798113553E-04  -0.1289576522E-01   0.1301784083E-03  -0.3762207860E-04
  -0.1449329408E+01  -0.1573018214E+01   0.3997319066E+00   0.2647842077E-02  -0.3891241972E-03  -0.2680994400E-03   0.0000000000E+00   0.0000000000E+00   0.0000000000E+00   0.1496564340E+00  -0.1558371248E-01  -0.1350109424E-03  -0.1432675119E-01   0.5717777999E-04  -0.5917135950E-04
  -0.1654269192E+01  -0.1575722325E+01   0.3997266461E+00   0.2332718300E-02  -0.3875352271E-03  -0.2733598697E-03   0.0000000000E+00   0.0000000000E+00   0.0000000000E+00   0.1423421380E+00  -0.1851223679E-01   0.4835306411E-04  -0.1470662342E-01   0.3616727959E-04  -0.3679630400E-04
  -0.1859720935E+01  -0.1578624874E+01   0.3997227278E+00   0.2029315445E-02  -0.3758936221E-03  -0.2772781962E-03   0.0000000000E+00   0.0000000000E+00   0.0000000000E+00   0.1353074089E+00  -0.1928843838E-01   0.3749571323E-05  -0.1415348748E-01   0.2399684513E-04  -0.3105826719E-04
  -0.2064930240E+01  -0.1581426339E+01   0.3997198667E+00   0.1740179809E-02  -0.3581788645E-03  -0.2801392959E-03   0.0000000000E+00   0.0000000000E+00   0.0000000000E+00   0.1288977900E+00  -0.1856062847E-01   0.3803741482E-04  -0.1293427554E-01   0.1895654881E-04  -0.1848496530E-04
  -0.2269992380E+01  -0.1584165564E+01   0.3997178242E+00   0.1464340179E-02  -0.3381844547E-03  -0.2821818313E-03   0.0000000000E+00   0.0000000000E+00   0.0000000000E+00   0.1232461064E+00  -0.1705240680E-01  -0.1837319434E-04  -0.1124606776E-01   0.1283760900E-04  -0.1377068347E-04
  -0.2475001752E+01  -0.1586862967E+01   0.3997163815E+00   0.1200978118E-02  -0.3182174913E-03  -0.2836245408E-03   0.0000000000E+00   0.0000000000E+00   0.0000000000E+00   0.1185400870E+00  -0.1519516723E-01   0.2627558955E-04  -0.9348897868E-02   0.9744753933E-05  -0.8006778058E-05
  -0.2680009132E+01  -0.1589468363E+01   0.3997153958E+00   0.9479480347E-03  -0.3002930852E-03  -0.2846102076E-03   0.0000000000E+00   0.0000000000E+00   0.0000000000E+00   0.1147103920E+00  -0.1338581922E-01  -0.1204468103E-04  -0.7387186111E-02   0.6010709456E-05  -0.6241169020E-05
  -0.2885047268E+01  -0.1591845731E+01   0.3997147344E+00   0.7035022239E-03  -0.2853705670E-03  -0.2852715642E-03   0.0000000000E+00   0.0000000000E+00   0.0000000000E+00   0.1118055619E+00  -0.1178257770E-01   0.1822698452E-04  -0.5450707896E-02   0.4042218320E-05  -0.4060620496E-05
  -0.3090123241E+01  -0.1593803453E+01   0.3997143234E+00   0.4653293668E-03  -0.2743428535E-03  -0.2856826170E-03   0.0000000000E+00   0.0000000000E+00   0.0000000000E+00   0.1097426634E+00  -0.1057925693E-01  -0.9202226372E-05  -0.3592586892E-02   0.2524383681E-05  -0.3406313216E-05
  -0.3295170793E+01  -0.1595169999E+01   0.3997140950E+00   0.2314968016E-03  -0.2674788826E-03  -0.2859109518E-03   0.0000000000E+00   0.0000000000E+00   0.0000000000E+00   0.1085394911E+00  -0.9811984950E-02   0.1493327908E-04  -0.1722735153E-02  -0.5332457994E-06  -0.2635440376E-05
  -0.3500000000E+01  -0.1595817660E+01   0.3997140257E+00   0.0000000000E+00  -0.2651001116E-03  -0.2859802825E-03   0.0000000000E+00   0.0000000000E+00   0.0000000000E+00   0.1081283551E+00  -0.9566728585E-02  -0.7203035559E-05  -0.1796950745E-03   0.6031986050E-05  -0.2719654216E-05
  -0.8379965447E+00  -0.1345102580E+01   0.3997572596E+00   0.3487823348E-02  -0.4637599611E-03  -0.2427464485E-03   0.0000000000E+00   0.0000000000E+00   0.0000000000E+00   0.1716741521E+00   0.1183874263E-01  -0.8588342719E-03  -0.1808160252E-01   0.7352598663E-03   0.3906716301E-03
  -0.1052824970E+01  -0.1354467727E+01   0.3997439143E+00   0.3142360415E-02  -0.5255668155E-03  -0.2560916874E-03   0.0000000000E+00   0.0000000000E+00   0.0000000000E+00   0.1604396733E+00  -0.3348965300E-02  -0.5971622617E-03  -0.1883950677E-01   0.3611766509E-03   0.2238987101E-04
  -0.1262497663E+01  -0.1361652888E+01   0.3997343392E+00   0.2812626575E-02  -0.5622277120E-03  -0.2656667559E-03   0.0000000000E+00   0.0000000000E+00   0.0000000000E+00   0.1509480224E+00  -0.1221786765E-01  -0.2904854164E-03  -0.2111385964E-01   0.1415893118E-03  -0.8993110929E-04
  -0.1465662560E+01  -0.1365976555E+01   0.3997277134E+00   0.2503079936E-02  -0.5745745449E-03  -0.2722925649E-03   0.0000000000E+00   0.0000000000E+00   0.0000000000E+00   0.1427469488E+00  -0.1675534609E-01   0.6934693760E-04  -0.2218527271E-01   0.4859251426E-04  -0.5965944007E-04
  -0.1668716960E+01  -0.1369532331E+01   0.3997230971E+00   0.2205679541E-02  -0.5686114120E-03  -0.2769089188E-03   0.0000000000E+00   0.0000000000E+00   0.0000000000E+00   0.1351137423E+00  -0.1831987849E-01   0.1200495900E-04  -0.2205234771E-01   0.1887240554E-04  -0.5911377793E-04
  -0.1873347528E+01  -0.1373494930E+01   0.3997198791E+00   0.1920092010E-02  -0.5485502706E-03  -0.2801269325E-03   0.0000000000E+00   0.0000000000E+00   0.0000000000E+00   0.1283502303E+00  -0.1799541928E-01   0.1867593139E-04  -0.2068285483E-01   0.1273187293E-04  -0.2800713068E-04
  -0.2078500682E+01  -0.1377599906E+01   0.3997176747E+00   0.1647057844E-02  -0.5211359177E-03  -0.2823313098E-03   0.0000000000E+00   0.0000000000E+00   0.0000000000E+00   0.1225020242E+00  -0.1659800775E-01  -0.1619736860E-04  -0.1849530525E-01   0.1052342972E-04  -0.2095501678E-04
  -0.2282013916E+01  -0.1381028262E+01   0.3997161753E+00   0.1388524059E-02  -0.4917016760E-03  -0.2838306707E-03   0.0000000000E+00   0.0000000000E+00   0.0000000000E+00   0.1176527063E+00  -0.1472729219E-01   0.3096332884E-04  -0.1589374010E-01   0.8513199919E-05  -0.1136459841E-04
  -0.2485096600E+01  -0.1384239452E+01   0.3997151782E+00   0.1140929962E-02  -0.4635016085E-03  -0.2848277873E-03   0.0000000000E+00   0.0000000000E+00   0.0000000000E+00   0.1136680764E+00  -0.1280067651E-01  -0.1381520059E-04  -0.1311861651E-01   0.6081845636E-05  -0.8943443175E-05
  -0.2688081984E+01  -0.1387281467E+01   0.3997145126E+00   0.9024056456E-03  -0.4382666010E-03  -0.2854933765E-03   0.0000000000E+00   0.0000000000E+00   0.0000000000E+00   0.1105466256E+00  -0.1099651177E-01   0.1411370111E-04  -0.1032703512E-01   0.4697345977E-05  -0.5438045254E-05
  -0.2891074316E+01  -0.1390039881E+01   0.3997140900E+00   0.6707741187E-03  -0.4176710242E-03  -0.2859159539E-03   0.0000000000E+00   0.0000000000E+00   0.0000000000E+00   0.1081776345E+00  -0.9507748113E-02  -0.1058893528E-04  -0.7598276417E-02   0.2423377208E-05  -0.4275649601E-05
  -0.3094102696E+01  -0.1392326844E+01   0.3997138292E+00   0.4443340399E-03  -0.4023441187E-03  -0.2861768083E-03   0.0000000000E+00   0.0000000000E+00   0.0000000000E+00   0.1065458986E+00  -0.8382332647E-02   0.1103139789E-04  -0.5008881245E-02   0.2035459903E-05  -0.2831576220E-05
  -0.3297131550E+01  -0.1393957427E+01   0.3997136932E+00   0.2212400412E-03  -0.3929674342E-03  -0.2863128464E-03   0.0000000000E+00   0.0000000000E+00   0.0000000000E+00   0.1055724334E+00  -0.7706892492E-02  -0.1003354757E-04  -0.2391098715E-02  -0.6011612394E-06  -0.2526843050E-05
  -0.3500000000E+01  -0.1394734918E+01   0.3997136484E+00   0.0000000000E+00  -0.3896380315E-03  -0.2863575517E-03   0.0000000000E+00   0.0000000000E+00   0.0000000000E+00   0.1052630867E+00  -0.7469954650E-02   0.9853164787E-05  -0.2801016523E-03   0.4649905374E-05  -0.2081566063E-05
  -0.8666940594E+00  -0.1126955140E+01   0.3997515778E+00   0.3196451609E-02  -0.6340603977E-03  -0.2484281991E-03   0.0000000000E+00   0.0000000000E+00   0.0000000000E+00   0.1636684052E+00   0.7076161476E-02  -0.2795293655E-02  -0.2638543348E-01   0.1258340570E-02   0.2146711030E-03
  -0.1082001903E+01  -0.1146927185E+01   0.3997367480E+00   0.2886077094E-02  -0.7056648284E-03  -0.2632579781E-03   0.0000000000E+00   0.0000000000E+00   0.0000000000E+00   0.1482188197E+00  -0.6786160607E-02  -0.6540627198E-03  -0.2934331588E-01   0.5699165542E-03   0.1231164712E-04
  -0.1292474950E+01  -0.1158108427E+01   0.3997270258E+00   0.2583300217E-02  -0.7409568832E-03  -0.2729802344E-03   0.0000000000E+00   0.0000000000E+00   0.0000000000E+00   0.1394387315E+00  -0.1450114591E-01  -0.1666641670E-03  -0.2959296885E-01   0.1439425902E-03  -0.1230315290E-03
  -0.1486799717E+01  -0.1161877427E+01   0.3997217933E+00   0.2308843381E-02  -0.7500973672E-03  -0.2782126853E-03   0.0000000000E+00   0.0000000000E+00   0.0000000000E+00   0.1311509586E+00  -0.1702574284E-01   0.1904440858E-04  -0.2994694080E-01   0.1832692750E-04  -0.6218046031E-04
  -0.1685189236E+01  -0.1164697706E+01   0.3997181999E+00   0.2040994418E-02  -0.7367764824E-03  -0.2818060896E-03   0.0000000000E+00   0.0000000000E+00   0.0000000000E+00   0.1243715111E+00  -0.1701299017E-01   0.7780556544E-04  -0.2871215594E-01   0.3184074713E-05  -0.4661349250E-04
  -0.1891024098E+01  -0.1170350154E+01   0.3997161660E+00   0.1778501978E-02  -0.7062736670E-03  -0.2838399930E-03   0.0000000000E+00   0.0000000000E+00   0.0000000000E+00   0.1185606378E+00  -0.1556002264E-01   0.4850496064E-04  -0.2624676199E-01  -0.6409857257E-05  -0.2039069561E-04
  -0.2098001536E+01  -0.1176422626E+01   0.3997148647E+00   0.1526773754E-02  -0.6676062757E-03  -0.2851413327E-03   0.0000000000E+00   0.0000000000E+00   0.0000000000E+00   0.1139243136E+00  -0.1355925508E-01   0.2866760673E-04  -0.2301466566E-01   0.5811148229E-05  -0.1663987536E-04
  -0.2298141133E+01  -0.1179768377E+01   0.3997141324E+00   0.1291857022E-02  -0.6306669183E-03  -0.2858736433E-03   0.0000000000E+00   0.0000000000E+00   0.0000000000E+00   0.1102400780E+00  -0.1146401538E-01   0.5892659302E-05  -0.1955806337E-01   0.2296426561E-05  -0.9055865260E-05
  -0.2498260997E+01  -0.1183060964E+01   0.3997136754E+00   0.1065232922E-02  -0.5954142856E-03  -0.2863306308E-03   0.0000000000E+00   0.0000000000E+00   0.0000000000E+00   0.1073762735E+00  -0.9518930090E-02   0.1067206171E-04  -0.1601375766E-01   0.4507683764E-05  -0.8624946826E-05
  -0.2698395136E+01  -0.1186241479E+01   0.3997134331E+00   0.8450740664E-03  -0.5646686530E-03  -0.2865729255E-03   0.0000000000E+00   0.0000000000E+00   0.0000000000E+00   0.1051745856E+00  -0.7847883638E-02  -0.2933499967E-05  -0.1253726647E-01   0.1659804093E-05  -0.5577636152E-05
  -0.2898572885E+01  -0.1189186765E+01   0.3997132952E+00   0.6299347110E-03  -0.5394946378E-03  -0.2867108106E-03   0.0000000000E+00   0.0000000000E+00   0.0000000000E+00   0.1035684414E+00  -0.6508706522E-02   0.9855691115E-05  -0.9203714622E-02   0.1687013729E-05  -0.4642271007E-05
  -0.3098835389E+01  -0.1191711281E+01   0.3997132332E+00   0.4182606457E-03  -0.5210405117E-03  -0.2867727934E-03   0.0000000000E+00   0.0000000000E+00   0.0000000000E+00   0.1024572215E+00  -0.5546245826E-02  -0.4198901520E-05  -0.6057730817E-02   0.4993577265E-06  -0.3361209287E-05
  -0.3299252598E+01  -0.1193595227E+01   0.3997132028E+00   0.2087623347E-03  -0.5095571429E-03  -0.2868032252E-03   0.0000000000E+00   0.0000000000E+00   0.0000000000E+00   0.1018224573E+00  -0.4958956822E-02   0.7911207438E-05  -0.2899464694E-02   0.3190810322E-06  -0.2804847940E-05
  -0.3500000000E+01  -0.1194629410E+01   0.3997131981E+00   0.0000000000E+00  -0.5055496507E-03  -0.2868078610E-03   0.0000000000E+00   0.0000000000E+00   0.0000000000E+00   0.1016060516E+00  -0.4773524185E-02  -0.5671735854E-05  -0.3201546958E-03   0.1399773744E-06  -0.2549476727E-05
  -0.3304248151E+01  -0.9948055895E+00   0.3997127006E+00   0.1923485687E-03  -0.6153735040E-03  -0.2873054375E-03   0.0000000000E+00   0.0000000000E+00   0.0000000000E+00   0.9760209372E-01  -0.1796563888E-02  -0.2361441152E-05  -0.3134779319E-02   0.5810014952E-06  -0.3124967917E-05
  -0.3500000000E+01  -0.9956208036E+00   0.3997127320E+00   0.0000000000E+00  -0.6110835599E-03  -0.2872739870E-03   0.0000000000E+00   0.0000000000E+00   0.0000000000E+00   0.9751782551E-01  -0.1644129032E-02   0.8910971055E-05  -0.3940396560E-03  -0.3077656345E-05  -0.2792067399E-05
  -0.3310328778E+01  -0.7966460601E+00   0.3997122587E+00   0.1751815670E-03  -0.7099521213E-03  -0.2877472826E-03   0.0000000000E+00   0.0000000000E+00   0.0000000000E+00   0.9330195211E-01   0.1580165860E-02   0.2789553539E-05  -0.3120491072E-02   0.8149551928E-06  -0.3145926739E-05
  -0.3500000000E+01  -0.7971645543E+00   0.3997123255E+00   0.0000000000E+00  -0.7058923360E-03  -0.2876805159E-03   0.0000000000E+00   0.0000000000E+00   0.0000000000E+00   0.9333072149E-01   0.1681087687E-02   0.4031625935E-06  -0.3768433586E-03  -0.6660832822E-05  -0.3220007740E-05
  -0.3316373197E+01  -0.5983950160E+00   0.3997119593E+00   0.1594126039E-03  -0.7938999573E-03  -0.2880467467E-03   0.0000000000E+00   0.0000000000E+00   0.0000000000E+00   0.8933245510E-01   0.4906332209E-02  -0.1381812936E-05  -0.2846211592E-02   0.1008835142E-05  -0.2844336595E-05
  -0.3500000000E+01  -0.5986638132E+00   0.3997120566E+00   0.0000000000E+00  -0.7900062001E-03  -0.2879494166E-03   0.0000000000E+00   0.0000000000E+00   0.0000000000E+00   0.8947046909E-01   0.4966381208E-02   0.1761388855E-05  -0.4093443045E-03  -0.1011126219E-04  -0.2104442610E-05
  -0.3321197452E+01  -0.3995773782E+00   0.3997118868E+00   0.1469279078E-03  -0.8680812285E-03  -0.2881191550E-03   0.0000000000E+00   0.0000000000E+00   0.0000000000E+00   0.8612302663E-01   0.7935552487E-02  -0.3741987474E-05  -0.2393102167E-02   0.1106346083E-05  -0.8108056101E-07
  -0.3500000000E+01  -0.3997671688E+00   0.3997120082E+00   0.0000000000E+00  -0.8646337741E-03  -0.2879978143E-03   0.0000000000E+00   0.0000000000E+00   0.0000000000E+00   0.8635069058E-01   0.7953082775E-02  -0.2780489912E-05  -0.3511070770E-03  -0.1283207280E-04  -0.2842313047E-06
  -0.3323334689E+01  -0.1997632412E+00   0.3997121190E+00   0.1394812954E-03  -0.9346632202E-03  -0.2878869725E-03   0.0000000000E+00   0.0000000000E+00   0.0000000000E+00   0.8407896138E-01   0.1041441408E-01  -0.6550146118E-05  -0.1774056539E-02   0.1223103775E-05   0.3033587756E-05
  -0.3500000000E+01  -0.2001049743E+00   0.3997122598E+00   0.0000000000E+00  -0.9313893499E-03  -0.2877461688E-03   0.0000000000E+00   0.0000000000E+00   0.0000000000E+00   0.8437495107E-01   0.1040201038E-01  -0.5760031137E-05  -0.3567627971E-03  -0.1525376015E-04   0.3749656465E-05
  -0.3108812449E+01  -0.9933299554E+00   0.3997126121E+00   0.3849308944E-03  -0.6274713946E-03  -0.2873939420E-03   0.0000000000E+00   0.0000000000E+00   0.0000000000E+00   0.9788169055E-01  -0.2247429486E-02   0.6620272955E-05  -0.6583885727E-02  -0.7325714941E-06  -0.4115215671E-05
  -0.3120758728E+01  -0.7956917437E+00   0.3997120585E+00   0.3502822436E-03  -0.7220657210E-03  -0.2879474892E-03   0.0000000000E+00   0.0000000000E+00   0.0000000000E+00   0.9321383219E-01   0.1260619179E-02  -0.1369639455E-05  -0.6549189786E-02  -0.2208213510E-05  -0.4691197829E-05
  -0.3132588142E+01  -0.5978808135E+00   0.3997116636E+00   0.3185381824E-03  -0.8052314732E-03  -0.2883423989E-03   0.0000000000E+00   0.0000000000E+00   0.0000000000E+00   0.8891810901E-01   0.4725071497E-02  -0.1540483517E-05  -0.6018124446E-02  -0.3741216665E-05  -0.3392144713E-05
  -0.3141984081E+01  -0.3992937289E+00   0.3997115139E+00   0.2933988799E-03  -0.8785809347E-03  -0.2884920677E-03   0.0000000000E+00   0.0000000000E+00   0.0000000000E+00   0.8543531832E-01   0.7870507483E-02  -0.6693968651E-05  -0.5066898979E-02  -0.5232747980E-05  -0.1469377800E-05
  -0.3146323289E+01  -0.1994583654E+00   0.3997116866E+00   0.2781506689E-03  -0.9440523993E-03  -0.2883194300E-03   0.0000000000E+00   0.0000000000E+00   0.0000000000E+00   0.8318019348E-01   0.1044247029E-01  -0.5127197193E-05  -0.3811156633E-02  -0.6509400454E-05   0.2882141509E-05
  -0.2913534536E+01  -0.9913628816E+00   0.3997124689E+00   0.5785035686E-03  -0.6473776013E-03  -0.2875371091E-03   0.0000000000E+00   0.0000000000E+00   0.0000000000E+00   0.9836961103E-01  -0.3023797268E-02  -0.7437251596E-06  -0.1000725932E-01   0.3842558227E-07  -0.5376559403E-05
  -0.2931244891E+01  -0.7944033223E+00   0.3997117218E+00   0.5254290001E-03  -0.7418473202E-03  -0.2882841910E-03   0.0000000000E+00   0.0000000000E+00   0.0000000000E+00   0.9308509118E-01   0.7152766046E-03  -0.2723188444E-06  -0.9971403404E-02  -0.1939429354E-05  -0.5609806669E-05
  -0.2948715159E+01  -0.5971673981E+00   0.3997111582E+00   0.4768914597E-03  -0.8241790623E-03  -0.2888477709E-03   0.0000000000E+00   0.0000000000E+00   0.0000000000E+00   0.8822457435E-01   0.4399334310E-02  -0.2623485452E-05  -0.9163911780E-02  -0.3860151048E-05  -0.5421871750E-05
  -0.2962582130E+01  -0.3989035690E+00   0.3997108733E+00   0.4384304847E-03  -0.8959079755E-03  -0.2891326738E-03   0.0000000000E+00   0.0000000000E+00   0.0000000000E+00   0.8426956677E-01   0.7744202269E-02  -0.8938997038E-05  -0.7714680999E-02  -0.5633425348E-05  -0.2476755731E-05
  -0.2969341518E+01  -0.1990754660E+00   0.3997109404E+00   0.4146116780E-03  -0.9598190415E-03  -0.2890656220E-03   0.0000000000E+00   0.0000000000E+00   0.0000000000E+00   0.8165195189E-01   0.1045976857E-01  -0.9296627356E-05  -0.5780951133E-02  -0.7574447353E-05   0.1058694522E-05
  -0.2718338962E+01  -0.9890672644E+00   0.3997122926E+00   0.7739077816E-03  -0.6744343648E-03  -0.2877133585E-03   0.0000000000E+00   0.0000000000E+00   0.0000000000E+00   0.9911627425E-01  -0.4118721662E-02   0.4655865962E-05  -0.1367756293E-01  -0.2139390104E-06  -0.7848781107E-05
  -0.2741763786E+01  -0.7928842018E+00   0.3997112444E+00   0.7007539853E-03  -0.7692888138E-03  -0.2887615918E-03   0.0000000000E+00   0.0000000000E+00   0.0000000000E+00   0.9293411870E-01  -0.9440154726E-04  -0.1851681026E-05  -0.1366128886E-01  -0.2240268112E-05  -0.8776090729E-05
  -0.2764797593E+01  -0.5963090990E+00   0.3997104239E+00   0.6340466883E-03  -0.8503530201E-03  -0.2895820779E-03   0.0000000000E+00   0.0000000000E+00   0.0000000000E+00   0.8724076538E-01   0.3903393907E-02  -0.6824546970E-05  -0.1257727480E-01  -0.4451306070E-05  -0.6791325967E-05
  -0.2783108889E+01  -0.3984333043E+00   0.3997099302E+00   0.5810913788E-03  -0.9202123288E-03  -0.2900757870E-03   0.0000000000E+00   0.0000000000E+00   0.0000000000E+00   0.8259670591E-01   0.7519872269E-02  -0.9728179485E-05  -0.1058442449E-01  -0.6961391082E-05  -0.5170533678E-05
  -0.2792777494E+01  -0.1987096104E+00   0.3997098401E+00   0.5474556001E-03  -0.9816024131E-03  -0.2901658584E-03   0.0000000000E+00   0.0000000000E+00   0.0000000000E+00   0.7945800997E-01   0.1044260648E-01  -0.9438581835E-05  -0.7910774300E-02  -0.8975047258E-05  -0.2411808544E-06
  -0.2523185800E+01  -0.9865772317E+00   0.3997120889E+00   0.9719595381E-03  -0.7082416628E-03  -0.2879170600E-03   0.0000000000E+00   0.0000000000E+00   0.0000000000E+00   0.1001731359E+00  -0.5559408715E-02   0.5805380848E-05  -0.1755659459E-01   0.1669565684E-05  -0.8992821072E-05
  -0.2552302265E+01  -0.7912212902E+00   0.3997106221E+00   0.8765253559E-03  -0.8036192005E-03  -0.2893839255E-03   0.0000000000E+00   0.0000000000E+00   0.0000000000E+00   0.9279496124E-01  -0.1197672004E-02  -0.6267906416E-05  -0.1760887041E-01  -0.1816425966E-05  -0.9628466670E-05
  -0.2580860169E+01  -0.5953565918E+00   0.3997094329E+00   0.7896113562E-03  -0.8837068005E-03  -0.2905731034E-03   0.0000000000E+00   0.0000000000E+00   0.0000000000E+00   0.8597690531E-01   0.3169610630E-02  -0.7959647932E-05  -0.1626284531E-01  -0.4678159807E-05  -0.1019059847E-04
  -0.2603674944E+01  -0.3979327257E+00   0.3997086394E+00   0.7204464320E-03  -0.9510686588E-03  -0.2913666103E-03   0.0000000000E+00   0.0000000000E+00   0.0000000000E+00   0.8036678689E-01   0.7151490638E-02  -0.1201001328E-04  -0.1368360373E-01  -0.8263636634E-05  -0.7226881322E-05
  -0.2617910727E+01  -0.1987204169E+00   0.3997083401E+00   0.6746228212E-03  -0.1009157906E-02  -0.2916659312E-03   0.0000000000E+00   0.0000000000E+00   0.0000000000E+00   0.7655561951E-01   0.1032281302E-01   0.2050028705E-05  -0.1017281526E-01  -0.1172271149E-04  -0.2936534864E-05
  -0.2328051289E+01  -0.9839845229E+00   0.3997119323E+00   0.1173770883E-02  -0.7472558824E-03  -0.2880736905E-03   0.0000000000E+00   0.0000000000E+00   0.0000000000E+00   0.1016475979E+00  -0.7347188844E-02  -0.2932243114E-05  -0.2163679968E-01   0.1918113379E-06  -0.1432464641E-04
  -0.2362850919E+01  -0.7894780814E+00   0.3997098510E+00   0.1053081317E-02  -0.8442583761E-03  -0.2901549551E-03   0.0000000000E+00   0.0000000000E+00   0.0000000000E+00   0.9274178077E-01  -0.2650271246E-02   0.1583481494E-04  -0.2185747360E-01  -0.2982954617E-05  -0.1574631872E-04
  -0.2396915323E+01  -0.5943485362E+00   0.3997081399E+00   0.9432968666E-03  -0.9233811885E-03  -0.2918661077E-03   0.0000000000E+00   0.0000000000E+00   0.0000000000E+00   0.8442960278E-01   0.2144373917E-02  -0.3842333061E-05  -0.2027016445E-01  -0.6171848867E-05  -0.1242902361E-04
  -0.2424552923E+01  -0.3975118031E+00   0.3997069250E+00   0.8554369270E-03  -0.9882681330E-03  -0.2930809678E-03   0.0000000000E+00   0.0000000000E+00   0.0000000000E+00   0.7754314078E-01   0.6525407928E-02  -0.1808408551E-04  -0.1707379178E-01  -0.1026011482E-04  -0.1255281858E-04
  -0.2443492363E+01  -0.1989805301E+00   0.3997063340E+00   0.7958866685E-03  -0.1042147065E-02  -0.2936719721E-03   0.0000000000E+00   0.0000000000E+00   0.0000000000E+00   0.7282308890E-01   0.1004180440E-01   0.2294681918E-04  -0.1262706653E-01  -0.1425538015E-04  -0.5500341318E-05
  -0.2132918237E+01  -0.9813425509E+00   0.3997118241E+00   0.1380563024E-02  -0.7898779084E-03  -0.2881819219E-03   0.0000000000E+00   0.0000000000E+00   0.0000000000E+00   0.1036991973E+00  -0.9469815024E-02   0.4591813613E-04  -0.2582677730E-01  -0.1897903308E-05  -0.1551533760E-04
  -0.2173403474E+01  -0.7876938045E+00   0.3997089368E+00   0.1230985993E-02  -0.8893665450E-03  -0.2910691907E-03   0.0000000000E+00   0.0000000000E+00   0.0000000000E+00   0.9282898000E-01  -0.4510973698E-02   0.1429075490E-04  -0.2637822821E-01  -0.9895626754E-05  -0.1842969705E-04
  -0.2212969040E+01  -0.5933114051E+00   0.3997064875E+00   0.1094839811E-02  -0.9685510650E-03  -0.2935184636E-03   0.0000000000E+00   0.0000000000E+00   0.0000000000E+00   0.8262162936E-01   0.7269752524E-03   0.5548549390E-04  -0.2462038451E-01  -0.1690011387E-04  -0.1996399757E-04
  -0.2245281753E+01  -0.3970229418E+00   0.3997046777E+00   0.9855670638E-03  -0.1030960766E-02  -0.2953282917E-03   0.0000000000E+00   0.0000000000E+00   0.0000000000E+00   0.7407832693E-01   0.5572733608E-02   0.1454171867E-04  -0.2077962462E-01  -0.2343499855E-04  -0.1848393339E-04
  -0.2267886598E+01  -0.1988482030E+00   0.3997036669E+00   0.9108018444E-03  -0.1080900953E-02  -0.2963391152E-03   0.0000000000E+00   0.0000000000E+00   0.0000000000E+00   0.6810631272E-01   0.9437897211E-02   0.7075356808E-04  -0.1529014636E-01  -0.3412899197E-04  -0.1179721922E-04
  -0.1935504538E+01  -0.9777637137E+00   0.3997119663E+00   0.1595632417E-02  -0.8334526748E-03  -0.2880396532E-03   0.0000000000E+00   0.0000000000E+00   0.0000000000E+00   0.1064559634E+00  -0.1182673592E-01   0.1000530318E-03  -0.3001453789E-01  -0.1980067141E-04  -0.3994907142E-04
  -0.1983261866E+01  -0.7855857004E+00   0.3997078860E+00   0.1411513572E-02  -0.9369843881E-03  -0.2921200129E-03   0.0000000000E+00   0.0000000000E+00   0.0000000000E+00   0.9323568898E-01  -0.6821465153E-02   0.1116184241E-03  -0.3104682822E-01  -0.3221125187E-04  -0.3984461872E-04
  -0.2028835597E+01  -0.5921435656E+00   0.3997043775E+00   0.1244242939E-02  -0.1017242578E-02  -0.2956284616E-03   0.0000000000E+00   0.0000000000E+00   0.0000000000E+00   0.8055887708E-01  -0.1253218722E-02   0.9254145123E-04  -0.2930809608E-01  -0.4811704121E-04  -0.3640657371E-04
  -0.2065891628E+01  -0.3964348503E+00   0.3997016889E+00   0.1109712494E-02  -0.1078076344E-02  -0.2983171107E-03   0.0000000000E+00   0.0000000000E+00   0.0000000000E+00   0.6982649060E-01   0.4096078771E-02   0.1849374714E-03  -0.2480608857E-01  -0.6606897586E-04  -0.3742682564E-04
  -0.2096728809E+01  -0.1994314487E+00   0.3997001605E+00   0.1014700947E-02  -0.1122742730E-02  -0.2998455294E-03   0.0000000000E+00   0.0000000000E+00   0.0000000000E+00   0.6258681100E-01   0.8403764762E-02   0.1989028342E-03  -0.1810492999E-01  -0.6939787712E-04  -0.2287804622E-04
  -0.1738633260E+01  -0.9741945815E+00   0.3997124437E+00   0.1818200251E-02  -0.8720704508E-03  -0.2875623268E-03   0.0000000000E+00   0.0000000000E+00   0.0000000000E+00   0.1101206513E+00  -0.1422998778E-01   0.1401702785E-03  -0.3375239473E-01  -0.2825282516E-04  -0.6130796954E-04
  -0.1793384815E+01  -0.7832352630E+00   0.3997067769E+00   0.1594754632E-02  -0.9822360094E-03  -0.2932290635E-03   0.0000000000E+00   0.0000000000E+00   0.0000000000E+00   0.9411316282E-01  -0.9607425648E-02   0.1922977844E-03  -0.3564033098E-01  -0.7831377999E-04  -0.7423844803E-04
  -0.1844930172E+01  -0.5906579926E+00   0.3997017100E+00   0.1391168086E-02  -0.1066429561E-02  -0.2982959874E-03   0.0000000000E+00   0.0000000000E+00   0.0000000000E+00   0.7833608441E-01  -0.3905063503E-02   0.3414295395E-03  -0.3419362436E-01  -0.1290077166E-03  -0.9135867109E-04
  -0.1888976586E+01  -0.3959062733E+00   0.3996977745E+00   0.1225104415E-02  -0.1126531251E-02  -0.3022314622E-03   0.0000000000E+00   0.0000000000E+00   0.0000000000E+00   0.6480969301E-01   0.1862972864E-02   0.4424586452E-03  -0.2904312511E-01  -0.1778726950E-03  -0.8039219176E-04
  -0.1930439067E+01  -0.2006361346E+00   0.3996956744E+00   0.1106782732E-02  -0.1166061585E-02  -0.3043315713E-03   0.0000000000E+00   0.0000000000E+00   0.0000000000E+00   0.5549882652E-01   0.6572425966E-02   0.3935940799E-03  -0.2105514371E-01  -0.2193131709E-03  -0.5811723147E-04
  -0.1543728145E+01  -0.9703995087E+00   0.3997140214E+00   0.2048224757E-02  -0.8975956829E-03  -0.2859845535E-03   0.0000000000E+00   0.0000000000E+00   0.0000000000E+00   0.1148364133E+00  -0.1593054951E-01   0.1083983383E-03  -0.3658096752E-01  -0.3456326083E-04  -0.1514738387E-03
  -0.1604620951E+01  -0.7798057217E+00   0.3997058255E+00   0.1780369128E-02  -0.1019300750E-02  -0.2941804893E-03   0.0000000000E+00   0.0000000000E+00   0.0000000000E+00   0.9559736003E-01  -0.1247020412E-01   0.4821677089E-03  -0.3986708959E-01  -0.1317875990E-03  -0.2059557730E-03
  -0.1662059758E+01  -0.5879502888E+00   0.3996983569E+00   0.1533892317E-02  -0.1110672805E-02  -0.3016490655E-03   0.0000000000E+00   0.0000000000E+00   0.0000000000E+00   0.7571173263E-01  -0.7280405596E-02   0.6164018926E-03  -0.3888599007E-01  -0.2740289905E-03  -0.2246717109E-03
  -0.1714606188E+01  -0.3958729393E+00   0.3996925996E+00   0.1331901853E-02  -0.1172382337E-02  -0.3074064026E-03   0.0000000000E+00   0.0000000000E+00   0.0000000000E+00   0.5872397759E-01  -0.1621597639E-02   0.7993175780E-03  -0.3334253339E-01  -0.4024764975E-03  -0.2126889674E-03
  -0.1748915157E+01  -0.1988019267E+00   0.3996886918E+00   0.1193562666E-02  -0.1214436721E-02  -0.3113141771E-03   0.0000000000E+00   0.0000000000E+00   0.0000000000E+00   0.4681976229E-01   0.3188120449E-02   0.1043360651E-02  -0.2405950847E-01  -0.4774552227E-03  -0.1385779093E-03
  -0.1351521439E+01  -0.9640663229E+00   0.3997168854E+00   0.2282790745E-02  -0.9034839331E-03  -0.2831205525E-03   0.0000000000E+00   0.0000000000E+00   0.0000000000E+00   0.1210592745E+00  -0.1560447368E-01   0.3653413788E-03  -0.3802619511E-01   0.7374197067E-04  -0.2196546104E-03
  -0.1418513813E+01  -0.7731769297E+00   0.3997055056E+00   0.1964057442E-02  -0.1039049727E-02  -0.2945003701E-03   0.0000000000E+00   0.0000000000E+00   0.0000000000E+00   0.9740800880E-01  -0.1469794521E-01   0.4182167782E-03  -0.4300926264E-01  -0.1341900820E-03  -0.4226002867E-03
  -0.1482039219E+01  -0.5822736632E+00   0.3996944280E+00   0.1668680508E-02  -0.1142205189E-02  -0.3055780259E-03   0.0000000000E+00   0.0000000000E+00   0.0000000000E+00   0.7264450679E-01  -0.1126118977E-01   0.1109881100E-02  -0.4289397858E-01  -0.4697093588E-03  -0.5551688249E-03
  -0.1536988848E+01  -0.3906931659E+00   0.3996854949E+00   0.1427541625E-02  -0.1212068850E-02  -0.3145111266E-03   0.0000000000E+00   0.0000000000E+00   0.0000000000E+00   0.5086119540E-01  -0.6786880609E-02   0.1323883229E-02  -0.3690851616E-01  -0.8028658400E-03  -0.5034277180E-03
  -0.1582750016E+01  -0.1990925001E+00   0.3996800444E+00   0.1260823959E-02  -0.1254611106E-02  -0.3199616324E-03   0.0000000000E+00   0.0000000000E+00   0.0000000000E+00   0.3580250195E-01  -0.2605455609E-02   0.1540884039E-02  -0.2666137342E-01  -0.1018559661E-02  -0.3276451582E-03
  -0.1157019942E+01  -0.9505155371E+00   0.3997232555E+00   0.2519397537E-02  -0.8800310962E-03  -0.2767504949E-03   0.0000000000E+00   0.0000000000E+00   0.0000000000E+00   0.1270589157E+00  -0.1111670112E-01  -0.4934562103E-03  -0.3866093293E-01   0.5606553271E-03  -0.3792934496E-03
  -0.1235891414E+01  -0.7600308241E+00   0.3997065738E+00   0.2137236399E-02  -0.1031715050E-02  -0.2934321959E-03   0.0000000000E+00   0.0000000000E+00   0.0000000000E+00   0.9863174626E-01  -0.1350414274E-01   0.1039908274E-02  -0.4511029970E-01   0.1017710197E-03  -0.9638091524E-03
  -0.1307792544E+01  -0.5713944252E+00   0.3996901402E+00   0.1786586351E-02  -0.1148623239E-02  -0.3098657602E-03   0.0000000000E+00   0.0000000000E+00   0.0000000000E+00   0.6697147714E-01  -0.1453200452E-01   0.7414032594E-03  -0.4450459442E-01  -0.5873158830E-03  -0.1238744275E-02
  -0.1366048735E+01  -0.3822838935E+00   0.3996763739E+00   0.1504855176E-02  -0.1230803493E-02  -0.3236321147E-03   0.0000000000E+00   0.0000000000E+00   0.0000000000E+00   0.4060771584E-01  -0.1468833679E-01   0.1151943058E-02  -0.3785071147E-01  -0.1272878968E-02  -0.1130566160E-02
  -0.1407988099E+01  -0.1918389651E+00   0.3996672196E+00   0.1312940710E-02  -0.1286701120E-02  -0.3327863792E-03   0.0000000000E+00   0.0000000000E+00   0.0000000000E+00   0.2266159119E-01  -0.1372088717E-01   0.1455623115E-02  -0.2699564603E-01  -0.1737800833E-02  -0.7477788988E-03
  -0.9646068411E+00  -0.9251413985E+00   0.3997332598E+00   0.2738515894E-02  -0.8243965341E-03  -0.2667462170E-03   0.0000000000E+00   0.0000000000E+00   0.0000000000E+00   0.1395343021E+00   0.1610706216E-02   0.1709067499E-02  -0.4207509795E-01   0.1271382715E-02  -0.7719115209E-03
  -0.1061648759E+01  -0.7371602359E+00   0.3997099189E+00   0.2274601090E-02  -0.9857119468E-03  -0.2900871136E-03   0.0000000000E+00   0.0000000000E+00   0.0000000000E+00   0.9666385038E-01  -0.5521846163E-02   0.8060818029E-03  -0.4676681585E-01   0.7639297536E-03  -0.1878744560E-02
  -0.1144798738E+01  -0.5534755658E+00   0.3996867122E+00   0.1873151643E-02  -0.1112944823E-02  -0.3132938100E-03   0.0000000000E+00   0.0000000000E+00   0.0000000000E+00   0.5874908110E-01  -0.1559389778E-01  -0.2477296530E-03  -0.4207731236E-01  -0.9767072928E-04  -0.2270763301E-02
  -0.1208371824E+01  -0.3695827273E+00   0.3996671741E+00   0.1559785552E-02  -0.1213267312E-02  -0.3328318623E-03   0.0000000000E+00   0.0000000000E+00   0.0000000000E+00   0.2904498532E-01  -0.2574550984E-01  -0.6761388902E-03  -0.3375056195E-01  -0.9920305279E-03  -0.2024085122E-02
  -0.1251033800E+01  -0.1844856977E+00   0.3996537534E+00   0.1350029753E-02  -0.1291179669E-02  -0.3462525928E-03   0.0000000000E+00   0.0000000000E+00   0.0000000000E+00   0.9209158449E-02  -0.3195356786E-01  -0.3585101867E-03  -0.2383511066E-01  -0.1700339484E-02  -0.1373667404E-02
  -0.7756209795E+00  -0.8820557240E+00   0.3997471477E+00   0.2889948450E-02  -0.7424599677E-03  -0.2528582544E-03   0.0000000000E+00   0.0000000000E+00   0.0000000000E+00   0.1341496194E+00   0.3616200516E-01   0.8714493239E-02  -0.5978215847E-01   0.2070598107E-02  -0.1974833131E-02
  -0.9014003853E+00  -0.7056718590E+00   0.3997159628E+00   0.2347292658E-02  -0.8880019876E-03  -0.2840432149E-03   0.0000000000E+00   0.0000000000E+00   0.0000000000E+00   0.7832197902E-01   0.2075188325E-01  -0.1528483281E-02  -0.4816359711E-01   0.1908892726E-02  -0.3321196338E-02
  -0.9998403735E+00  -0.5317932180E+00   0.3996857310E+00   0.1917006503E-02  -0.1019041984E-02  -0.3142749588E-03   0.0000000000E+00   0.0000000000E+00   0.0000000000E+00   0.3726957975E-01  -0.6128195350E-02  -0.5034510437E-02  -0.2957854395E-01   0.1155985044E-02  -0.3757431542E-02
  -0.1070565869E+01  -0.3557858543E+00   0.3996603200E+00   0.1596880746E-02  -0.1140781311E-02  -0.3396859514E-03   0.0000000000E+00   0.0000000000E+00   0.0000000000E+00   0.1220644540E-01  -0.3839366364E-01  -0.9527850569E-02  -0.1512662546E-01   0.1380313896E-03  -0.3294936950E-02
  -0.1113993707E+01  -0.1773827258E+00   0.3996425407E+00   0.1386463101E-02  -0.1257661825E-02  -0.3574652786E-03   0.0000000000E+00   0.0000000000E+00   0.0000000000E+00  -0.7921567283E-03  -0.6456981398E-01  -0.1196369680E-01  -0.9037145778E-02  -0.7118333253E-03  -0.2306944131E-02
  -0.9853256005E+00  -0.1633102561E+00   0.3996304738E+00   0.1441691485E-02  -0.1167413121E-02  -0.3695322185E-03   0.0000000000E+00   0.0000000000E+00   0.0000000000E+00  -0.3428534932E-03  -0.1034280326E+00  -0.1277425695E-01   0.1096427187E-01   0.7921324710E-03  -0.3609229023E-02
  -0.9440167349E+00  -0.3262664242E+00   0.3996522473E+00   0.1603742067E-02  -0.9944302305E-03  -0.3477587439E-03   0.0000000000E+00   0.0000000000E+00   0.0000000000E+00   0.1009249663E-02  -0.5226338535E-01  -0.1020240053E-01   0.8871922493E-02   0.1846706886E-02  -0.5146607373E-02
  -0.8746478336E+00  -0.4822446038E+00   0.3996821457E+00   0.1857839435E-02  -0.8531138427E-03  -0.3178603212E-03   0.0000000000E+00   0.0000000000E+00   0.0000000000E+00   0.1506965824E-01   0.4555967709E-02  -0.7424523754E-02  -0.1234274741E-01   0.3123459244E-02  -0.5833854800E-02
  -0.7758858955E+00  -0.6288894463E+00   0.3997169723E+00   0.2212628515E-02  -0.7472082685E-03  -0.2830337225E-03   0.0000000000E+00   0.0000000000E+00   0.0000000000E+00   0.5376783904E-01   0.4941790738E-01  -0.2816537471E-02  -0.5024302244E-01   0.4131295558E-02  -0.5537238937E-02
  -0.6465820684E+00  -0.7612410095E+00   0.3997534710E+00   0.2677498646E-02  -0.6741194670E-03  -0.2465349704E-03   0.0000000000E+00   0.0000000000E+00   0.0000000000E+00   0.1270223234E+00   0.6681921869E-01   0.9877262100E-04  -0.8432776259E-01   0.4332241887E-02  -0.4064743651E-02
   0.6844024100E+00   0.9251843621E+00   0.5995876523E+00   0.7030967982E-02  -0.2580708886E-02  -0.4123716682E-03   0.0000000000E+00   0.0000000000E+00   0.0000000000E+00   0.1446941709E+00   0.9241749292E-02  -0.8456586724E-03  -0.4074883547E-01   0.4460463339E-02  -0.2952018066E-02
   0.4942541630E+00   0.1030608146E+01   0.5995514857E+00   0.6425550984E-02  -0.2944853867E-02  -0.4485383388E-03   0.0000000000E+00   0.0000000000E+00   0.0000000000E+00   0.2161835252E+00   0.2529310477E-01   0.1023576793E-01  -0.4313933402E-01   0.4898407385E-02  -0.1355713386E-02
   0.4328552960E+00   0.9017564456E+00   0.5995395374E+00   0.6713557042E-02  -0.2899964428E-02  -0.4604866117E-03   0.0000000000E+00   0.0000000000E+00   0.0000000000E+00   0.2350841447E+00   0.4167444060E-01   0.4885057638E-02  -0.9574282820E-01   0.8194037140E-02  -0.4092785412E-02
   0.5972718832E+00   0.8047682642E+00   0.5995843572E+00   0.7331991241E-02  -0.2678870810E-02  -0.4156668165E-03   0.0000000000E+00   0.0000000000E+00   0.0000000000E+00   0.1208605623E+00   0.4546331072E-01   0.3958203121E-03  -0.7117658060E-01   0.7850386838E-02  -0.5638476762E-02
   0.2799017607E+00   0.1094910003E+01   0.5995213057E+00   0.5797552723E-02  -0.3237507254E-02  -0.4787182922E-03   0.0000000000E+00   0.0000000000E+00   0.0000000000E+00   0.2881530469E+00   0.3113385575E-01   0.1996843154E-01  -0.3316241963E-01   0.3875341067E-02   0.3121943108E-03
   0.2519409510E+00   0.9662252021E+00   0.5995045063E+00   0.6003215952E-02  -0.3060404942E-02  -0.4955176919E-03   0.0000000000E+00   0.0000000000E+00   0.0000000000E+00   0.3500929327E+00   0.2183348500E-01   0.1595703867E-01  -0.7764682839E-01   0.6002852651E-02  -0.1935715666E-02
   0.6266060315E-01   0.1126762165E+01   0.5995076564E+00   0.5160874045E-02  -0.3385054909E-02  -0.4923675984E-03   0.0000000000E+00   0.0000000000E+00   0.0000000000E+00   0.3230147388E+00   0.3188538943E-01   0.2371017212E-01  -0.8455926167E-02   0.8147132085E-03   0.1287762854E-02
   0.6503852626E-01   0.9950731897E+00   0.5994874051E+00   0.5243064658E-02  -0.3137479286E-02  -0.5126188626E-03   0.0000000000E+00   0.0000000000E+00   0.0000000000E+00   0.4185798099E+00   0.5698680848E-02   0.2352977067E-01  -0.2009839130E-01   0.1556468134E-02  -0.4749982693E-03
  -0.1601711005E+00   0.1124768126E+01   0.5995140401E+00   0.4527872456E-02  -0.3347294064E-02  -0.4859839201E-03   0.0000000000E+00   0.0000000000E+00   0.0000000000E+00   0.3079108272E+00   0.3150657670E-01   0.2294299998E-01   0.1869811374E-01  -0.2529785261E-02   0.1097706961E-02
  -0.1263901573E+00   0.9882857968E+00   0.5994921070E+00   0.4454331749E-02  -0.3117127169E-02  -0.5079169856E-03   0.0000000000E+00   0.0000000000E+00   0.0000000000E+00   0.3995393461E+00   0.1142683307E-01   0.2079508464E-01   0.5156648762E-01  -0.3724951806E-02  -0.1072271275E-02
  -0.3869591116E+00   0.1089281536E+01   0.5995384439E+00   0.3905677444E-02  -0.3121513786E-02  -0.4615801099E-03   0.0000000000E+00   0.0000000000E+00   0.0000000000E+00   0.2475899537E+00   0.2652950003E-01   0.1589366057E-01   0.3192264906E-01  -0.4493360463E-02   0.1007723528E-03
  -0.3244783734E+00   0.9416346124E+00   0.5995198139E+00   0.3664060624E-02  -0.2993626576E-02  -0.4802100567E-03   0.0000000000E+00   0.0000000000E+00   0.0000000000E+00   0.2921626652E+00   0.3105695064E-01   0.8646722679E-02   0.8843018929E-01  -0.7187722765E-02  -0.3506898987E-02
   0.7938685016E+00   0.1068717039E+01   0.5995914170E+00   0.6875891558E-02  -0.2524580644E-02  -0.4086070222E-03   0.0000000000E+00   0.0000000000E+00   0.0000000000E+00   0.1595386917E+00  -0.1463608792E-01  -0.9397693589E-03  -0.1259183373E-01   0.1846659013E-02  -0.8506404548E-03
   0.5198360298E+00   0.1177679049E+01   0.5995575923E+00   0.6189546817E-02  -0.3045571201E-02  -0.4424317157E-03   0.0000000000E+00   0.0000000000E+00   0.0000000000E+00   0.2061997426E+00   0.1108429273E-01   0.7757561988E-03  -0.1295579550E-02   0.3124215469E-02   0.7052973591E-03
   0.2845380907E+00   0.1237897263E+01   0.5995357556E+00   0.5623162658E-02  -0.3384486774E-02  -0.4642684336E-03   0.0000000000E+00   0.0000000000E+00   0.0000000000E+00   0.2329577277E+00   0.2976958517E-01   0.1857516065E-02   0.1244141483E-03   0.2248273958E-02   0.2069343925E-02
   0.6235772543E-01   0.1268511922E+01   0.5995275426E+00   0.5122655834E-02  -0.3539178292E-02  -0.4724814083E-03   0.0000000000E+00   0.0000000000E+00   0.0000000000E+00   0.2403094449E+00   0.3887040816E-01   0.2130556876E-02   0.1628941262E-02   0.4430615552E-03   0.2957843567E-02
  -0.1589734437E+00   0.1275185957E+01   0.5995329889E+00   0.4647654256E-02  -0.3503663482E-02  -0.4670350816E-03   0.0000000000E+00   0.0000000000E+00   0.0000000000E+00   0.2305196532E+00   0.3606884645E-01   0.1189227670E-02  -0.6748918671E-04  -0.1376678469E-02   0.2741357739E-02
  -0.3850519396E+00   0.1261579860E+01   0.5995492054E+00   0.4175748414E-02  -0.3284820119E-02  -0.4508186220E-03   0.0000000000E+00   0.0000000000E+00   0.0000000000E+00   0.2072851477E+00   0.1943482633E-01  -0.2436913424E-02  -0.3792250103E-02  -0.2215732376E-02   0.1522328187E-02
  -0.1706197978E+00   0.1442741741E+01   0.5995576713E+00   0.4698190152E-02  -0.3617418645E-02  -0.4423527251E-03   0.0000000000E+00   0.0000000000E+00   0.0000000000E+00   0.1839349767E+00   0.2531486636E-01  -0.1924894142E-02  -0.8567233080E-02  -0.6388949567E-03   0.2991793764E-02
  -0.3928384693E+00   0.1441099868E+01   0.5995670608E+00   0.4315265658E-02  -0.3416071980E-02  -0.4329631519E-03   0.0000000000E+00   0.0000000000E+00   0.0000000000E+00   0.1776037604E+00   0.1194118882E-01  -0.2597981190E-02  -0.1591768170E-01  -0.8906811421E-03   0.2030758433E-02
  -0.1839025343E+00   0.1621882974E+01   0.5995816094E+00   0.4729968699E-02  -0.3721655520E-02  -0.4184145619E-03   0.0000000000E+00   0.0000000000E+00   0.0000000000E+00   0.1496887429E+00   0.1285049394E-01  -0.2110895798E-02  -0.1043907087E-01  -0.7208357392E-04   0.1609045048E-02
  -0.4049916581E+00   0.1623960670E+01   0.5995846063E+00   0.4406241871E-02  -0.3534139831E-02  -0.4154177042E-03   0.0000000000E+00   0.0000000000E+00   0.0000000000E+00   0.1515188816E+00   0.5885039331E-02  -0.1517358065E-02  -0.1773194328E-01   0.9160427241E-04   0.1035619219E-02
  -0.1935143512E+00   0.1807566020E+01   0.5996004862E+00   0.4771332751E-02  -0.3821520377E-02  -0.3995378356E-03   0.0000000000E+00   0.0000000000E+00   0.0000000000E+00   0.1146353786E+00   0.3248008036E-02  -0.6014313752E-02  -0.6773711620E-02   0.4666072611E-03   0.4440598060E-03
  -0.4143768283E+00   0.1809314980E+01   0.5995983783E+00   0.4504796727E-02  -0.3643020408E-02  -0.4016456807E-03   0.0000000000E+00   0.0000000000E+00   0.0000000000E+00   0.1241808436E+00   0.1218694844E-02  -0.4066342404E-02  -0.1131594570E-01   0.8581789709E-03   0.2793679243E-03
  -0.2012493603E+00   0.1996101125E+01   0.5996187135E+00   0.4842162652E-02  -0.3898874604E-02  -0.3813105034E-03   0.0000000000E+00   0.0000000000E+00   0.0000000000E+00   0.8260453507E-01   0.1814911756E-02  -0.2026252777E-02  -0.2272763560E-02   0.1361212472E-02  -0.2045356791E-04
  -0.4219939695E+00   0.1996265579E+01   0.5996119212E+00   0.4643799513E-02  -0.3734420766E-02  -0.3881027638E-03   0.0000000000E+00   0.0000000000E+00   0.0000000000E+00   0.1010589375E+00   0.1135234253E-02  -0.4288148295E-03  -0.3872923397E-02   0.2383173403E-02   0.4590883672E-04
   0.5150009945E-01   0.1433994198E+01   0.5995534638E+00   0.5080598147E-02  -0.3661961774E-02  -0.4465601818E-03   0.0000000000E+00   0.0000000000E+00   0.0000000000E+00   0.1890728955E+00   0.2963916090E-01  -0.1155383360E-02   0.2077429753E-02   0.1336974660E-03   0.3324825500E-02
   0.3863478736E-01   0.1614600170E+01   0.5995796282E+00   0.5048370965E-02  -0.3772990452E-02  -0.4203958028E-03   0.0000000000E+00   0.0000000000E+00   0.0000000000E+00   0.1507653858E+00   0.1615381721E-01  -0.1791752935E-02   0.1462288715E-02  -0.2694529573E-04   0.1897370843E-02
   0.2889877968E-01   0.1803568207E+01   0.5996005990E+00   0.5027372783E-02  -0.3875652801E-02  -0.3994249895E-03   0.0000000000E+00   0.0000000000E+00   0.0000000000E+00   0.1118918219E+00   0.4286859511E-02  -0.6942969101E-02   0.7856022093E-03  -0.7896033195E-04   0.5375294410E-03
   0.2137267035E-01   0.1996047424E+01   0.5996209611E+00   0.5012640751E-02  -0.3952575572E-02  -0.3790628845E-03   0.0000000000E+00   0.0000000000E+00   0.0000000000E+00   0.7625846175E-01   0.2067118976E-02  -0.2565025060E-02  -0.1838657931E-03  -0.1113721192E-03  -0.4272434779E-04
   0.2761723737E+00   0.1411249793E+01   0.5995567577E+00   0.5482617709E-02  -0.3529396716E-02  -0.4432662519E-03   0.0000000000E+00   0.0000000000E+00   0.0000000000E+00   0.1895862948E+00   0.2320574079E-01  -0.8573937698E-03   0.1083983378E-01   0.9709704314E-03   0.2734382449E-02
   0.2630392321E+00   0.1600214053E+01   0.5995796022E+00   0.5377889120E-02  -0.3665877237E-02  -0.4204217947E-03   0.0000000000E+00   0.0000000000E+00   0.0000000000E+00   0.1539980229E+00   0.1299847876E-01  -0.1535023984E-02   0.1310527801E-01   0.7052994434E-04   0.1670280113E-02
   0.2523696464E+00   0.1796688071E+01   0.5995989238E+00   0.5289648399E-02  -0.3787999416E-02  -0.4011001867E-03   0.0000000000E+00   0.0000000000E+00   0.0000000000E+00   0.1177477503E+00   0.3277462264E-02  -0.6198639912E-02   0.8464493273E-02  -0.5345447288E-03   0.4985840986E-03
   0.2442615411E+00   0.1996118250E+01   0.5996178308E+00   0.5186551136E-02  -0.3881750150E-02  -0.3821931828E-03   0.0000000000E+00   0.0000000000E+00   0.0000000000E+00   0.8485352179E-01   0.1897180871E-02  -0.1496057005E-02   0.2488951947E-02  -0.1564230488E-02  -0.8285559615E-04
   0.5088324645E+00   0.1374345566E+01   0.5995673754E+00   0.5923161486E-02  -0.3235673819E-02  -0.4326485722E-03   0.0000000000E+00   0.0000000000E+00   0.0000000000E+00   0.1824142130E+00   0.8202357333E-02  -0.5168879006E-03   0.1257720715E-01   0.1286010619E-02   0.1351981092E-02
   0.4909810356E+00   0.1579816136E+01   0.5995819346E+00   0.5734675620E-02  -0.3417934368E-02  -0.4180894300E-03   0.0000000000E+00   0.0000000000E+00   0.0000000000E+00   0.1577784865E+00   0.4179711201E-02  -0.1981698192E-02   0.1983996541E-01   0.9463934887E-04   0.1087404206E-02
   0.4769633884E+00   0.1787610790E+01   0.5995958819E+00   0.5577760423E-02  -0.3576499631E-02  -0.4041421237E-03   0.0000000000E+00   0.0000000000E+00   0.0000000000E+00   0.1297606744E+00   0.1313121454E-02  -0.3412128623E-02   0.1289874321E-01  -0.8422327110E-03   0.3349740720E-03
   0.4667469054E+00   0.1996298094E+01   0.5996103856E+00   0.5391129428E-02  -0.3701906171E-02  -0.3896384492E-03   0.0000000000E+00   0.0000000000E+00   0.0000000000E+00   0.1044456183E+00   0.1108022408E-02  -0.3808562085E-03   0.3717485456E-02  -0.2440545095E-02  -0.1007829765E-04
   0.7511530277E+00   0.1329628896E+01   0.5995824240E+00   0.6396448705E-02  -0.2839734185E-02  -0.4176000221E-03   0.0000000000E+00   0.0000000000E+00   0.0000000000E+00   0.1714033306E+00  -0.9208078975E-02  -0.3900027840E-03   0.8872275726E-02   0.8867702649E-03   0.1464820144E-03
   0.7188175432E+00   0.1557803176E+01   0.5995860056E+00   0.6114971171E-02  -0.3091554367E-02  -0.4140184019E-03   0.0000000000E+00   0.0000000000E+00   0.0000000000E+00   0.1597681731E+00  -0.3490355792E-02  -0.1913776623E-03   0.1914375602E-01   0.2902597141E-04   0.4362005243E-03
   0.6977493918E+00   0.1777747905E+01   0.5995924490E+00   0.5889073840E-02  -0.3291094875E-02  -0.4075749880E-03   0.0000000000E+00   0.0000000000E+00   0.0000000000E+00   0.1422976705E+00  -0.1201636375E-02  -0.1673345399E-02   0.1326028172E-01  -0.8267406737E-03   0.1551393494E-03
   0.6876073004E+00   0.1996548498E+01   0.5996007627E+00   0.5646062434E-02  -0.3451501716E-02  -0.3992613292E-03   0.0000000000E+00   0.0000000000E+00   0.0000000000E+00   0.1288956713E+00   0.4475560909E-03   0.1382695445E-02   0.4706971634E-02  -0.2646851636E-02   0.8775022639E-04
   0.9205839238E+00   0.1772380372E+01   0.5995897883E+00   0.6227453814E-02  -0.2979018310E-02  -0.4102357198E-03   0.0000000000E+00   0.0000000000E+00   0.0000000000E+00   0.1526781494E+00  -0.2430857412E-02   0.3888314965E-03   0.1077199803E-01  -0.6144537671E-03   0.2674599828E-04
   0.9082544453E+00   0.1996830292E+01   0.5995912269E+00   0.5950928323E-02  -0.3169708318E-02  -0.4087970713E-03   0.0000000000E+00   0.0000000000E+00   0.0000000000E+00   0.1508088753E+00  -0.3870479260E-03   0.1782469656E-02   0.3177986386E-02  -0.2207919886E-02   0.9109079906E-04
   0.1140924499E+01   0.1770076696E+01   0.5995879279E+00   0.6573479236E-02  -0.2685843507E-02  -0.4120960592E-03   0.0000000000E+00   0.0000000000E+00   0.0000000000E+00   0.1596370908E+00  -0.2947804981E-02   0.2116069058E-02   0.6002574185E-02  -0.3616262927E-03  -0.8747450122E-04
   0.1127807346E+01   0.1997106794E+01   0.5995840426E+00   0.6299816368E-02  -0.2893205927E-02  -0.4159814046E-03   0.0000000000E+00   0.0000000000E+00   0.0000000000E+00   0.1662073476E+00  -0.6993212831E-03   0.1355983758E-02   0.2606291811E-02  -0.1441656221E-02   0.1210300792E-03
   0.1359053630E+01   0.1769473782E+01   0.5995869622E+00   0.6925360355E-02  -0.2434257725E-02  -0.4130617714E-03   0.0000000000E+00   0.0000000000E+00   0.0000000000E+00   0.1615909089E+00  -0.2687927569E-02   0.1906659756E-02   0.1318341533E-02  -0.1468483781E-03  -0.1356877123E-03
   0.1346197534E+01   0.1997353409E+01   0.5995799622E+00   0.6671834122E-02  -0.2646590888E-02  -0.4200617790E-03   0.0000000000E+00   0.0000000000E+00   0.0000000000E+00   0.1745684836E+00  -0.9319881764E-03   0.1327173113E-02   0.6721828160E-03  -0.6593826894E-03   0.1225357006E-03
   0.1575694919E+01   0.1769674030E+01   0.5995870297E+00   0.7272128868E-02  -0.2234129715E-02  -0.4129943284E-03   0.0000000000E+00   0.0000000000E+00   0.0000000000E+00   0.1605500515E+00  -0.1492465904E-02   0.2216400767E-02  -0.2382741435E-02   0.2850343811E-04  -0.1043691531E-03
   0.1563718911E+01   0.1997559153E+01   0.5995788052E+00   0.7055401144E-02  -0.2440846966E-02  -0.4212187890E-03   0.0000000000E+00   0.0000000000E+00   0.0000000000E+00   0.1754235543E+00  -0.8885862113E-03   0.1242132512E-03  -0.1463466755E-03  -0.6469325520E-04   0.1169663638E-03
   0.1791489850E+01   0.1770225820E+01   0.5995880235E+00   0.7612719938E-02  -0.2081460449E-02  -0.4120004686E-03   0.0000000000E+00   0.0000000000E+00   0.0000000000E+00   0.1569701685E+00  -0.7180132239E-03   0.1542813201E-02  -0.4481482868E-02   0.1430752937E-03  -0.5565459840E-04
   0.1780690325E+01   0.1997720712E+01   0.5995799332E+00   0.7434145004E-02  -0.2279287902E-02  -0.4200907612E-03   0.0000000000E+00   0.0000000000E+00   0.0000000000E+00   0.1717743185E+00  -0.6779121111E-03  -0.1968535937E-03  -0.1198277762E-02   0.3085597286E-03   0.9619894758E-04
   0.2006844200E+01   0.1770920630E+01   0.5995897385E+00   0.7942589671E-02  -0.1970180375E-02  -0.4102855473E-03   0.0000000000E+00   0.0000000000E+00   0.0000000000E+00   0.1522817710E+00   0.3381837631E-04   0.1297786897E-02  -0.5496574604E-02   0.1965707753E-03  -0.1424827885E-04
   0.1997349703E+01   0.1997843204E+01   0.5995824971E+00   0.7802333070E-02  -0.2156796285E-02  -0.4175268754E-03   0.0000000000E+00   0.0000000000E+00   0.0000000000E+00   0.1652109026E+00  -0.5384130004E-03  -0.8914034199E-03  -0.1345764645E-02   0.4803011474E-03   0.7504246241E-04
   0.2221981791E+01   0.1771666756E+01   0.5995918293E+00   0.8262181158E-02  -0.1891144361E-02  -0.4081946821E-03   0.0000000000E+00   0.0000000000E+00   0.0000000000E+00   0.1470499111E+00   0.3805347373E-03   0.7755186043E-03  -0.5520071054E-02   0.1960784036E-03   0.1779197259E-04
   0.2213838977E+01   0.1997932482E+01   0.5995857493E+00   0.8154316655E-02  -0.2067517796E-02  -0.4142747495E-03   0.0000000000E+00   0.0000000000E+00   0.0000000000E+00   0.1579429002E+00  -0.3487189726E-03  -0.8980715787E-03  -0.1587232667E-02   0.5089226772E-03   0.4725127749E-04
   0.2437011782E+01   0.1772422315E+01   0.5995939791E+00   0.8570492230E-02  -0.1837015486E-02  -0.4060448864E-03   0.0000000000E+00   0.0000000000E+00   0.0000000000E+00   0.1421272631E+00   0.6626501524E-03   0.5973837009E-03  -0.5053397038E-02   0.1699971356E-03   0.3843256295E-04
   0.2430235243E+01   0.1997996047E+01   0.5995890623E+00   0.8490653407E-02  -0.2003952899E-02  -0.4109617053E-03   0.0000000000E+00   0.0000000000E+00   0.0000000000E+00   0.1507733898E+00  -0.2539531992E-03  -0.1066518604E-02  -0.1357049695E-02   0.4536471354E-03   0.2980060876E-04
   0.2651978201E+01   0.1773157822E+01   0.5995959488E+00   0.8869360677E-02  -0.1800787726E-02  -0.4040752226E-03   0.0000000000E+00   0.0000000000E+00   0.0000000000E+00   0.1377558237E+00   0.7281541482E-03   0.3219873745E-03  -0.4198461780E-02   0.1319057931E-03   0.5126508420E-04
   0.2646566358E+01   0.1998039754E+01   0.5995920526E+00   0.8811677511E-02  -0.1960245623E-02  -0.4079714138E-03   0.0000000000E+00   0.0000000000E+00   0.0000000000E+00   0.1446300676E+00  -0.1422662590E-03  -0.9001550089E-03  -0.1222931191E-02   0.3643121077E-03   0.1331434081E-04
   0.2866872006E+01   0.1773827142E+01   0.5995975797E+00   0.9159735739E-02  -0.1777577865E-02  -0.4024443400E-03   0.0000000000E+00   0.0000000000E+00   0.0000000000E+00   0.1342874365E+00   0.7952716563E-03   0.2582540410E-03  -0.3228250676E-02   0.9372077234E-04   0.5787777031E-04
   0.2862817269E+01   0.1998068937E+01   0.5995944858E+00   0.9120449258E-02  -0.1931063435E-02  -0.4055382101E-03   0.0000000000E+00   0.0000000000E+00   0.0000000000E+00   0.1396581873E+00  -0.1006708953E-03  -0.8914932244E-03  -0.8908519860E-03   0.2646296257E-03   0.5662100473E-05
   0.3081624133E+01   0.1774370715E+01   0.5995987854E+00   0.9443862597E-02  -0.1763415260E-02  -0.4012385892E-03   0.0000000000E+00   0.0000000000E+00   0.0000000000E+00   0.1317353438E+00   0.7660879543E-03   0.1259824200E-03  -0.2136708946E-02   0.6088819092E-04   0.6081479911E-04
   0.3078918591E+01   0.1998087150E+01   0.5995962587E+00   0.9419340579E-02  -0.1912849973E-02  -0.4037653378E-03   0.0000000000E+00   0.0000000000E+00   0.0000000000E+00   0.1361444785E+00  -0.4524333144E-04  -0.7387895804E-03  -0.6094090600E-03   0.1732941181E-03  -0.1426611515E-05
   0.3296079506E+01   0.1774744385E+01   0.5995995192E+00   0.9723296345E-02  -0.1755955448E-02  -0.4005047872E-03   0.0000000000E+00   0.0000000000E+00   0.0000000000E+00   0.1302283736E+00   0.7833345833E-03   0.1321281795E-03  -0.1139030645E-02   0.2262964949E-04   0.6192099245E-04
   0.3294722678E+01   0.1998097140E+01   0.5995973264E+00   0.9711627620E-02  -0.1902860285E-02  -0.4026975747E-03   0.0000000000E+00   0.0000000000E+00   0.0000000000E+00   0.1339988874E+00  -0.4015462286E-04  -0.7413858141E-03  -0.3689257370E-03   0.7463383323E-04  -0.3164114286E-05
   0.3510000000E+01   0.1774895279E+01   0.5995997649E+00   0.1000000000E-01  -0.1753601028E-02  -0.4002590987E-03   0.0000000000E+00   0.0000000000E+00   0.0000000000E+00   0.1297032077E+00   0.7537278413E-03   0.7402756382E-04   0.2196656112E-03   0.2235824517E-04   0.6205846447E-04
   0.3510000000E+01   0.1998100254E+01   0.5995976824E+00   0.1000000000E-01  -0.1899745835E-02  -0.4023415702E-03   0.0000000000E+00   0.0000000000E+00   0.0000000000E+00   0.1333200039E+00  -0.1826753726E-04  -0.6655329543E-03   0.2645761660E-03   0.3193639229E-04  -0.5195412093E-05
   0.9466556614E+00   0.1547726521E+01   0.5995901741E+00   0.6491214430E-02  -0.2755629415E-02  -0.4098498942E-03   0.0000000000E+00   0.0000000000E+00   0.0000000000E+00   0.1583514805E+00  -0.8986039620E-02   0.4180393479E-03   0.1318994159E-01   0.3563930301E-04  -0.1048969057E-03
   0.1168675254E+01   0.1544140215E+01   0.5995929887E+00   0.6854004067E-02  -0.2457984859E-02  -0.4070352732E-03   0.0000000000E+00   0.0000000000E+00   0.0000000000E+00   0.1535165031E+00  -0.1082451813E-01  -0.7691863438E-03   0.5320827133E-02   0.1190944749E-04  -0.3624776314E-03
   0.1386076876E+01   0.1543427819E+01   0.5995944814E+00   0.7193996272E-02  -0.2219091367E-02  -0.4055426453E-03   0.0000000000E+00   0.0000000000E+00   0.0000000000E+00   0.1488942696E+00  -0.8613841555E-02  -0.2632649239E-03  -0.1513126450E-02  -0.2198021875E-04  -0.3767013565E-03
   0.1600739279E+01   0.1543857195E+01   0.5995951925E+00   0.7517019198E-02  -0.2033735011E-02  -0.4048315287E-03   0.0000000000E+00   0.0000000000E+00   0.0000000000E+00   0.1443842197E+00  -0.5682151411E-02  -0.5314995073E-03  -0.6348932182E-02   0.3250954222E-05  -0.3114652085E-03
   0.1813998511E+01   0.1544736999E+01   0.5995958271E+00   0.7824231480E-02  -0.1897081406E-02  -0.4041969313E-03   0.0000000000E+00   0.0000000000E+00   0.0000000000E+00   0.1404069163E+00  -0.2726891728E-02  -0.2390320796E-03  -0.9243802055E-02   0.5438850372E-04  -0.2316948523E-03
   0.2026600730E+01   0.1545810416E+01   0.5995966560E+00   0.8119950381E-02  -0.1798433669E-02  -0.4033680178E-03   0.0000000000E+00   0.0000000000E+00   0.0000000000E+00   0.1366226225E+00  -0.6132216548E-03  -0.3077414983E-03  -0.1032403129E-01   0.7659515804E-04  -0.1572341484E-03
   0.2238906644E+01   0.1546965329E+01   0.5995976562E+00   0.8405234441E-02  -0.1730231338E-02  -0.4023678181E-03   0.0000000000E+00   0.0000000000E+00   0.0000000000E+00   0.1333129679E+00   0.9061550503E-03  -0.1191793525E-03  -0.1017482409E-01   0.7914036231E-04  -0.9290110053E-04
   0.2451081625E+01   0.1548142702E+01   0.5995987382E+00   0.8682834773E-02  -0.1683918443E-02  -0.4012858466E-03   0.0000000000E+00   0.0000000000E+00   0.0000000000E+00   0.1303657395E+00   0.1758764399E-02  -0.1221325996E-03  -0.9134189708E-02   0.6738703529E-04  -0.4539367456E-04
   0.2663191246E+01   0.1549287388E+01   0.5995997715E+00   0.8953736113E-02  -0.1653842189E-02  -0.4002524713E-03   0.0000000000E+00   0.0000000000E+00   0.0000000000E+00   0.1279570655E+00   0.2263490654E-02   0.2117071986E-05  -0.7616659875E-02   0.5212698018E-04  -0.9934567018E-05
   0.2875240096E+01   0.1550324522E+01   0.5996006654E+00   0.9219896016E-02  -0.1634757506E-02  -0.3993586096E-03   0.0000000000E+00   0.0000000000E+00   0.0000000000E+00   0.1260178688E+00   0.2453950730E-02  -0.6338291038E-05  -0.5819653340E-02   0.3624741889E-04   0.1191121733E-04
   0.3087166608E+01   0.1551168403E+01   0.5996013453E+00   0.9482207810E-02  -0.1623546966E-02  -0.3986786500E-03   0.0000000000E+00   0.0000000000E+00   0.0000000000E+00   0.1246536295E+00   0.2551886181E-02   0.6704488836E-04  -0.3899258554E-02   0.2383067548E-04   0.2637489755E-04
   0.3298830952E+01   0.1551758329E+01   0.5996017686E+00   0.9741992095E-02  -0.1617631481E-02  -0.3982554117E-03   0.0000000000E+00   0.0000000000E+00   0.0000000000E+00   0.1238067769E+00   0.2545641095E-02   0.4122900279E-04  -0.1996809789E-02   0.7362659540E-05   0.3292117240E-04
   0.3510000000E+01   0.1551978700E+01   0.5996019116E+00   0.1000000000E-01  -0.1615889919E-02  -0.3981123841E-03   0.0000000000E+00   0.0000000000E+00   0.0000000000E+00   0.1235447108E+00   0.2566106294E-02   0.8540994094E-04   0.1535243588E-03   0.1336245241E-04   0.3569383374E-04
   0.9894486539E+00   0.1319545811E+01   0.5995954087E+00   0.6821619894E-02  -0.2483298509E-02  -0.4046153206E-03   0.0000000000E+00   0.0000000000E+00   0.0000000000E+00   0.1560882720E+00  -0.1829699374E-01  -0.1202538467E-02   0.2604830410E-02   0.5108546449E-03  -0.3237347535E-03
   0.1213337820E+01   0.1318364838E+01   0.5996018698E+00   0.7179899747E-02  -0.2206112063E-02  -0.3981541551E-03   0.0000000000E+00   0.0000000000E+00   0.0000000000E+00   0.1439967092E+00  -0.1811181299E-01  -0.1202964049E-03  -0.3595952213E-02   0.7041675406E-04  -0.3832589603E-03
   0.1428560667E+01   0.1319308757E+01   0.5996041206E+00   0.7497956878E-02  -0.1994252848E-02  -0.3959033880E-03   0.0000000000E+00   0.0000000000E+00   0.0000000000E+00   0.1357623442E+00  -0.1395707816E-01  -0.1661994191E-03  -0.8760987525E-02  -0.8180636066E-04  -0.3395854153E-03
   0.1639501499E+01   0.1320555441E+01   0.5996043620E+00   0.7788229100E-02  -0.1838329019E-02  -0.3956620364E-03   0.0000000000E+00   0.0000000000E+00   0.0000000000E+00   0.1297886521E+00  -0.8612952764E-02   0.3016998201E-04  -0.1200508209E-01  -0.5378191335E-04  -0.2397945657E-03
   0.1848530678E+01   0.1321776285E+01   0.5996041417E+00   0.8060368292E-02  -0.1723634974E-02  -0.3958822661E-03   0.0000000000E+00   0.0000000000E+00   0.0000000000E+00   0.1253905957E+00  -0.3997905966E-02  -0.1254280502E-03  -0.1341818974E-01  -0.1363380524E-04  -0.2009385926E-03
   0.2056761041E+01   0.1322997425E+01   0.5996038220E+00   0.8319150648E-02  -0.1642614810E-02  -0.3962019604E-03   0.0000000000E+00   0.0000000000E+00   0.0000000000E+00   0.1223477800E+00  -0.4063897749E-03  -0.5763145011E-04  -0.1349700256E-01   0.7494057096E-05  -0.1419322012E-03
   0.2264667930E+01   0.1324245927E+01   0.5996036860E+00   0.8569419743E-02  -0.1585842673E-02  -0.3963380384E-03   0.0000000000E+00   0.0000000000E+00   0.0000000000E+00   0.1201786774E+00   0.1991875169E-02  -0.9649744219E-04  -0.1253605904E-01   0.1870557599E-04  -0.1086530169E-03
   0.2472443070E+01   0.1325498284E+01   0.5996036961E+00   0.8813589603E-02  -0.1547755856E-02  -0.3963279061E-03   0.0000000000E+00   0.0000000000E+00   0.0000000000E+00   0.1187109569E+00   0.3499925630E-02  -0.1768298833E-04  -0.1095878607E-01   0.1784204318E-04  -0.7057003764E-04
   0.2680161757E+01   0.1326704798E+01   0.5996038322E+00   0.9054227297E-02  -0.1522481620E-02  -0.3961917787E-03   0.0000000000E+00   0.0000000000E+00   0.0000000000E+00   0.1176538222E+00   0.4301091138E-02  -0.3066826401E-04  -0.8984042615E-02   0.1584743287E-04  -0.4806926658E-04
   0.2887838596E+01   0.1327793248E+01   0.5996040170E+00   0.9292356035E-02  -0.1506682278E-02  -0.3960069679E-03   0.0000000000E+00   0.0000000000E+00   0.0000000000E+00   0.1169479775E+00   0.4710595816E-02   0.2917401118E-04  -0.6828259738E-02   0.1126858986E-04  -0.2734274827E-04
   0.3095440888E+01   0.1328685198E+01   0.5996041950E+00   0.9529138413E-02  -0.1497111990E-02  -0.3958289619E-03   0.0000000000E+00   0.0000000000E+00   0.0000000000E+00   0.1164565412E+00   0.4848381046E-02   0.9333206749E-05  -0.4557533131E-02   0.7988712317E-05  -0.1661415717E-04
   0.3302882896E+01   0.1329320192E+01   0.5996043202E+00   0.9764896219E-02  -0.1492257918E-02  -0.3957037945E-03   0.0000000000E+00   0.0000000000E+00   0.0000000000E+00   0.1161937682E+00   0.4907498372E-02   0.4919557958E-04  -0.2333030953E-02   0.2522689413E-05  -0.8582912434E-05
   0.3510000000E+01   0.1329546616E+01   0.5996043641E+00   0.1000000000E-01  -0.1490663973E-02  -0.3956598789E-03   0.0000000000E+00   0.0000000000E+00   0.0000000000E+00   0.1160926678E+00   0.4897808407E-02   0.2055100036E-04   0.1686134012E-03   0.4410237130E-05  -0.7333134965E-05
   0.1052344254E+01   0.1083780843E+01   0.5996092973E+00   0.7260733857E-02  -0.2180256508E-02  -0.3907267368E-03   0.0000000000E+00   0.0000000000E+00   0.0000000000E+00   0.1364280334E+00  -0.2480341325E-01  -0.1406454093E-02  -0.9922712515E-02   0.5702196113E-03  -0.5176362180E-03
   0.1272846923E+01   0.1091912557E+01   0.5996140513E+00   0.7563223072E-02  -0.1944973232E-02  -0.3859727061E-03   0.0000000000E+00   0.0000000000E+00   0.0000000000E+00   0.1246304403E+00  -0.2223525550E-01   0.1633238233E-03  -0.1482386050E-01  -0.8993482793E-04  -0.3272082620E-03
   0.1481497043E+01   0.1096384741E+01   0.5996148308E+00   0.7829663148E-02  -0.1779338735E-02  -0.3851932183E-03   0.0000000000E+00   0.0000000000E+00   0.0000000000E+00   0.1172768460E+00  -0.1556364070E-01   0.2058223385E-03  -0.1670113241E-01  -0.1481146808E-03  -0.1912637977E-03
   0.1685986868E+01   0.1098720382E+01   0.5996134323E+00   0.8073677625E-02  -0.1657057814E-02  -0.3865916652E-03   0.0000000000E+00   0.0000000000E+00   0.0000000000E+00   0.1122828646E+00  -0.8649995535E-02   0.1816677876E-03  -0.1725015663E-01  -0.1071497164E-03  -0.1106921415E-03
   0.1889106470E+01   0.1100100382E+01   0.5996119737E+00   0.8302880320E-02  -0.1569167824E-02  -0.3880503000E-03   0.0000000000E+00   0.0000000000E+00   0.0000000000E+00   0.1092827001E+00  -0.2986424840E-02   0.1597442759E-04  -0.1667018311E-01  -0.4372167244E-04  -0.6667341655E-04
   0.2091829695E+01   0.1101261066E+01   0.5996104340E+00   0.8522424787E-02  -0.1505323769E-02  -0.3895900200E-03   0.0000000000E+00   0.0000000000E+00   0.0000000000E+00   0.1077164998E+00   0.1259230089E-02  -0.1516391297E-04  -0.1527843504E-01  -0.2313585490E-04  -0.5340733346E-04
   0.2294439581E+01   0.1102429287E+01   0.5996092906E+00   0.8736161306E-02  -0.1460652970E-02  -0.3907333650E-03   0.0000000000E+00   0.0000000000E+00   0.0000000000E+00   0.1071248172E+00   0.4066834706E-02  -0.2983102295E-04  -0.1345454008E-01  -0.6205305261E-05  -0.4114849911E-04
   0.2497008384E+01   0.1103599989E+01   0.5996083894E+00   0.8947193796E-02  -0.1429241451E-02  -0.3916345648E-03   0.0000000000E+00   0.0000000000E+00   0.0000000000E+00   0.1070878114E+00   0.5789816935E-02  -0.2894579786E-04  -0.1134567848E-01  -0.4353831461E-05  -0.3595960801E-04
   0.2699565110E+01   0.1104729043E+01   0.5996078008E+00   0.9157119990E-02  -0.1408236865E-02  -0.3922231991E-03   0.0000000000E+00   0.0000000000E+00   0.0000000000E+00   0.1073351663E+00   0.6738634012E-02  -0.1165715445E-05  -0.9125996874E-02  -0.1367903562E-05  -0.2830259932E-04
   0.2902120521E+01   0.1105763210E+01   0.5996074004E+00   0.9367161493E-02  -0.1394260129E-02  -0.3926236325E-03   0.0000000000E+00   0.0000000000E+00   0.0000000000E+00   0.1076490694E+00   0.7184774634E-02  -0.1029234495E-04  -0.6845586717E-02  -0.1281426830E-05  -0.2379623944E-04
   0.3104678214E+01   0.1106634230E+01   0.5996071739E+00   0.9577573913E-02  -0.1385840460E-02  -0.3928501352E-03   0.0000000000E+00   0.0000000000E+00   0.0000000000E+00   0.1079462068E+00   0.7370710493E-02   0.1719437868E-04  -0.4550237266E-02  -0.4631138366E-06  -0.1913792833E-04
   0.3307260077E+01   0.1107273068E+01   0.5996070476E+00   0.9788556846E-02  -0.1381192250E-02  -0.3929763691E-03   0.0000000000E+00   0.0000000000E+00   0.0000000000E+00   0.1081347790E+00   0.7409542361E-02  -0.1036374649E-05  -0.2306554366E-02   0.2631313545E-06  -0.1717047248E-04
   0.3510000000E+01   0.1107623401E+01   0.5996070129E+00   0.1000000000E-01  -0.1379908642E-02  -0.3930111435E-03   0.0000000000E+00   0.0000000000E+00   0.0000000000E+00   0.1082102548E+00   0.7426050738E-02   0.1990667912E-04   0.1158295341E-03  -0.1829545642E-05  -0.1593395890E-04
   0.3314057939E+01   0.8860105622E+00   0.5996096788E+00   0.9812939219E-02  -0.1284862831E-02  -0.3903452144E-03   0.0000000000E+00   0.0000000000E+00   0.0000000000E+00   0.1004205909E+00   0.9788021938E-02   0.5905867877E-05  -0.1987181323E-02   0.8900247260E-06  -0.2134120929E-04
   0.3510000000E+01   0.8862031733E+00   0.5996095829E+00   0.1000000000E-01  -0.1283284749E-02  -0.3904411001E-03   0.0000000000E+00   0.0000000000E+00   0.0000000000E+00   0.1006098651E+00   0.9780120599E-02  -0.3442911971E-05   0.1800588398E-03  -0.9205004880E-05  -0.2045611478E-04
   0.3321182903E+01   0.6647909473E+00   0.5996121006E+00   0.9834223317E-02  -0.1201193723E-02  -0.3879233900E-03   0.0000000000E+00   0.0000000000E+00   0.0000000000E+00   0.9362972665E-01   0.1169169480E-01  -0.7596628852E-05  -0.1380179729E-02   0.8700676810E-06  -0.1966867676E-04
   0.3510000000E+01   0.6648423231E+00   0.5996119701E+00   0.1000000000E-01  -0.1199587885E-02  -0.3880539452E-03   0.0000000000E+00   0.0000000000E+00   0.0000000000E+00   0.9390976876E-01   0.1167927414E-01  -0.2742486172E-05   0.1445267879E-03  -0.1282084306E-04  -0.1969020889E-04
   0.3327383102E+01   0.4432418014E+00   0.5996141579E+00   0.9850321683E-02  -0.1127753557E-02  -0.3858660912E-03   0.0000000000E+00   0.0000000000E+00   0.0000000000E+00   0.8831807096E-01   0.1285461413E-01  -0.5534264824E-05  -0.6410296262E-03   0.1372964914E-05  -0.1631352929E-04
   0.3510000000E+01   0.4431902850E+00   0.5996140070E+00   0.1000000000E-01  -0.1125654964E-02  -0.3860169959E-03   0.0000000000E+00   0.0000000000E+00   0.0000000000E+00   0.8865270345E-01   0.1282457564E-01  -0.5250633643E-05   0.2392957749E-03  -0.1578152189E-04  -0.1586660214E-04
   0.3331677001E+01   0.2215578820E+00   0.5996157791E+00   0.9860081280E-02  -0.1060489007E-02  -0.3842449047E-03   0.0000000000E+00   0.0000000000E+00   0.0000000000E+00   0.8488220201E-01   0.1304352409E-01  -0.4178218059E-05   0.2180472531E-03   0.1282353456E-05  -0.1223498479E-04
   0.3510000000E+01   0.2213308535E+00   0.5996156226E+00   0.1000000000E-01  -0.1058173512E-02  -0.3844014237E-03   0.0000000000E+00   0.0000000000E+00   0.0000000000E+00   0.8523199171E-01   0.1300730232E-01  -0.7717450262E-05   0.2222608130E-03  -0.1679207770E-04  -0.1227454589E-04
   0.3334493675E+01   0.4801384041E-05   0.5996169053E+00   0.9863894623E-02  -0.9953533760E-03  -0.3831186818E-03   0.0000000000E+00   0.0000000000E+00   0.0000000000E+00   0.8352634607E-01   0.1214655834E-01  -0.7420391387E-05   0.1050457835E-02   0.1030376840E-05  -0.7559356097E-05
   0.3510000000E+01  -0.3060194729E-03   0.5996167541E+00   0.1000000000E-01  -0.9924563649E-03  -0.3832699045E-03   0.0000000000E+00   0.0000000000E+00   0.0000000000E+00   0.8386330384E-01   0.1211798084E-01  -0.1929914001E-05   0.3269122530E-03  -0.1655955881E-04  -0.7357185306E-05
   0.3118221893E+01   0.8856457809E+00   0.5996099698E+00   0.9626762728E-02  -0.1289453103E-02  -0.3900541835E-03   0.0000000000E+00   0.0000000000E+00   0.0000000000E+00   0.9984969695E-01   0.9759088101E-02  -0.8630370282E-05  -0.3884676549E-02  -0.3566203653E-05  -0.2253090859E-04
   0.3132216782E+01   0.6646706081E+00   0.5996125067E+00   0.9669391577E-02  -0.1206495890E-02  -0.3875172921E-03   0.0000000000E+00   0.0000000000E+00   0.0000000000E+00   0.9279142130E-01   0.1172030364E-01  -0.5191343498E-05  -0.2704877117E-02  -0.5840877182E-05  -0.2069750555E-04
   0.3144363975E+01   0.4432818542E+00   0.5996146219E+00   0.9701585288E-02  -0.1133685820E-02  -0.3854020708E-03   0.0000000000E+00   0.0000000000E+00   0.0000000000E+00   0.8731285747E-01   0.1292718426E-01  -0.5927529147E-05  -0.1161692769E-02  -0.6364759565E-05  -0.1642350011E-04
   0.3152841617E+01   0.2217728978E+00   0.5996162642E+00   0.9721087138E-02  -0.1067709231E-02  -0.3837598259E-03   0.0000000000E+00   0.0000000000E+00   0.0000000000E+00   0.8380953962E-01   0.1313858020E-01  -0.6768638148E-05   0.5654802856E-03  -0.7419450470E-05  -0.1307162891E-04
   0.3158618758E+01   0.4224555425E-03   0.5996173715E+00   0.9728737697E-02  -0.1003563228E-02  -0.3826525358E-03   0.0000000000E+00   0.0000000000E+00   0.0000000000E+00   0.8249912361E-01   0.1223023705E-01  -0.8228303442E-05   0.2320166445E-02  -0.7908363160E-05  -0.7483864642E-05
   0.2922404696E+01   0.8851373342E+00   0.5996104884E+00   0.9442016053E-02  -0.1297935764E-02  -0.3895356153E-03   0.0000000000E+00   0.0000000000E+00   0.0000000000E+00   0.9893657005E-01   0.9641508077E-02  -0.1174031638E-05  -0.5909626540E-02  -0.4575821746E-05  -0.2557610812E-04
   0.2943144941E+01   0.6644811611E+00   0.5996132122E+00   0.9506610546E-02  -0.1215340903E-02  -0.3868117798E-03   0.0000000000E+00   0.0000000000E+00   0.0000000000E+00   0.9139943371E-01   0.1168812932E-01  -0.1156089035E-04  -0.4155053249E-02  -0.6682447377E-05  -0.2118781101E-04
   0.2961116173E+01   0.4432984639E+00   0.5996154291E+00   0.9555203067E-02  -0.1143957149E-02  -0.3845949233E-03   0.0000000000E+00   0.0000000000E+00   0.0000000000E+00   0.8561096666E-01   0.1299731283E-01  -0.1143756795E-04  -0.1838165281E-02  -0.7211026931E-05  -0.1758396386E-04
   0.2973766966E+01   0.2220071549E+00   0.5996171060E+00   0.9584586032E-02  -0.1079515062E-02  -0.3829180262E-03   0.0000000000E+00   0.0000000000E+00   0.0000000000E+00   0.8199740976E-01   0.1326348175E-01  -0.7036782310E-06   0.7995523933E-03  -0.8304935974E-05  -0.1378145352E-04
   0.2982671915E+01   0.9503703722E-03   0.5996181787E+00   0.9596045051E-02  -0.1017462078E-02  -0.3818452622E-03   0.0000000000E+00   0.0000000000E+00   0.0000000000E+00   0.8076638715E-01   0.1234140220E-01  -0.1804758631E-04   0.3479679311E-02  -0.8904901517E-05  -0.7871522509E-05
   0.2726584939E+01   0.8845233003E+00   0.5996112778E+00   0.9259248799E-02  -0.1310678668E-02  -0.3887461671E-03   0.0000000000E+00   0.0000000000E+00   0.0000000000E+00   0.9771576587E-01   0.9264286992E-02  -0.1660596284E-04  -0.7982986209E-02  -0.5455819121E-05  -0.2727783934E-04
   0.2754007676E+01   0.6642333287E+00   0.5996142740E+00   0.9346825952E-02  -0.1228569293E-02  -0.3857500079E-03   0.0000000000E+00   0.0000000000E+00   0.0000000000E+00   0.8946263024E-01   0.1150144827E-01  -0.1358573624E-04  -0.5701383729E-02  -0.8608743986E-05  -0.2258352509E-04
   0.2777742875E+01   0.4432905035E+00   0.5996166331E+00   0.9412535036E-02  -0.1158325466E-02  -0.3833908625E-03   0.0000000000E+00   0.0000000000E+00   0.0000000000E+00   0.8320366040E-01   0.1298569585E-01  -0.8152264043E-05  -0.2578603905E-02  -0.8054695623E-05  -0.1767773331E-04
   0.2795678221E+01   0.2220002999E+00   0.5996183509E+00   0.9452900816E-02  -0.1096160060E-02  -0.3816731070E-03   0.0000000000E+00   0.0000000000E+00   0.0000000000E+00   0.7938147152E-01   0.1335695007E-01  -0.1164967472E-04   0.1034170652E-02  -0.1043992249E-04  -0.1599238436E-04
   0.2808951116E+01   0.1015945172E-02   0.5996193593E+00   0.9468765822E-02  -0.1036235298E-02  -0.3806647031E-03   0.0000000000E+00   0.0000000000E+00   0.0000000000E+00   0.7824948882E-01   0.1243975756E-01  -0.2734900586E-04   0.4717348215E-02  -0.1276008327E-04  -0.8237684415E-05
   0.2530760547E+01   0.8838414638E+00   0.5996124000E+00   0.9078526725E-02  -0.1329353204E-02  -0.3876239508E-03   0.0000000000E+00   0.0000000000E+00   0.0000000000E+00   0.9628763325E-01   0.8452788377E-02  -0.1906003326E-04  -0.1016827969E-01  -0.8243543176E-05  -0.3240317387E-04
   0.2564834952E+01   0.6639441305E+00   0.5996157537E+00   0.9190912086E-02  -0.1246268547E-02  -0.3842702635E-03   0.0000000000E+00   0.0000000000E+00   0.0000000000E+00   0.8701474116E-01   0.1097589787E-01  -0.1202533995E-04  -0.7423078181E-02  -0.1019277442E-04  -0.2219733974E-04
   0.2594842500E+01   0.4431385144E+00   0.5996183033E+00   0.9275260341E-02  -0.1177336640E-02  -0.3817207162E-03   0.0000000000E+00   0.0000000000E+00   0.0000000000E+00   0.8003704193E-01   0.1277738668E-01  -0.1792098632E-04  -0.3473308521E-02  -0.9863377017E-05  -0.1888913605E-04
   0.2616575639E+01   0.2222111254E+00   0.5996200857E+00   0.9325899190E-02  -0.1117569643E-02  -0.3799383156E-03   0.0000000000E+00   0.0000000000E+00   0.0000000000E+00   0.7593702680E-01   0.1334745016E-01   0.1283705474E-04   0.1179646699E-02  -0.1128822399E-04  -0.1797098689E-04
   0.2632978439E+01   0.1608719188E-02   0.5996210075E+00   0.9345059073E-02  -0.1060931872E-02  -0.3790164972E-03   0.0000000000E+00   0.0000000000E+00   0.0000000000E+00   0.7492539478E-01   0.1246524331E-01  -0.4087874991E-04   0.5994362353E-02  -0.1233998439E-04  -0.8927746775E-05
   0.2334928764E+01   0.8831243580E+00   0.5996139354E+00   0.8899703615E-02  -0.1354985999E-02  -0.3860885669E-03   0.0000000000E+00   0.0000000000E+00   0.0000000000E+00   0.9480110802E-01   0.6910500034E-02  -0.2609011319E-05  -0.1246095883E-01  -0.1002179206E-04  -0.3216537398E-04
   0.2375643167E+01   0.6636293500E+00   0.5996177622E+00   0.9039316556E-02  -0.1269701023E-02  -0.3822617873E-03   0.0000000000E+00   0.0000000000E+00   0.0000000000E+00   0.8409777924E-01   0.9886416412E-02  -0.2621052397E-04  -0.9400242343E-02  -0.1378793846E-04  -0.2373173476E-04
   0.2411237051E+01   0.4431242667E+00   0.5996205751E+00   0.9143640964E-02  -0.1200942270E-02  -0.3794489094E-03   0.0000000000E+00   0.0000000000E+00   0.0000000000E+00   0.7608817880E-01   0.1218605788E-01   0.7701027974E-05  -0.4612991935E-02  -0.1202182035E-04  -0.1853277384E-04
   0.2440025035E+01   0.2219650409E+00   0.5996224046E+00   0.9207665118E-02  -0.1143474088E-02  -0.3776194207E-03   0.0000000000E+00   0.0000000000E+00   0.0000000000E+00   0.7153669729E-01   0.1310156647E-01   0.2012758144E-04   0.1234566887E-02  -0.1543723297E-04  -0.2075730076E-04
   0.2465612724E+01   0.7719733982E-03   0.5996231128E+00   0.9233543944E-02  -0.1088857532E-02  -0.3769111582E-03   0.0000000000E+00   0.0000000000E+00   0.0000000000E+00   0.7079992821E-01   0.1231487532E-01  -0.7035671629E-04   0.7274237995E-02  -0.1518127634E-04  -0.8036064150E-05
   0.2139086361E+01   0.8823938087E+00   0.5996159415E+00   0.8721701264E-02  -0.1390426317E-02  -0.3840824570E-03   0.0000000000E+00   0.0000000000E+00   0.0000000000E+00   0.9346869669E-01   0.4309379534E-02   0.5852352830E-05  -0.1490160782E-01  -0.2808946000E-04  -0.4440031856E-04
   0.2186452852E+01   0.6632890305E+00   0.5996204144E+00   0.8892281816E-02  -0.1299301482E-02  -0.3796096339E-03   0.0000000000E+00   0.0000000000E+00   0.0000000000E+00   0.8083931091E-01   0.7961737348E-02   0.6824350218E-04  -0.1172043152E-01  -0.3008617188E-04  -0.2558678378E-04
   0.2228297215E+01   0.4429301345E+00   0.5996235944E+00   0.9019834789E-02  -0.1229641474E-02  -0.3764296376E-03   0.0000000000E+00   0.0000000000E+00   0.0000000000E+00   0.7126189682E-01   0.1096872961E-01   0.5821778283E-05  -0.6094137940E-02  -0.3229699163E-04  -0.2398425122E-04
   0.2264697663E+01   0.2213473270E+00   0.5996254767E+00   0.9098643086E-02  -0.1173427021E-02  -0.3745473160E-03   0.0000000000E+00   0.0000000000E+00   0.0000000000E+00   0.6608045990E-01   0.1247182415E-01   0.1245110671E-03   0.1112328464E-02  -0.3589035181E-04  -0.2607911428E-04
   0.2301117348E+01  -0.1120538696E-02   0.5996258243E+00   0.9131118465E-02  -0.1120538696E-02  -0.3741996716E-03   0.0000000000E+00   0.0000000000E+00   0.0000000000E+00   0.6573969677E-01   0.1191295505E-01  -0.4606639091E-04   0.8662701782E-02  -0.3586365632E-04  -0.8084310029E-05
   0.1943240779E+01   0.8815654665E+00   0.5996185346E+00   0.8542909242E-02  -0.1437768517E-02  -0.3814893680E-03   0.0000000000E+00   0.0000000000E+00   0.0000000000E+00   0.9264963943E-01   0.3036269239E-03   0.1708645149E-03  -0.1741871596E-01  -0.5961931038E-04  -0.5144934714E-04
   0.1997333465E+01   0.6627612257E+00   0.5996239249E+00   0.8749665437E-02  -0.1337096311E-02  -0.3760991384E-03   0.0000000000E+00   0.0000000000E+00   0.0000000000E+00   0.7727168409E-01   0.4753319503E-02   0.1192225010E-03  -0.1448901834E-01  -0.7965096761E-04  -0.4436843494E-04
   0.2045302242E+01   0.4425534489E+00   0.5996276915E+00   0.8904312289E-02  -0.1263421131E-02  -0.3723325214E-03   0.0000000000E+00   0.0000000000E+00   0.0000000000E+00   0.6554827133E-01   0.8875575000E-02   0.2542587254E-03  -0.8054676123E-02  -0.8894175717E-04  -0.3689244411E-04
   0.2087580191E+01   0.2209772186E+00   0.5996296769E+00   0.8998620941E-02  -0.1208333384E-02  -0.3703471060E-03   0.0000000000E+00   0.0000000000E+00   0.0000000000E+00   0.5925705895E-01   0.1115640832E-01   0.2097790812E-03   0.6885172515E-03  -0.9276155634E-04  -0.3748680961E-04
   0.2128402165E+01  -0.1158550171E-02   0.5996296435E+00   0.9033134881E-02  -0.1158550171E-02  -0.3703804824E-03   0.0000000000E+00   0.0000000000E+00   0.0000000000E+00   0.5922123757E-01   0.1100155894E-01   0.8113424243E-04   0.9983328906E-02  -0.8166194329E-04  -0.5785991045E-05
   0.1747362736E+01   0.8801095697E+00   0.5996216250E+00   0.8360985835E-02  -0.1502135310E-02  -0.3783989942E-03   0.0000000000E+00   0.0000000000E+00   0.0000000000E+00   0.9266201838E-01  -0.5519820331E-02   0.2660495820E-03  -0.1994171888E-01  -0.1552401389E-03  -0.1254339141E-03
   0.1808457812E+01   0.6613795434E+00   0.5996284931E+00   0.8611161939E-02  -0.1384290646E-02  -0.3715308833E-03   0.0000000000E+00   0.0000000000E+00   0.0000000000E+00   0.7363293854E-01  -0.2858144766E-04   0.5723180488E-03  -0.1776915262E-01  -0.2048595115E-03  -0.1037294241E-03
   0.1862547301E+01   0.4414012500E+00   0.5996332256E+00   0.8798740825E-02  -0.1303427972E-02  -0.3667983812E-03   0.0000000000E+00   0.0000000000E+00   0.0000000000E+00   0.5860734021E-01   0.5261781139E-02   0.4684511179E-03  -0.1060025000E-01  -0.2602698440E-03  -0.9106668988E-04
   0.1908658456E+01   0.2205396595E+00   0.5996355094E+00   0.8909655627E-02  -0.1247659512E-02  -0.3645145763E-03   0.0000000000E+00   0.0000000000E+00   0.0000000000E+00   0.5087947749E-01   0.8744060747E-02   0.7703675860E-03  -0.1266249241E-03  -0.2692865019E-03  -0.6174892442E-04
   0.1950276029E+01  -0.1925440756E-03   0.5996350057E+00   0.8944288564E-02  -0.1201261656E-02  -0.3650183293E-03   0.0000000000E+00   0.0000000000E+00   0.0000000000E+00   0.5094456731E-01   0.9043488279E-02   0.2456156501E-03   0.1129124106E-01  -0.2235617857E-03   0.7069954655E-05
   0.1551265452E+01   0.8767191517E+00   0.5996252687E+00   0.8173681805E-02  -0.1587833338E-02  -0.3747553426E-03   0.0000000000E+00   0.0000000000E+00   0.0000000000E+00   0.9393188243E-01  -0.1281508508E-01   0.8794607152E-03  -0.2211150887E-01  -0.2619185387E-03  -0.2248981362E-03
   0.1620325160E+01   0.6577632655E+00   0.5996344606E+00   0.8477759631E-02  -0.1445091500E-02  -0.3655633514E-03   0.0000000000E+00   0.0000000000E+00   0.0000000000E+00   0.6962968245E-01  -0.7168406633E-02   0.7358812236E-03  -0.2126462010E-01  -0.4398988845E-03  -0.2784459354E-03
   0.1680711415E+01   0.4384707594E+00   0.5996409518E+00   0.8704805322E-02  -0.1350245615E-02  -0.3590722397E-03   0.0000000000E+00   0.0000000000E+00   0.0000000000E+00   0.5030919978E-01  -0.4951651632E-03   0.1199648339E-02  -0.1371016919E-01  -0.5954643441E-03  -0.2333096986E-03
   0.1732190633E+01   0.2188874489E+00   0.5996437027E+00   0.8836892576E-02  -0.1290544121E-02  -0.3563212996E-03   0.0000000000E+00   0.0000000000E+00   0.0000000000E+00   0.4022473919E-01   0.4238381963E-02   0.1216046704E-02  -0.1234784956E-02  -0.6336653110E-03  -0.1145375491E-03
   0.1779125282E+01  -0.3265610122E-03   0.5996423588E+00   0.8872461744E-02  -0.1244652461E-02  -0.3576651752E-03   0.0000000000E+00   0.0000000000E+00   0.0000000000E+00   0.4075550500E-01   0.5555810840E-02   0.7702615997E-03   0.1241142997E-01  -0.5336395179E-03   0.3532715490E-04
   0.1354754375E+01   0.8693039329E+00   0.5996283695E+00   0.7981224994E-02  -0.1705000118E-02  -0.3716545226E-03   0.0000000000E+00   0.0000000000E+00   0.0000000000E+00   0.9636947662E-01  -0.2180531797E-01   0.5435728843E-03  -0.2366501006E-01  -0.3448947489E-03  -0.5509361422E-03
   0.1434516609E+01   0.6500095374E+00   0.5996418220E+00   0.8351978592E-02  -0.1523887626E-02  -0.3582020276E-03   0.0000000000E+00   0.0000000000E+00   0.0000000000E+00   0.6536154482E-01  -0.1591200223E-01   0.2034608801E-02  -0.2480145090E-01  -0.7828324066E-03  -0.7002147284E-03
   0.1502566088E+01   0.4324052703E+00   0.5996511603E+00   0.8626687958E-02  -0.1407556746E-02  -0.3488637395E-03   0.0000000000E+00   0.0000000000E+00   0.0000000000E+00   0.3979941220E-01  -0.9699765918E-02   0.1388617355E-02  -0.1643331211E-01  -0.1186255556E-02  -0.5508373850E-03
   0.1557252291E+01   0.2159024958E+00   0.5996549829E+00   0.8780361242E-02  -0.1337554241E-02  -0.3450410791E-03   0.0000000000E+00   0.0000000000E+00   0.0000000000E+00   0.2729460212E-01  -0.4000429284E-02   0.1943223044E-02  -0.2529104181E-02  -0.1308896387E-02  -0.2333616229E-03
   0.1602029581E+01   0.4344235421E-03   0.5996528848E+00   0.8814831374E-02  -0.1289328348E-02  -0.3471391621E-03   0.0000000000E+00   0.0000000000E+00   0.0000000000E+00   0.2778127312E-01  -0.1389048975E-02   0.1447355012E-02   0.1307772073E-01  -0.1148099166E-02   0.1025285999E-03
   0.1158821599E+01   0.8547972802E+00   0.5996303219E+00   0.7788788648E-02  -0.1860880773E-02  -0.3697020829E-03   0.0000000000E+00   0.0000000000E+00   0.0000000000E+00   0.1004095806E+00  -0.2704438813E-01   0.2281335139E-02  -0.2468280078E-01  -0.9372833843E-04  -0.1171564903E-02
   0.1255240056E+01   0.6359635282E+00   0.5996501985E+00   0.8245445972E-02  -0.1630336759E-02  -0.3498255480E-03   0.0000000000E+00   0.0000000000E+00   0.0000000000E+00   0.5701113294E-01  -0.2634313491E-01   0.4063861343E-03  -0.2563150029E-01  -0.1049256523E-02  -0.1524594544E-02
   0.1332594695E+01   0.4222124846E+00   0.5996642156E+00   0.8565965454E-02  -0.1481589408E-02  -0.3358083908E-03   0.0000000000E+00   0.0000000000E+00   0.0000000000E+00   0.2761852900E-01  -0.2378034838E-01   0.9930130085E-03  -0.1683034598E-01  -0.1802288235E-02  -0.1145614272E-02
   0.1387740074E+01   0.2110367438E+00   0.5996701130E+00   0.8740723597E-02  -0.1390246210E-02  -0.3299109567E-03   0.0000000000E+00   0.0000000000E+00   0.0000000000E+00   0.1265509017E-01  -0.1930664356E-01   0.1379060719E-02  -0.2877322133E-02  -0.2142338285E-02  -0.4255738912E-03
   0.1422657918E+01   0.1829227697E-02   0.5996681376E+00   0.8773277694E-02  -0.1331509753E-02  -0.3318863540E-03   0.0000000000E+00   0.0000000000E+00   0.0000000000E+00   0.1257019929E-01  -0.1554989714E-01   0.1448452142E-02   0.1290450612E-01  -0.2027310286E-02   0.2367762394E-03
   0.9709715346E+00   0.8278030681E+00   0.5996277886E+00   0.7637570584E-02  -0.2063877908E-02  -0.3722353808E-03   0.0000000000E+00   0.0000000000E+00   0.0000000000E+00   0.9836101912E-01  -0.2607751381E-01   0.1609665796E-02  -0.2883798694E-01   0.7904076169E-03  -0.2491751336E-02
   0.1092771656E+01   0.6146986387E+00   0.5996572779E+00   0.8170136322E-02  -0.1773903253E-02  -0.3427461150E-03   0.0000000000E+00   0.0000000000E+00   0.0000000000E+00   0.4603144458E-01  -0.3564154490E-01  -0.2182425691E-02  -0.2176903429E-01  -0.3775850374E-03  -0.2581005593E-02
   0.1180325802E+01   0.4085453724E+00   0.5996767796E+00   0.8523991740E-02  -0.1578541607E-02  -0.3232443810E-03   0.0000000000E+00   0.0000000000E+00   0.0000000000E+00   0.1422938468E-01  -0.4292645730E-01  -0.1881575083E-02  -0.1206638512E-01  -0.1412921986E-02  -0.1778160359E-02
   0.1238322576E+01   0.2041641344E+00   0.5996854118E+00   0.8710825520E-02  -0.1448986579E-02  -0.3146121720E-03   0.0000000000E+00   0.0000000000E+00   0.0000000000E+00  -0.5988441662E-03  -0.4417754057E-01  -0.1867918120E-02  -0.6850629268E-03  -0.2019459829E-02  -0.5812230744E-03
   0.1266620728E+01   0.1071685022E-02   0.5996838240E+00   0.8744098136E-02  -0.1358824758E-02  -0.3162000430E-03   0.0000000000E+00   0.0000000000E+00   0.0000000000E+00  -0.1214159687E-02  -0.3921504443E-01  -0.7968084262E-03   0.1148507117E-01  -0.2052973093E-02   0.5183227926E-03
   0.1109223994E+01   0.1925914638E+00   0.5996983836E+00   0.8675254176E-02  -0.1515249172E-02  -0.3016404033E-03   0.0000000000E+00   0.0000000000E+00   0.0000000000E+00  -0.7729759913E-02  -0.8566794351E-01  -0.1459173790E-01   0.8980336814E-02  -0.9726708632E-03  -0.7143127442E-03
   0.1132686208E+01  -0.1431110708E-02   0.5996970809E+00   0.8705327671E-02  -0.1369383346E-02  -0.3029431275E-03   0.0000000000E+00   0.0000000000E+00   0.0000000000E+00  -0.6990887804E-02  -0.8256166632E-01  -0.1397214690E-01   0.7374335832E-02  -0.1144512164E-02   0.9979591209E-03
   0.9925331316E+00   0.1769891491E+00   0.5997114478E+00   0.8609457574E-02  -0.1600477930E-02  -0.2885761607E-03   0.0000000000E+00   0.0000000000E+00   0.0000000000E+00  -0.3653824712E-02  -0.1319677363E+00  -0.1609167740E-01   0.2255787394E-01   0.4186468768E-03  -0.8915500345E-03
   0.1008628062E+01  -0.1360729162E-02   0.5997108112E+00   0.8628062342E-02  -0.1360729162E-02  -0.2892128184E-03   0.0000000000E+00   0.0000000000E+00   0.0000000000E+00   0.9725651859E-04  -0.1325698553E+00  -0.1479665145E-01   0.1978010636E-02   0.2164520170E-03   0.1616420618E-02
   0.1053268047E+01   0.3881168692E+00   0.5996867755E+00   0.8497567040E-02  -0.1703855751E-02  -0.3132484512E-03   0.0000000000E+00   0.0000000000E+00   0.0000000000E+00  -0.1407971443E-02  -0.6932364867E-01  -0.1471747763E-01   0.6956556282E-02  -0.1621038508E-03  -0.2526998957E-02
   0.9430649530E+00   0.3538791362E+00   0.5996978503E+00   0.8480276011E-02  -0.1861559758E-02  -0.3021736723E-03   0.0000000000E+00   0.0000000000E+00   0.0000000000E+00  -0.9524903808E-02  -0.9678204193E-01  -0.1581155486E-01   0.3143234425E-01   0.1440836357E-02  -0.3448815648E-02
   0.9629370762E+00   0.5825005672E+00   0.5996618583E+00   0.8155663184E-02  -0.1940319804E-02  -0.3381657441E-03   0.0000000000E+00   0.0000000000E+00   0.0000000000E+00   0.2128558180E-01  -0.3680580356E-01  -0.1139686855E-01  -0.7375830599E-02   0.1228031594E-02  -0.3867699897E-02
   0.8587456583E+00   0.5238068295E+00   0.5996699523E+00   0.8228027297E-02  -0.2139728542E-02  -0.3300717118E-03   0.0000000000E+00   0.0000000000E+00   0.0000000000E+00  -0.3429040983E-02  -0.3850760811E-01  -0.1392333444E-01   0.1649252795E-01   0.3478465153E-02  -0.5278092135E-02
   0.8396942944E+00   0.7713183268E+00   0.5996255083E+00   0.7638546395E-02  -0.2234866173E-02  -0.3745157332E-03   0.0000000000E+00   0.0000000000E+00   0.0000000000E+00   0.7503015682E-01  -0.7968984947E-02  -0.6331586801E-02  -0.2707983883E-01   0.2885559720E-02  -0.3795995915E-02
   0.7409515612E+00   0.6776895924E+00   0.5996301946E+00   0.7838809231E-02  -0.2417583629E-02  -0.3698293703E-03   0.0000000000E+00   0.0000000000E+00   0.0000000000E+00   0.3940429970E-01   0.1450149526E-01  -0.7605498044E-02  -0.2469869438E-01   0.5859572952E-02  -0.6153896346E-02
  -0.6284919754E+00   0.1808567389E+01   0.5995950660E+00   0.4220686641E-02  -0.3388180814E-02  -0.4049580467E-03   0.0000000000E+00   0.0000000000E+00   0.0000000000E+00   0.1370544958E+00  -0.4920296307E-03  -0.1415732225E-02  -0.1248290133E-01   0.1001168960E-02   0.1661930369E-03
  -0.6369573378E+00   0.1996501125E+01   0.5996026651E+00   0.4405448194E-02  -0.3498874571E-02  -0.3973589312E-03   0.0000000000E+00   0.0000000000E+00   0.0000000000E+00   0.1243104806E+00   0.4310873874E-03   0.8242270348E-03  -0.3737718183E-02   0.2685803167E-02   0.5589877835E-04
  -0.6230793016E+00   0.1620751337E+01   0.5995870146E+00   0.4072903391E-02  -0.3258753459E-02  -0.4130093875E-03   0.0000000000E+00   0.0000000000E+00   0.0000000000E+00   0.1539205109E+00  -0.1026784450E-02  -0.1334200927E-02  -0.1900306791E-01   0.2276971758E-03   0.5033882191E-03
  -0.6190966875E+00   0.1430858017E+01   0.5995784976E+00   0.3916451533E-02  -0.3110053019E-02  -0.4215264000E-03   0.0000000000E+00   0.0000000000E+00   0.0000000000E+00   0.1706016690E+00  -0.7926995494E-03  -0.7127884364E-03  -0.1629588120E-01  -0.6712588905E-03   0.9170702048E-03
  -0.6247339165E+00   0.1232930293E+01   0.5995718434E+00   0.3683515548E-02  -0.2923617434E-02  -0.4281805830E-03   0.0000000000E+00   0.0000000000E+00   0.0000000000E+00   0.1852004711E+00  -0.3170556443E-02  -0.2576242064E-02  -0.3373465828E-02  -0.1743701986E-02   0.3851069966E-03
  -0.6496216424E+00   0.1008198436E+01   0.5995787442E+00   0.3221713570E-02  -0.2683944345E-02  -0.4212798398E-03   0.0000000000E+00   0.0000000000E+00   0.0000000000E+00   0.1690957523E+00   0.6409278639E-02   0.3637910155E-02   0.3050048371E-01  -0.3469650824E-02  -0.1554179395E-02
  -0.5244530593E+00   0.8468752181E+00   0.5995670119E+00   0.2912386733E-02  -0.2763362882E-02  -0.4330121450E-03   0.0000000000E+00   0.0000000000E+00   0.0000000000E+00   0.1688667490E+00   0.4213706682E-01  -0.1624888201E-02   0.8181763713E-01  -0.7978676146E-02  -0.5490866927E-02
  -0.8160654957E+00   0.7977922541E+00   0.5996204567E+00   0.2443606327E-02  -0.2267540897E-02  -0.3795673183E-03   0.0000000000E+00   0.0000000000E+00   0.0000000000E+00   0.8250188105E-01  -0.2546773000E-02  -0.1053509669E-03   0.3377645541E-01  -0.2700688407E-02  -0.3925605896E-02
  -0.6983502884E+00   0.7110486153E+00   0.5996189163E+00   0.2267740617E-02  -0.2487945717E-02  -0.3811076833E-03   0.0000000000E+00   0.0000000000E+00   0.0000000000E+00   0.5722929800E-01   0.2357514236E-01  -0.1023594116E-01   0.3336870322E-01  -0.6228616242E-02  -0.5959380653E-02
  -0.9455204830E+00   0.6001168564E+00   0.5996585394E+00   0.1881279009E-02  -0.1961044606E-02  -0.3414846377E-03   0.0000000000E+00   0.0000000000E+00   0.0000000000E+00   0.2346614762E-01  -0.3379667865E-01  -0.1283130423E-01   0.8515658387E-02  -0.1352498260E-02  -0.3988809655E-02
  -0.8331627014E+00   0.5480944518E+00   0.5996642109E+00   0.1818501563E-02  -0.2184033210E-02  -0.3358130734E-03   0.0000000000E+00   0.0000000000E+00   0.0000000000E+00  -0.1832354096E-02  -0.3169663193E-01  -0.1511698969E-01  -0.1266770889E-01  -0.3707374703E-02  -0.5798588556E-02
  -0.1041992516E+01   0.4004047130E+00   0.5996852806E+00   0.1516373524E-02  -0.1712717978E-02  -0.3147434468E-03   0.0000000000E+00   0.0000000000E+00   0.0000000000E+00  -0.8504715684E-03  -0.6676750341E-01  -0.1405060358E-01  -0.6002372762E-02   0.1433170468E-03  -0.2640788561E-02
  -0.9270168134E+00   0.3693140452E+00   0.5996957224E+00   0.1535158576E-02  -0.1888423782E-02  -0.3043015634E-03   0.0000000000E+00   0.0000000000E+00   0.0000000000E+00  -0.9376584074E-02  -0.9294274838E-01  -0.1630054084E-01  -0.3163913009E-01  -0.1632539193E-02  -0.3664238085E-02
  -0.1103714208E+01   0.1998098481E+00   0.5996975276E+00   0.1325151591E-02  -0.1518816916E-02  -0.3024963953E-03   0.0000000000E+00   0.0000000000E+00   0.0000000000E+00  -0.7821269288E-02  -0.8324043223E-01  -0.1473487892E-01  -0.9152693954E-02   0.1044902798E-02  -0.7206210076E-03
  -0.9808101695E+00   0.1862017300E+00   0.5997110480E+00   0.1393910520E-02  -0.1615142961E-02  -0.2889760199E-03   0.0000000000E+00   0.0000000000E+00   0.0000000000E+00  -0.3863444613E-02  -0.1304717278E+00  -0.1570904384E-01  -0.2272998873E-01  -0.4247395097E-03  -0.9905805577E-03
  -0.1131305589E+01   0.4359664968E-03   0.5996962189E+00   0.1290780687E-02  -0.1371535043E-02  -0.3038051151E-03   0.0000000000E+00   0.0000000000E+00   0.0000000000E+00  -0.6873211190E-02  -0.8051678171E-01  -0.1360066802E-01  -0.7585521391E-02   0.1204966794E-02   0.8872058144E-03
  -0.9986015683E+00   0.6071092595E-02   0.5997110093E+00   0.1370715710E-02  -0.1373386905E-02  -0.2890146794E-03   0.0000000000E+00   0.0000000000E+00   0.0000000000E+00   0.2004397454E-04  -0.1327078470E+00  -0.1410892170E-01  -0.2601711923E-02  -0.2799811729E-03   0.1482212388E-02
  -0.1236858439E+01   0.2076113472E+00   0.5996843090E+00   0.1288341305E-02  -0.1446430811E-02  -0.3157150167E-03   0.0000000000E+00   0.0000000000E+00   0.0000000000E+00   0.3085485597E-03  -0.4144468059E-01  -0.1032317161E-02   0.1028415973E-02   0.2060112461E-02  -0.5811633260E-03
  -0.1273670347E+01   0.9116069889E-03   0.5996821547E+00   0.1252023418E-02  -0.1357065931E-02  -0.3178693478E-03   0.0000000000E+00   0.0000000000E+00   0.0000000000E+00   0.1829007378E-03  -0.3653170391E-01  -0.2717991506E-03  -0.1145605055E-01   0.2084270087E-02   0.4443171902E-03
  -0.1390036551E+01   0.2112493588E+00   0.5996688527E+00   0.1257448815E-02  -0.1386397244E-02  -0.3311713350E-03   0.0000000000E+00   0.0000000000E+00   0.0000000000E+00   0.1376116248E-01  -0.1766296518E-01   0.1595766677E-02   0.2758785485E-02   0.2120532374E-02  -0.4418658886E-03
  -0.1431079035E+01   0.7722943083E-03   0.5996665006E+00   0.1222365228E-02  -0.1326599672E-02  -0.3335233651E-03   0.0000000000E+00   0.0000000000E+00   0.0000000000E+00   0.1396926679E-01  -0.1397546536E-01   0.1394796555E-02  -0.1272861273E-01   0.1997316286E-02   0.1953230821E-03
  -0.1555081489E+01   0.2124690437E+00   0.5996543644E+00   0.1217121297E-02  -0.1334396281E-02  -0.3456596221E-03   0.0000000000E+00   0.0000000000E+00   0.0000000000E+00   0.2808473726E-01  -0.3429891441E-02   0.1980442169E-02   0.2268260010E-02   0.1264393861E-02  -0.2252319993E-03
  -0.1597290979E+01   0.5689388853E-03   0.5996525538E+00   0.1183160723E-02  -0.1287760465E-02  -0.3474701582E-03   0.0000000000E+00   0.0000000000E+00   0.0000000000E+00   0.2825040874E-01  -0.1000835987E-02   0.1549659239E-02  -0.1277027030E-01   0.1125015711E-02   0.6634778380E-04
  -0.1726597245E+01   0.2123492893E+00   0.5996435005E+00   0.1160564515E-02  -0.1288092686E-02  -0.3565234950E-03   0.0000000000E+00   0.0000000000E+00   0.0000000000E+00   0.4053657750E-01   0.4330624816E-02   0.1240415148E-02   0.8888922523E-03   0.6073994673E-03  -0.1100894236E-03
  -0.1767811987E+01   0.4137976141E-03   0.5996424384E+00   0.1127862501E-02  -0.1244749706E-02  -0.3575856156E-03   0.0000000000E+00   0.0000000000E+00   0.0000000000E+00   0.4072435310E-01   0.5643190618E-02   0.8746378035E-03  -0.1213962783E-01   0.5342599956E-03   0.1821179973E-04
  -0.1901360132E+01   0.2115251843E+00   0.5996354696E+00   0.1087568202E-02  -0.1245456746E-02  -0.3645543564E-03   0.0000000000E+00   0.0000000000E+00   0.0000000000E+00   0.5079437557E-01   0.8745849013E-02   0.6192181802E-03  -0.3552717959E-03   0.2618385007E-03  -0.5238103350E-04
  -0.1939999746E+01   0.2948559516E-03   0.5996350108E+00   0.1056144179E-02  -0.1201382098E-02  -0.3650132119E-03   0.0000000000E+00   0.0000000000E+00   0.0000000000E+00   0.5087384376E-01   0.9113237950E-02   0.3477694611E-03  -0.1109431527E-01   0.2305362694E-03  -0.3811775448E-05
  -0.2077689228E+01   0.2103438556E+00   0.5996297622E+00   0.9998720057E-03  -0.1206290450E-02  -0.3702617938E-03   0.0000000000E+00   0.0000000000E+00   0.0000000000E+00   0.5916550589E-01   0.1113099547E-01   0.2666871526E-03  -0.1132853369E-02   0.9150426796E-04  -0.3088339373E-04
  -0.2112860645E+01   0.1769179298E-03   0.5996297791E+00   0.9701551514E-03  -0.1159950110E-02  -0.3702449413E-03   0.0000000000E+00   0.0000000000E+00   0.0000000000E+00   0.5903508910E-01   0.1097414094E-01   0.4699374705E-04  -0.9878888584E-02   0.7994903516E-04  -0.6442869178E-05
  -0.2254759509E+01   0.2089871742E+00   0.5996255642E+00   0.8998307679E-03  -0.1171113776E-02  -0.3744598219E-03   0.0000000000E+00   0.0000000000E+00   0.0000000000E+00   0.6593250782E-01   0.1248523702E-01   0.1158033747E-03  -0.1528889465E-02   0.3533069861E-04  -0.2164877850E-04
  -0.2286018614E+01   0.4792901014E-04   0.5996259143E+00   0.8721357874E-03  -0.1121916450E-02  -0.3741097074E-03   0.0000000000E+00   0.0000000000E+00   0.0000000000E+00   0.6566272832E-01   0.1189865603E-01  -0.6137747120E-04  -0.8572091460E-02   0.3266195719E-04  -0.8853556073E-05
  -0.2431867315E+01   0.2076530123E+00   0.5996224810E+00   0.7896847641E-03  -0.1140061749E-02  -0.3775430217E-03   0.0000000000E+00   0.0000000000E+00   0.0000000000E+00   0.7141059890E-01   0.1308579384E-01   0.4629750189E-04  -0.1626355615E-02   0.1467508904E-04  -0.1885494056E-04
  -0.2459307768E+01  -0.8873279966E-04   0.5996230636E+00   0.7642720750E-03  -0.1088147861E-02  -0.3769604208E-03   0.0000000000E+00   0.0000000000E+00   0.0000000000E+00   0.7088919261E-01   0.1232264225E-01  -0.8626747686E-04  -0.7260884595E-02   0.1633921871E-04  -0.8281755701E-05
  -0.2607964753E+01   0.2066831879E+00   0.5996201765E+00   0.6718667408E-03  -0.1113892142E-02  -0.3798475031E-03   0.0000000000E+00   0.0000000000E+00   0.0000000000E+00   0.7576636469E-01   0.1332317042E-01  -0.4316602795E-07  -0.1512623487E-02   0.1165402448E-04  -0.1601282536E-04
  -0.2627738503E+01   0.1449085951E-02   0.5996209589E+00   0.6518073634E-03  -0.1060362729E-02  -0.3790650904E-03   0.0000000000E+00   0.0000000000E+00   0.0000000000E+00   0.7501817390E-01   0.1246734365E-01  -0.5260456684E-04  -0.5944965424E-02   0.1294465321E-04  -0.8025064047E-05
  -0.2784185656E+01   0.2055591421E+00   0.5996184743E+00   0.5471638223E-03  -0.1092187875E-02  -0.3815497126E-03   0.0000000000E+00   0.0000000000E+00   0.0000000000E+00   0.7919504778E-01   0.1332909085E-01  -0.3755909638E-05  -0.1297692808E-02   0.9312248569E-05  -0.1491241670E-04
  -0.2796863846E+01   0.2128212348E-02   0.5996193767E+00   0.5328139960E-03  -0.1037151922E-02  -0.3806472946E-03   0.0000000000E+00   0.0000000000E+00   0.0000000000E+00   0.7825099257E-01   0.1244239369E-01  -0.3147441561E-04  -0.4705860365E-02   0.1037783304E-04  -0.7405861693E-05
  -0.2961890027E+01   0.2041952241E+00   0.5996172348E+00   0.4159929167E-03  -0.1075110897E-02  -0.3827892114E-03   0.0000000000E+00   0.0000000000E+00   0.0000000000E+00   0.8177791782E-01   0.1322867437E-01  -0.1139439179E-04  -0.1015112353E-02   0.8061190576E-05  -0.1303856275E-04
  -0.2971098507E+01   0.1703983569E-02   0.5996181909E+00   0.4052228298E-03  -0.1018063701E-02  -0.3818331308E-03   0.0000000000E+00   0.0000000000E+00   0.0000000000E+00   0.8074492983E-01   0.1234523251E-01  -0.1385520700E-04  -0.3478343463E-02   0.8809481968E-05  -0.8011490748E-05
  -0.3140552555E+01   0.2029608029E+00   0.5996163970E+00   0.2801048823E-03  -0.1062663077E-02  -0.3836270269E-03   0.0000000000E+00   0.0000000000E+00   0.0000000000E+00   0.8360092586E-01   0.1310119434E-01  -0.4417140577E-05  -0.7210573891E-03   0.7055774275E-05  -0.1269695335E-04
  -0.3146774542E+01   0.1131596535E-02   0.5996173842E+00   0.2727380308E-03  -0.1004291205E-02  -0.3826398006E-03   0.0000000000E+00   0.0000000000E+00   0.0000000000E+00   0.8249835438E-01   0.1223057170E-01  -0.9358920016E-05  -0.2320262006E-02   0.7297482099E-05  -0.7497200933E-05
  -0.3319924024E+01   0.2021445853E+00   0.5996159097E+00   0.1409958431E-03  -0.1055233733E-02  -0.3841142734E-03   0.0000000000E+00   0.0000000000E+00   0.0000000000E+00   0.8467904098E-01   0.1300082426E-01  -0.6960201331E-05  -0.2811997550E-03  -0.1482508135E-05  -0.1164598042E-04
  -0.3323103537E+01   0.7769129258E-03   0.5996169141E+00   0.1372229033E-03  -0.9958893942E-03  -0.3831099272E-03   0.0000000000E+00   0.0000000000E+00   0.0000000000E+00   0.8353092381E-01   0.1214699513E-01  -0.5173916005E-05  -0.1066805554E-02  -0.1300212428E-05  -0.8179236149E-05
  -0.3500000000E+01   0.2015921663E+00   0.5996157521E+00   0.0000000000E+00  -0.1052583670E-02  -0.3842718550E-03   0.0000000000E+00   0.0000000000E+00   0.0000000000E+00   0.8503919479E-01   0.1296489109E-01  -0.2823125179E-05  -0.2791222541E-03   0.1690592115E-04  -0.1213127060E-04
  -0.3500000000E+01   0.4403944721E-03   0.5996167612E+00   0.0000000000E+00  -0.9930873379E-03  -0.3832628411E-03   0.0000000000E+00   0.0000000000E+00   0.0000000000E+00   0.8387155040E-01   0.1211361702E-01  -0.6741352225E-05  -0.2825224864E-03   0.1652323619E-04  -0.7558999293E-05
  -0.1175590176E+01   0.4120458978E+00   0.5996759319E+00   0.1478654370E-02  -0.1576064191E-02  -0.3240921475E-03   0.0000000000E+00   0.0000000000E+00   0.0000000000E+00   0.1483677337E-01  -0.4165681824E-01  -0.2102208806E-02   0.1249562949E-01   0.1452160817E-02  -0.1785353190E-02
  -0.1331524957E+01   0.4180608516E+00   0.5996636652E+00   0.1427302624E-02  -0.1474427399E-02  -0.3363587716E-03   0.0000000000E+00   0.0000000000E+00   0.0000000000E+00   0.2749151693E-01  -0.2249828201E-01   0.9340882230E-03   0.1685978650E-01   0.1803684400E-02  -0.1082850800E-02
  -0.1500158155E+01   0.4203296917E+00   0.5996511650E+00   0.1361765444E-02  -0.1401422269E-02  -0.3488589572E-03   0.0000000000E+00   0.0000000000E+00   0.0000000000E+00   0.3965398378E-01  -0.8859288373E-02   0.1884465134E-02   0.1580192804E-01   0.1163341035E-02  -0.5086553166E-03
  -0.1675736733E+01   0.4203572250E+00   0.5996412528E+00   0.1281546707E-02  -0.1344503968E-02  -0.3587711902E-03   0.0000000000E+00   0.0000000000E+00   0.0000000000E+00   0.4930129892E-01  -0.1202448712E-03   0.1025928950E-02   0.1266206727E-01   0.5860290419E-03  -0.2052848891E-03
  -0.1854984581E+01   0.4191450192E+00   0.5996336691E+00   0.1188818736E-02  -0.1297561826E-02  -0.3663548816E-03   0.0000000000E+00   0.0000000000E+00   0.0000000000E+00   0.5756034104E-01   0.5612833963E-02   0.5900914325E-03   0.9694319455E-02   0.2597158980E-03  -0.8570464886E-04
  -0.2036110812E+01   0.4172885671E+00   0.5996281382E+00   0.1084867909E-02  -0.1257572886E-02  -0.3718858382E-03   0.0000000000E+00   0.0000000000E+00   0.0000000000E+00   0.6442808467E-01   0.9114314670E-02   0.1840734399E-03   0.7188814103E-02   0.9237757399E-04  -0.3687135302E-04
  -0.2218169878E+01   0.4151136063E+00   0.5996240248E+00   0.9711323329E-03  -0.1222989699E-02  -0.3759992355E-03   0.0000000000E+00   0.0000000000E+00   0.0000000000E+00   0.7025985387E-01   0.1120669300E-01   0.4770206301E-04   0.5299490816E-02   0.3442785188E-04  -0.2486808185E-04
  -0.2400527090E+01   0.4128402836E+00   0.5996209757E+00   0.8489196305E-03  -0.1193636404E-02  -0.3790483227E-03   0.0000000000E+00   0.0000000000E+00   0.0000000000E+00   0.7512605016E-01   0.1236854555E-01  -0.1588469999E-04   0.3884068757E-02   0.1398388253E-04  -0.1973585965E-04
  -0.2582785116E+01   0.4106174726E+00   0.5996186924E+00   0.7195638784E-03  -0.1168964365E-02  -0.3813316179E-03   0.0000000000E+00   0.0000000000E+00   0.0000000000E+00   0.7915082942E-01   0.1291799699E-01  -0.9177257300E-05   0.2839827232E-02   0.1036281669E-04  -0.1915209319E-04
  -0.2765143784E+01   0.4084052492E+00   0.5996170069E+00   0.5839757473E-03  -0.1149053786E-02  -0.3830170537E-03   0.0000000000E+00   0.0000000000E+00   0.0000000000E+00   0.8235218044E-01   0.1311483013E-01  -0.1166842139E-04   0.2047492635E-02   0.8741767939E-05  -0.1766922185E-04
  -0.2948026137E+01   0.4062856421E+00   0.5996157931E+00   0.4430225695E-03  -0.1133443880E-02  -0.3842308879E-03   0.0000000000E+00   0.0000000000E+00   0.0000000000E+00   0.8480210762E-01   0.1311219185E-01  -0.4052086768E-05   0.1423794245E-02   0.7138639612E-05  -0.1737853167E-04
  -0.3131472738E+01   0.4045105823E+00   0.5996149756E+00   0.2978716910E-03  -0.1122390740E-02  -0.3850483677E-03   0.0000000000E+00   0.0000000000E+00   0.0000000000E+00   0.8652282319E-01   0.1303248425E-01  -0.8449935117E-05   0.8817993129E-03   0.6495173118E-05  -0.1597786254E-04
  -0.3315469208E+01   0.4033137416E+00   0.5996145036E+00   0.1497815777E-03  -0.1115634396E-02  -0.3855203588E-03   0.0000000000E+00   0.0000000000E+00   0.0000000000E+00   0.8755124309E-01   0.1295706174E-01  -0.2624374636E-05   0.4876782183E-03  -0.1597362466E-05  -0.1586664189E-04
  -0.3500000000E+01   0.4026458598E+00   0.5996143509E+00   0.0000000000E+00  -0.1113381160E-02  -0.3856730525E-03   0.0000000000E+00   0.0000000000E+00   0.0000000000E+00   0.8788967318E-01   0.1292502416E-01  -0.6016359952E-05  -0.2006598191E-03   0.1634366554E-04  -0.1514168901E-04
  -0.1090737444E+01   0.6166946252E+00   0.5996566628E+00   0.1829876330E-02  -0.1762989752E-02  -0.3433611840E-03   0.0000000000E+00   0.0000000000E+00   0.0000000000E+00   0.4657640494E-01  -0.3373913894E-01  -0.1060757800E-02   0.2322779238E-01   0.3574516756E-03  -0.2466349771E-02
  -0.1259111061E+01   0.6217063553E+00   0.5996510413E+00   0.1727208818E-02  -0.1612376673E-02  -0.3489826637E-03   0.0000000000E+00   0.0000000000E+00   0.0000000000E+00   0.5666129035E-01  -0.2571875430E-01   0.1596346644E-02   0.2548654276E-01   0.1073166919E-02  -0.1427435941E-02
  -0.1436527280E+01   0.6239224070E+00   0.5996429961E+00   0.1608340368E-02  -0.1506031001E-02  -0.3570279026E-03   0.0000000000E+00   0.0000000000E+00   0.0000000000E+00   0.6180432678E-01  -0.1536607662E-01   0.1206721499E-02   0.2369640689E-01   0.8323001119E-03  -0.6197135796E-03
  -0.1618964180E+01   0.6239018412E+00   0.5996357422E+00   0.1483569725E-02  -0.1428368768E-02  -0.3642817783E-03   0.0000000000E+00   0.0000000000E+00   0.0000000000E+00   0.6635175888E-01  -0.5947912046E-02   0.1083588889E-02   0.2035972522E-01   0.4701642551E-03  -0.2551025816E-03
  -0.1804248732E+01   0.6225092773E+00   0.5996296158E+00   0.1354297538E-02  -0.1369261697E-02  -0.3704081540E-03   0.0000000000E+00   0.0000000000E+00   0.0000000000E+00   0.7050146516E-01   0.8012790996E-03   0.4302650600E-03   0.1674049197E-01   0.2257570377E-03  -0.9420177485E-04
  -0.1991122125E+01   0.6203654658E+00   0.5996249146E+00   0.1220945037E-02  -0.1322423188E-02  -0.3751094419E-03   0.0000000000E+00   0.0000000000E+00   0.0000000000E+00   0.7460450464E-01   0.5529486767E-02   0.2093194093E-03   0.1351814635E-01   0.8455962276E-04  -0.3876536127E-04
  -0.2178844381E+01   0.6178380608E+00   0.5996212876E+00   0.1082969034E-02  -0.1284921197E-02  -0.3787363805E-03   0.0000000000E+00   0.0000000000E+00   0.0000000000E+00   0.7845334348E-01   0.8579057396E-02   0.3664531226E-04   0.1077473644E-01   0.3325371284E-04  -0.2209388207E-04
  -0.2366943525E+01   0.6151474609E+00   0.5996185569E+00   0.9401552415E-03  -0.1254450080E-02  -0.3814671104E-03   0.0000000000E+00   0.0000000000E+00   0.0000000000E+00   0.8198329174E-01   0.1042582463E-01   0.2120223215E-05   0.8514592061E-02   0.1319662853E-04  -0.1964208189E-04
  -0.2555168109E+01   0.6124276045E+00   0.5996164912E+00   0.7925506569E-03  -0.1230227545E-02  -0.3835327732E-03   0.0000000000E+00   0.0000000000E+00   0.0000000000E+00   0.8506098148E-01   0.1144849511E-01  -0.1879518448E-04   0.6632091920E-02   0.9875703427E-05  -0.1922918630E-04
  -0.2743512116E+01   0.6097714175E+00   0.5996149683E+00   0.6404335961E-03  -0.1211060532E-02  -0.3850556847E-03   0.0000000000E+00   0.0000000000E+00   0.0000000000E+00   0.8764111610E-01   0.1193245378E-01  -0.1038435265E-04   0.5028039964E-02   0.7907685035E-05  -0.1971135023E-04
  -0.2932113819E+01   0.6073295042E+00   0.5996138746E+00   0.4842914565E-03  -0.1196725757E-02  -0.3861493683E-03   0.0000000000E+00   0.0000000000E+00   0.0000000000E+00   0.8966508451E-01   0.1210551786E-01  -0.8599198784E-05   0.3627783721E-02   0.6447446153E-05  -0.1889502451E-04
  -0.3121064287E+01   0.6053224186E+00   0.5996131438E+00   0.3248628972E-03  -0.1186551426E-02  -0.3868801713E-03   0.0000000000E+00   0.0000000000E+00   0.0000000000E+00   0.9112269941E-01   0.1212142761E-01  -0.3645116334E-05   0.2334943234E-02   0.5563155366E-05  -0.1869829627E-04
  -0.3310385707E+01   0.6039524505E+00   0.5996127236E+00   0.1630733496E-03  -0.1180606491E-02  -0.3873004187E-03   0.0000000000E+00   0.0000000000E+00   0.0000000000E+00   0.9199264525E-01   0.1209166680E-01  -0.3891745874E-05   0.1211383397E-02  -0.1391906427E-05  -0.1777482013E-04
  -0.3500000000E+01   0.6032155602E+00   0.5996125894E+00   0.0000000000E+00  -0.1178458791E-02  -0.3874346033E-03   0.0000000000E+00   0.0000000000E+00   0.0000000000E+00   0.9228328919E-01   0.1207584476E-01  -0.3916561433E-05  -0.2054029847E-03   0.1410087228E-04  -0.1796862644E-04
  -0.9964582691E+00   0.8146498948E+00   0.5996309857E+00   0.2306245850E-02  -0.2006456177E-02  -0.3690382952E-03   0.0000000000E+00   0.0000000000E+00   0.0000000000E+00   0.1001267954E+00  -0.2717021771E-01   0.2880592778E-02   0.2613288541E-01  -0.8609874755E-03  -0.2026318273E-02
  -0.1180333688E+01   0.8236834158E+00   0.5996331087E+00   0.2122921979E-02  -0.1808787155E-02  -0.3669153405E-03   0.0000000000E+00   0.0000000000E+00   0.0000000000E+00   0.9185881301E-01  -0.2788612515E-01  -0.1730178630E-03   0.2473829294E-01   0.2613506055E-03  -0.1172296148E-02
  -0.1370521599E+01   0.8248589790E+00   0.5996314726E+00   0.1929941218E-02  -0.1657171975E-02  -0.3685513539E-03   0.0000000000E+00   0.0000000000E+00   0.0000000000E+00   0.9003305108E-01  -0.2007077906E-01   0.1419437964E-02   0.2435883826E-01   0.4212470150E-03  -0.5289910880E-03
  -0.1561426513E+01   0.8243601375E+00   0.5996276187E+00   0.1745706901E-02  -0.1548284530E-02  -0.3724053271E-03   0.0000000000E+00   0.0000000000E+00   0.0000000000E+00   0.8780362301E-01  -0.1172297003E-01   0.6185151658E-03   0.2249040538E-01   0.3344992649E-03  -0.2821665218E-03
  -0.1753443095E+01   0.8227530504E+00   0.5996237286E+00   0.1569295437E-02  -0.1467726636E-02  -0.3762953876E-03   0.0000000000E+00   0.0000000000E+00   0.0000000000E+00   0.8753673060E-01  -0.4187204719E-02   0.5257002348E-03   0.1985699409E-01   0.1642744362E-03  -0.1008737923E-03
  -0.1947922202E+01   0.8202788573E+00   0.5996202428E+00   0.1395967949E-02  -0.1407171658E-02  -0.3797811513E-03   0.0000000000E+00   0.0000000000E+00   0.0000000000E+00   0.8811633656E-01   0.1455085569E-02   0.1254544546E-03   0.1694787225E-01   0.7634277921E-04  -0.5826761097E-04
  -0.2141592451E+01   0.8176926890E+00   0.5996174672E+00   0.1225998601E-02  -0.1361557034E-02  -0.3825567511E-03   0.0000000000E+00   0.0000000000E+00   0.0000000000E+00   0.8950893802E-01   0.5353847575E-02   0.6168642800E-04   0.1424694826E-01   0.2852590123E-04  -0.3111925328E-04
  -0.2335222653E+01   0.8150082091E+00   0.5996152870E+00   0.1056266545E-02  -0.1327230884E-02  -0.3847369805E-03   0.0000000000E+00   0.0000000000E+00   0.0000000000E+00   0.9123891303E-01   0.7819151265E-02  -0.9143223822E-05   0.1174025079E-01   0.1529431754E-04  -0.3036812265E-04
  -0.2528917136E+01   0.8123072867E+00   0.5996136337E+00   0.8851835793E-03  -0.1301121256E-02  -0.3863902691E-03   0.0000000000E+00   0.0000000000E+00   0.0000000000E+00   0.9304181963E-01   0.9282962583E-02  -0.7644913008E-05   0.9451411142E-02   0.9321828050E-05  -0.2577982389E-04
  -0.2722708107E+01   0.8096939438E+00   0.5996124099E+00   0.7120331984E-03  -0.1281846179E-02  -0.3876141150E-03   0.0000000000E+00   0.0000000000E+00   0.0000000000E+00   0.9469752066E-01   0.1006155707E-01  -0.8707049063E-05   0.7346299528E-02   0.7922239191E-05  -0.2466763866E-04
  -0.2916668746E+01   0.8073164368E+00   0.5996115415E+00   0.5365842183E-03  -0.1267776158E-02  -0.3884825134E-03   0.0000000000E+00   0.0000000000E+00   0.0000000000E+00   0.9608068561E-01   0.1041128744E-01  -0.5247686199E-05   0.5391003603E-02   0.5645365578E-05  -0.2241098687E-04
  -0.3110874642E+01   0.8053592483E+00   0.5996109667E+00   0.3590676742E-03  -0.1258369705E-02  -0.3890573311E-03   0.0000000000E+00   0.0000000000E+00   0.0000000000E+00   0.9711000987E-01   0.1053544268E-01  -0.9517337341E-06   0.3525525732E-02   0.4771156725E-05  -0.2090154843E-04
  -0.3305353460E+01   0.8039994174E+00   0.5996106402E+00   0.1799502588E-03  -0.1252776638E-02  -0.3893837916E-03   0.0000000000E+00   0.0000000000E+00   0.0000000000E+00   0.9773609987E-01   0.1055750187E-01  -0.1688135320E-05   0.1788385277E-02  -0.9386156076E-06  -0.1998115865E-04
  -0.3500000000E+01   0.8032172439E+00   0.5996105381E+00   0.0000000000E+00  -0.1250911078E-02  -0.3894858577E-03   0.0000000000E+00   0.0000000000E+00   0.0000000000E+00   0.9794623288E-01   0.1055970459E-01   0.4268493254E-06  -0.1398715655E-03   0.1073724338E-04  -0.1943766361E-04
  -0.9002785062E+00   0.1019362091E+01   0.5996054856E+00   0.2840580794E-02  -0.2312538937E-02  -0.3945384022E-03   0.0000000000E+00   0.0000000000E+00   0.0000000000E+00   0.1413200937E+00  -0.2300518286E-01  -0.2123052932E-02   0.1083979046E-01  -0.1395664210E-02  -0.9594372232E-03
  -0.1110144987E+01   0.1024033760E+01   0.5996153243E+00   0.2545223123E-02  -0.2044339754E-02  -0.3846997438E-03   0.0000000000E+00   0.0000000000E+00   0.0000000000E+00   0.1246849165E+00  -0.2566792498E-01   0.8348922059E-04   0.1644994176E-01  -0.2155251869E-03  -0.6614160689E-03
  -0.1305523834E+01   0.1025620854E+01   0.5996185923E+00   0.2287665991E-02  -0.1853786494E-02  -0.3814316781E-03   0.0000000000E+00   0.0000000000E+00   0.0000000000E+00   0.1161215650E+00  -0.2181395834E-01   0.1492417222E-03   0.1798761052E-01   0.1593753287E-03  -0.4309313403E-03
  -0.1504184429E+01   0.1024289927E+01   0.5996179986E+00   0.2044140600E-02  -0.1705443329E-02  -0.3820254164E-03   0.0000000000E+00   0.0000000000E+00   0.0000000000E+00   0.1095138317E+00  -0.1446758806E-01   0.3163007247E-03   0.1880770342E-01   0.1894748091E-03  -0.2273549315E-03
  -0.1702842405E+01   0.1022221754E+01   0.5996164190E+00   0.1817535380E-02  -0.1596856129E-02  -0.3836050247E-03   0.0000000000E+00   0.0000000000E+00   0.0000000000E+00   0.1053064456E+00  -0.7535737620E-02   0.1156066410E-03   0.1853674601E-01   0.1105218183E-03  -0.1148610144E-03
  -0.1908135812E+01   0.1018857455E+01   0.5996143638E+00   0.1596167840E-02  -0.1513984952E-02  -0.3856601675E-03   0.0000000000E+00   0.0000000000E+00   0.0000000000E+00   0.1030234335E+00  -0.1694557048E-02   0.4442009809E-04   0.1711097030E-01   0.5645486212E-04  -0.6924735849E-04
  -0.2106613608E+01   0.1016430723E+01   0.5996126556E+00   0.1391442366E-02  -0.1456747122E-02  -0.3873683844E-03   0.0000000000E+00   0.0000000000E+00   0.0000000000E+00   0.1020768347E+00   0.2431681761E-02  -0.1376124989E-04   0.1533444883E-01   0.1995041790E-04  -0.4630816297E-04
  -0.2305248184E+01   0.1013922284E+01   0.5996112190E+00   0.1191216222E-02  -0.1414945955E-02  -0.3888049676E-03   0.0000000000E+00   0.0000000000E+00   0.0000000000E+00   0.1020261355E+00   0.5205770134E-02  -0.2361223358E-04   0.1318269478E-01   0.1099133845E-04  -0.3843781622E-04
  -0.2503963357E+01   0.1011410742E+01   0.5996101583E+00   0.9931227325E-03  -0.1385187923E-02  -0.3898657411E-03   0.0000000000E+00   0.0000000000E+00   0.0000000000E+00   0.1024267966E+00   0.6896287447E-02  -0.2084219985E-04   0.1096842364E-01   0.4424391321E-05  -0.3130067963E-04
  -0.2702753366E+01   0.1008976369E+01   0.5996093765E+00   0.7955444365E-03  -0.1363961173E-02  -0.3906475131E-03   0.0000000000E+00   0.0000000000E+00   0.0000000000E+00   0.1030156197E+00   0.7840347480E-02  -0.1429950591E-04   0.8718831890E-02   0.4251136929E-05  -0.2727368179E-04
  -0.2901657829E+01   0.1006733714E+01   0.5996088502E+00   0.5977106234E-03  -0.1349506350E-02  -0.3911738124E-03   0.0000000000E+00   0.0000000000E+00   0.0000000000E+00   0.1036122975E+00   0.8308733994E-02   0.6891249760E-06   0.6501000794E-02   0.2505152042E-05  -0.2269704862E-04
  -0.3100753957E+01   0.1004837359E+01   0.5996085090E+00   0.3991833251E-03  -0.1339950650E-02  -0.3915150196E-03   0.0000000000E+00   0.0000000000E+00   0.0000000000E+00   0.1040936462E+00   0.8498860395E-02  -0.1322481095E-05   0.4294293018E-02   0.2469384431E-05  -0.2036367067E-04
  -0.3300150733E+01   0.1003455212E+01   0.5996083267E+00   0.1999367999E-03  -0.1334617997E-02  -0.3916972938E-03   0.0000000000E+00   0.0000000000E+00   0.0000000000E+00   0.1044037525E+00   0.8566085118E-02   0.1115783175E-04   0.2190203099E-02  -0.9952108248E-06  -0.1818297691E-04
  -0.3500000000E+01   0.1002728161E+01   0.5996082685E+00   0.0000000000E+00  -0.1332699498E-02  -0.3917554615E-03   0.0000000000E+00   0.0000000000E+00   0.0000000000E+00   0.1045046334E+00   0.8575715704E-02   0.2501183122E-05  -0.1643919314E-03   0.6755574352E-05  -0.1805670400E-04
  -0.3297154960E+01   0.1202533625E+01   0.5996059123E+00   0.2195303449E-03  -0.1427275187E-02  -0.3941117118E-03   0.0000000000E+00   0.0000000000E+00   0.0000000000E+00   0.1115413555E+00   0.6330029115E-02   0.1000775649E-04   0.2334352863E-02  -0.6559326254E-06  -0.1266770305E-04
  -0.3500000000E+01   0.1201943279E+01   0.5996059179E+00   0.0000000000E+00  -0.1425501388E-02  -0.3941060752E-03   0.0000000000E+00   0.0000000000E+00   0.0000000000E+00   0.1115270160E+00   0.6354701131E-02   0.2603110458E-04  -0.1250304451E-03  -0.2957983496E-06  -0.1088038284E-04
  -0.3295776593E+01   0.1401459371E+01   0.5996034913E+00   0.2377167813E-03  -0.1531568955E-02  -0.3965326596E-03   0.0000000000E+00   0.0000000000E+00   0.0000000000E+00   0.1187021488E+00   0.4108838076E-02   0.5903818757E-04   0.2207725094E-02  -0.3201872859E-05   0.1129138588E-05
  -0.3500000000E+01   0.1401033347E+01   0.5996035674E+00   0.0000000000E+00  -0.1529632549E-02  -0.3964565569E-03   0.0000000000E+00   0.0000000000E+00   0.0000000000E+00   0.1185330698E+00   0.4110915202E-02   0.3812466160E-04  -0.1647638717E-03  -0.6543487411E-05   0.2500810517E-05
  -0.3295413016E+01   0.1600357180E+01   0.5996012656E+00   0.2534439458E-03  -0.1646869718E-02  -0.3987584372E-03   0.0000000000E+00   0.0000000000E+00   0.0000000000E+00   0.1252754394E+00   0.2095866272E-02   0.4774455505E-04   0.1805481337E-02  -0.8270916315E-05   0.4109976947E-04
  -0.3500000000E+01   0.1600087403E+01   0.5996014247E+00   0.0000000000E+00  -0.1644846685E-02  -0.3985992764E-03   0.0000000000E+00   0.0000000000E+00   0.0000000000E+00   0.1249753239E+00   0.2113202762E-02   0.7734093417E-04  -0.1629536381E-03  -0.1510671538E-04   0.4335044906E-04
  -0.3295450178E+01   0.1799246975E+01   0.5995992734E+00   0.2658716131E-03  -0.1771734616E-02  -0.4007506100E-03   0.0000000000E+00   0.0000000000E+00   0.0000000000E+00   0.1307451252E+00   0.6301314223E-03   0.7530470831E-04   0.9979028585E-03  -0.2537594653E-04   0.5675894868E-04
  -0.3500000000E+01   0.1799118832E+01   0.5995995091E+00   0.0000000000E+00  -0.1769348362E-02  -0.4005148600E-03   0.0000000000E+00   0.0000000000E+00   0.0000000000E+00   0.1302449373E+00   0.6128832127E-03   0.3609508620E-04  -0.2147738186E-03  -0.2184908001E-04   0.5666920196E-04
  -0.3295549931E+01   0.1998097188E+01   0.5995972997E+00   0.2738792862E-03  -0.1902812143E-02  -0.4027243350E-03   0.0000000000E+00   0.0000000000E+00   0.0000000000E+00   0.1339949005E+00  -0.3668502666E-04  -0.7236211247E-03   0.3270200676E-03  -0.7205353205E-04  -0.8304191358E-05
  -0.3500000000E+01   0.1998100021E+01   0.5995976238E+00   0.0000000000E+00  -0.1899979475E-02  -0.4024001831E-03   0.0000000000E+00   0.0000000000E+00   0.0000000000E+00   0.1333757448E+00  -0.2191941931E-04  -0.6725316593E-03  -0.2571248475E-03  -0.3087927951E-04  -0.7898199441E-05
  -0.3094791772E+01   0.1203626531E+01   0.5996059168E+00   0.4388083766E-03  -0.1432758507E-02  -0.3941072095E-03   0.0000000000E+00   0.0000000000E+00   0.0000000000E+00   0.1116138699E+00   0.6263604875E-02   0.2105889760E-04   0.4586643126E-02  -0.1602474906E-05  -0.1504042765E-04
  -0.3091916219E+01   0.1402243699E+01   0.5996032692E+00   0.4757511562E-03  -0.1537241014E-02  -0.3967547715E-03   0.0000000000E+00   0.0000000000E+00   0.0000000000E+00   0.1191713323E+00   0.4045034485E-02   0.2895375186E-04   0.4296364696E-02  -0.1048581598E-04  -0.6081244462E-05
  -0.3091019452E+01   0.1600853631E+01   0.5996008027E+00   0.5080076411E-03  -0.1653248718E-02  -0.3992212879E-03   0.0000000000E+00   0.0000000000E+00   0.0000000000E+00   0.1262180503E+00   0.2087287072E-02   0.6465558329E-04   0.3496475295E-02  -0.2725991757E-04   0.3594633822E-04
  -0.3090954512E+01   0.1799481849E+01   0.5995985649E+00   0.5336076927E-03  -0.1779100922E-02  -0.4014590549E-03   0.0000000000E+00   0.0000000000E+00   0.0000000000E+00   0.1321934134E+00   0.6163392668E-03   0.7684700337E-04   0.1853655575E-02  -0.6579549452E-04   0.5499855360E-04
  -0.3091054889E+01   0.1998088220E+01   0.5995963351E+00   0.5505312064E-03  -0.1911779895E-02  -0.4036888646E-03   0.0000000000E+00   0.0000000000E+00   0.0000000000E+00   0.1359263238E+00  -0.4544173431E-04  -0.7317965207E-03   0.5164165255E-03  -0.1670197722E-03  -0.6319662766E-05
  -0.2892723351E+01   0.1205105018E+01   0.5996059477E+00   0.6582488508E-03  -0.1442481682E-02  -0.3940762799E-03   0.0000000000E+00   0.0000000000E+00   0.0000000000E+00   0.1117386304E+00   0.6053569918E-02  -0.4665453033E-05   0.6876348655E-02  -0.2224256762E-05  -0.2181350508E-04
  -0.2888281490E+01   0.1403300753E+01   0.5996029280E+00   0.7151095950E-03  -0.1547827425E-02  -0.3970960408E-03   0.0000000000E+00   0.0000000000E+00   0.0000000000E+00   0.1199878875E+00   0.3905900804E-02   0.4074765354E-04   0.6412030245E-02  -0.1613425447E-04  -0.1696453084E-04
  -0.2886755554E+01   0.1601522861E+01   0.5996000474E+00   0.7649960498E-03  -0.1664939073E-02  -0.3999766379E-03   0.0000000000E+00   0.0000000000E+00   0.0000000000E+00   0.1277453089E+00   0.2002899860E-02   0.1500049949E-04   0.5208309352E-02  -0.4105677393E-04   0.2438605246E-04
  -0.2886507628E+01   0.1799797883E+01   0.5995974044E+00   0.8052620552E-03  -0.1792676706E-02  -0.4026196487E-03   0.0000000000E+00   0.0000000000E+00   0.0000000000E+00   0.1346314046E+00   0.6292423931E-03   0.1713446936E-03   0.2790732022E-02  -0.1013885469E-03   0.5250624616E-04
  -0.2886548110E+01   0.1998072023E+01   0.5995947332E+00   0.8324901564E-03  -0.1927976818E-02  -0.4052908467E-03   0.0000000000E+00   0.0000000000E+00   0.0000000000E+00   0.1390990590E+00  -0.8764028614E-04  -0.8387308140E-03   0.7694737154E-03  -0.2533938716E-03  -0.4548887622E-05
  -0.2690829578E+01   0.1206844603E+01   0.5996060488E+00   0.8785120114E-03  -0.1458136869E-02  -0.3939751741E-03   0.0000000000E+00   0.0000000000E+00   0.0000000000E+00   0.1120072043E+00   0.5596858879E-02  -0.7454748300E-06   0.9104401759E-02  -0.3211096451E-05  -0.2872085620E-04
  -0.2684781915E+01   0.1404544001E+01   0.5996024965E+00   0.9566447065E-03  -0.1564858863E-02  -0.3975275268E-03   0.0000000000E+00   0.0000000000E+00   0.0000000000E+00   0.1211375245E+00   0.3550831990E-02  -0.6314390952E-05   0.8400303415E-02  -0.2259159879E-04  -0.3654716176E-04
  -0.2682572562E+01   0.1602310317E+01   0.5995990388E+00   0.1025957605E-02  -0.1684052995E-02  -0.4009851685E-03   0.0000000000E+00   0.0000000000E+00   0.0000000000E+00   0.1298975078E+00   0.1844930171E-02   0.2092046102E-04   0.6795716098E-02  -0.6020104854E-04   0.7090685732E-05
  -0.2682096078E+01   0.1800168246E+01   0.5995958187E+00   0.1082581790E-02  -0.1814394398E-02  -0.4042053459E-03   0.0000000000E+00   0.0000000000E+00   0.0000000000E+00   0.1379668542E+00   0.5808869056E-03   0.2329533026E-03   0.3628878107E-02  -0.1416383146E-03   0.4611402867E-04
  -0.2682040817E+01   0.1998046465E+01   0.5995925331E+00   0.1122582795E-02  -0.1953535122E-02  -0.4074909216E-03   0.0000000000E+00   0.0000000000E+00   0.0000000000E+00   0.1435704217E+00  -0.1245376917E-03  -0.8604502417E-03   0.1042019589E-02  -0.3486108213E-03   0.8507513730E-06
  -0.2489036088E+01   0.1208736626E+01   0.5996062585E+00   0.1100291968E-02  -0.1481563626E-02  -0.3937654761E-03   0.0000000000E+00   0.0000000000E+00   0.0000000000E+00   0.1124903385E+00   0.4678253007E-02  -0.3598076660E-04   0.1121316381E-01  -0.3481155192E-05  -0.4261597019E-04
  -0.2481358485E+01   0.1405898396E+01   0.5996020284E+00   0.1201674612E-02  -0.1591263846E-02  -0.3979955608E-03   0.0000000000E+00   0.0000000000E+00   0.0000000000E+00   0.1227171725E+00   0.2880677616E-02  -0.1980841253E-05   0.1017962103E-01  -0.2983081836E-04  -0.6155347137E-04
  -0.2478437121E+01   0.1603168410E+01   0.5995978264E+00   0.1292059075E-02  -0.1713349637E-02  -0.4021976317E-03   0.0000000000E+00   0.0000000000E+00   0.0000000000E+00   0.1325821717E+00   0.1470291306E-02  -0.5658362609E-04   0.8153642602E-02  -0.7830736278E-04  -0.2132475722E-04
  -0.2477705903E+01   0.1800568601E+01   0.5995938825E+00   0.1367617141E-02  -0.1847369396E-02  -0.4061415245E-03   0.0000000000E+00   0.0000000000E+00   0.0000000000E+00   0.1421799316E+00   0.5299800897E-03   0.4350432842E-03   0.4370206182E-02  -0.1837453586E-03   0.3668082463E-04
  -0.2477532921E+01   0.1998008676E+01   0.5995898080E+00   0.1423059073E-02  -0.1991324265E-02  -0.4102160320E-03   0.0000000000E+00   0.0000000000E+00   0.0000000000E+00   0.1491477478E+00  -0.2079002433E-03  -0.9628600557E-03   0.1193220997E-02  -0.4356626510E-03   0.7694388918E-05
  -0.2287302129E+01   0.1210698979E+01   0.5996066317E+00   0.1325021184E-02  -0.1516211225E-02  -0.3933923368E-03   0.0000000000E+00   0.0000000000E+00   0.0000000000E+00   0.1133881395E+00   0.3080330933E-02  -0.3365435635E-04   0.1308019384E-01  -0.9333156368E-06  -0.5444062018E-04
  -0.2277978817E+01   0.1407306773E+01   0.5996015783E+00   0.1451333340E-02  -0.1630446980E-02  -0.3984456955E-03   0.0000000000E+00   0.0000000000E+00   0.0000000000E+00   0.1247426875E+00   0.1670294281E-02  -0.6724445995E-04   0.1155330887E-01  -0.3376148445E-04  -0.9987321407E-04
  -0.2274326796E+01   0.1604059469E+01   0.5995965005E+00   0.1564983688E-02  -0.1757130991E-02  -0.4035234986E-03   0.0000000000E+00   0.0000000000E+00   0.0000000000E+00   0.1358120397E+00   0.8467811974E-03  -0.4981568299E-04   0.9103209859E-02  -0.9675724017E-04  -0.5933015850E-04
  -0.2273326619E+01   0.1800978733E+01   0.5995917110E+00   0.1661550800E-02  -0.1895597440E-02  -0.4083129773E-03   0.0000000000E+00   0.0000000000E+00   0.0000000000E+00   0.1470085267E+00   0.3465415074E-03   0.6065763614E-03   0.4836299333E-02  -0.2154161855E-03   0.2031584564E-04
  -0.2273020701E+01   0.1997954535E+01   0.5995867303E+00   0.1736448540E-02  -0.2045465379E-02  -0.4132937403E-03   0.0000000000E+00   0.0000000000E+00   0.0000000000E+00   0.1557066999E+00  -0.2817819754E-03  -0.8637064819E-03   0.1397366608E-02  -0.5011410570E-03   0.2043826526E-04
  -0.2085619561E+01   0.1212672233E+01   0.5996071896E+00   0.1554379165E-02  -0.1565696617E-02  -0.3928344406E-03   0.0000000000E+00   0.0000000000E+00   0.0000000000E+00   0.1149061701E+00   0.5018696063E-03  -0.5375105956E-04   0.1450964360E-01   0.6162855209E-05  -0.8152055526E-04
  -0.2074628716E+01   0.1408725778E+01   0.5996012008E+00   0.1707664318E-02  -0.1687722025E-02  -0.3988232150E-03   0.0000000000E+00   0.0000000000E+00   0.0000000000E+00   0.1273886411E+00  -0.2349508830E-03  -0.5419050324E-04   0.1227511644E-01  -0.3370215548E-04  -0.1438459273E-03
  -0.2070231885E+01   0.1604954153E+01   0.5995951690E+00   0.1845625254E-02  -0.1820417151E-02  -0.4048550054E-03   0.0000000000E+00   0.0000000000E+00   0.0000000000E+00   0.1393950471E+00  -0.2223278333E-03  -0.1518806945E-03   0.9346042480E-02  -0.1026021699E-03  -0.1121846235E-03
  -0.2068950789E+01   0.1801381412E+01   0.5995895084E+00   0.1965860591E-02  -0.1964508411E-02  -0.4105156485E-03   0.0000000000E+00   0.0000000000E+00   0.0000000000E+00   0.1522219402E+00   0.1189668829E-03   0.1001549163E-02   0.4932476327E-02  -0.2285580866E-03  -0.5962268565E-06
  -0.2068500893E+01   0.1997879273E+01   0.5995835809E+00   0.2063617315E-02  -0.2120726742E-02  -0.4164431090E-03   0.0000000000E+00   0.0000000000E+00   0.0000000000E+00   0.1626229581E+00  -0.4195690073E-03  -0.8074782733E-03   0.1312742546E-02  -0.5037954750E-03   0.3590619132E-04
  -0.1884025104E+01   0.1214603746E+01   0.5996078943E+00   0.1791236335E-02  -0.1635944125E-02  -0.3921297023E-03   0.0000000000E+00   0.0000000000E+00   0.0000000000E+00   0.1174007624E+00  -0.3226671836E-02  -0.1931756444E-04   0.1521595463E-01   0.2682017211E-04  -0.1027608571E-03
  -0.1871325071E+01   0.1410127171E+01   0.5996009176E+00   0.1972379133E-02  -0.1768698637E-02  -0.3991064238E-03   0.0000000000E+00   0.0000000000E+00   0.0000000000E+00   0.1307158785E+00  -0.3014937115E-02  -0.1132422234E-03   0.1196827947E-01  -0.1993751862E-04  -0.2044628799E-03
  -0.1866157092E+01   0.1605840861E+01   0.5995939691E+00   0.2135597757E-02  -0.1910029362E-02  -0.4060548886E-03   0.0000000000E+00   0.0000000000E+00   0.0000000000E+00   0.1432744993E+00  -0.1705908589E-02  -0.9617620532E-04   0.8564506798E-02  -0.9485201972E-04  -0.1724821823E-03
  -0.1864580282E+01   0.1801776669E+01   0.5995875428E+00   0.2280107652E-02  -0.2060150862E-02  -0.4124812383E-03   0.0000000000E+00   0.0000000000E+00   0.0000000000E+00   0.1571601097E+00  -0.3509734126E-03   0.1296494237E-02   0.4342494800E-02  -0.1931622877E-03  -0.2947759683E-04
  -0.1863972146E+01   0.1997777033E+01   0.5995808184E+00   0.2405204368E-02  -0.2222967356E-02  -0.4192056176E-03   0.0000000000E+00   0.0000000000E+00   0.0000000000E+00   0.1692642125E+00  -0.5234098925E-03  -0.3431988403E-03   0.1258932433E-02  -0.4052256968E-03   0.5737381094E-04
  -0.1680810014E+01   0.1216733391E+01   0.5996085828E+00   0.2041296048E-02  -0.1733849301E-02  -0.3914412097E-03   0.0000000000E+00   0.0000000000E+00   0.0000000000E+00   0.1213064839E+00  -0.8273877351E-02   0.8011564025E-04   0.1495343880E-01   0.5858867250E-04  -0.1720106754E-03
  -0.1667644669E+01   0.1411609715E+01   0.5996006269E+00   0.2249070625E-02  -0.1881534561E-02  -0.3993971023E-03   0.0000000000E+00   0.0000000000E+00   0.0000000000E+00   0.1349688761E+00  -0.6597112510E-02  -0.3143157064E-04   0.1029442637E-01   0.1519350883E-06  -0.2648750677E-03
  -0.1661988952E+01   0.1606812270E+01   0.5995929898E+00   0.2435228236E-02  -0.2032730305E-02  -0.4070342006E-03   0.0000000000E+00   0.0000000000E+00   0.0000000000E+00   0.1470928106E+00  -0.3762681183E-02  -0.2464618703E-03   0.6355499329E-02  -0.5568555834E-04  -0.2405917097E-03
  -0.1660172802E+01   0.1802228866E+01   0.5995861620E+00   0.2604148318E-02  -0.2189573918E-02  -0.4138619834E-03   0.0000000000E+00   0.0000000000E+00   0.0000000000E+00   0.1612443061E+00  -0.8509732211E-03   0.1868005275E-02   0.2935320354E-02  -0.1003179369E-03  -0.5677284243E-04
  -0.1659430470E+01   0.1997642481E+01   0.5995790384E+00   0.2758060392E-02  -0.2357519242E-02  -0.4209855651E-03   0.0000000000E+00   0.0000000000E+00   0.0000000000E+00   0.1741170478E+00  -0.6853611143E-03   0.3378852375E-04   0.6510963798E-03  -0.1400833861E-03   0.7719174133E-04
  -0.1478717740E+01   0.1218653707E+01   0.5996087311E+00   0.2305329940E-02  -0.1867022691E-02  -0.3912928739E-03   0.0000000000E+00   0.0000000000E+00   0.0000000000E+00   0.1270826727E+00  -0.1406098276E-01   0.1921072878E-03   0.1307993393E-01   0.8167402491E-04  -0.2307195929E-03
  -0.1463995201E+01   0.1413308128E+01   0.5996000372E+00   0.2539409039E-02  -0.2032651513E-02  -0.3999867688E-03   0.0000000000E+00   0.0000000000E+00   0.0000000000E+00   0.1401437987E+00  -0.1067089701E-01  -0.1943725958E-03   0.6863829081E-02   0.2570777451E-04  -0.3396658613E-03
  -0.1457683523E+01   0.1608121360E+01   0.5995922444E+00   0.2745906794E-02  -0.2196349835E-02  -0.4077795780E-03   0.0000000000E+00   0.0000000000E+00   0.0000000000E+00   0.1508155154E+00  -0.5884269248E-02  -0.5532819296E-04   0.2437205921E-02  -0.4187043925E-05  -0.2894158791E-03
  -0.1455682445E+01   0.1802907420E+01   0.5995856827E+00   0.2934404857E-02  -0.2358479511E-02  -0.4143412653E-03   0.0000000000E+00   0.0000000000E+00   0.0000000000E+00   0.1632633370E+00  -0.1594617189E-02   0.1994343045E-02   0.3806450922E-03   0.7870557944E-04  -0.8018101088E-04
  -0.1454881198E+01   0.1997470917E+01   0.5995789509E+00   0.3118031797E-02  -0.2529083468E-02  -0.4210731302E-03   0.0000000000E+00   0.0000000000E+00   0.0000000000E+00   0.1758576742E+00  -0.7360096534E-03   0.9296403816E-03   0.1068506107E-03   0.3127367464E-03   0.9663883153E-04
  -0.1270748170E+01   0.1220569353E+01   0.5996073602E+00   0.2597300485E-02  -0.2048277298E-02  -0.3926638412E-03   0.0000000000E+00   0.0000000000E+00   0.0000000000E+00   0.1350992937E+00  -0.1945299856E-01  -0.2905836082E-04   0.9529889574E-02   0.1850233851E-04  -0.3822196541E-03
  -0.1258127118E+01   0.1415758138E+01   0.5995984627E+00   0.2850391736E-02  -0.2232661655E-02  -0.4015612796E-03   0.0000000000E+00   0.0000000000E+00   0.0000000000E+00   0.1466968539E+00  -0.1404965757E-01   0.2626351110E-04   0.1606696775E-02  -0.2470841202E-04  -0.3746152199E-03
  -0.1252420821E+01   0.1610315897E+01   0.5995915285E+00   0.3067219035E-02  -0.2405782570E-02  -0.4084954900E-03   0.0000000000E+00   0.0000000000E+00   0.0000000000E+00   0.1537217757E+00  -0.7687318581E-02  -0.3116843164E-03  -0.3157866752E-02   0.6714797447E-04  -0.2981044874E-03
  -0.1250925658E+01   0.1804136340E+01   0.5995863547E+00   0.3268362298E-02  -0.2570679763E-02  -0.4136693403E-03   0.0000000000E+00   0.0000000000E+00   0.0000000000E+00   0.1625492567E+00  -0.2019496878E-02   0.2269592598E-02  -0.3063268677E-02   0.3164178719E-03  -0.6969993723E-04
  -0.1250465173E+01   0.1997262029E+01   0.5995812067E+00   0.3474337306E-02  -0.2737971228E-02  -0.4188173425E-03   0.0000000000E+00   0.0000000000E+00   0.0000000000E+00   0.1722084389E+00  -0.7268998517E-03   0.1355614313E-02  -0.1219669873E-02   0.9728783141E-03   0.1117881596E-03
  -0.1066214841E+01   0.1223224243E+01   0.5996024559E+00   0.2910099270E-02  -0.2280867213E-02  -0.3975680916E-03   0.0000000000E+00   0.0000000000E+00   0.0000000000E+00   0.1459723352E+00  -0.2159344594E-01  -0.3594539006E-03   0.4106346283E-02  -0.3273295432E-03  -0.4199833181E-03
  -0.1051133720E+01   0.1419476424E+01   0.5995948161E+00   0.3180889892E-02  -0.2482376399E-02  -0.4052078806E-03   0.0000000000E+00   0.0000000000E+00   0.0000000000E+00   0.1541986504E+00  -0.1489719859E-01  -0.4876866682E-03  -0.5079478513E-02  -0.1654674823E-03  -0.3060418932E-03
  -0.1046084346E+01   0.1613501866E+01   0.5995905737E+00   0.3398474462E-02  -0.2661863577E-02  -0.4094503345E-03   0.0000000000E+00   0.0000000000E+00   0.0000000000E+00   0.1557908668E+00  -0.7714296590E-02   0.3893803660E-04  -0.9881725019E-02   0.1051480788E-03  -0.1641921136E-03
  -0.1045815309E+01   0.1805609147E+01   0.5995882870E+00   0.3597180734E-02  -0.2822122679E-02  -0.4117370186E-03   0.0000000000E+00   0.0000000000E+00   0.0000000000E+00   0.1576800739E+00  -0.2129096082E-02   0.1540167912E-02  -0.7136605094E-02   0.6370150264E-03  -0.2700344113E-04
  -0.1046703240E+01   0.1997021163E+01   0.5995861549E+00   0.3815989504E-02  -0.2978836606E-02  -0.4138690530E-03   0.0000000000E+00   0.0000000000E+00   0.0000000000E+00   0.1624862390E+00  -0.5120025680E-03   0.1960455765E-02  -0.2022412373E-02   0.1701598553E-02   0.1114152548E-03
  -0.8568784207E+00   0.1225213495E+01   0.5995916852E+00   0.3255227310E-02  -0.2567085187E-02  -0.4083387686E-03   0.0000000000E+00   0.0000000000E+00   0.0000000000E+00   0.1611726389E+00  -0.1580482149E-01  -0.9060612318E-03   0.7367476247E-03  -0.1079767346E-02  -0.2590369797E-03
  -0.8406806550E+00   0.1423430720E+01   0.5995883955E+00   0.3533904043E-02  -0.2779559733E-02  -0.4116285110E-03   0.0000000000E+00   0.0000000000E+00   0.0000000000E+00   0.1633517783E+00  -0.1057986521E-01   0.6305755109E-04  -0.1218928226E-01  -0.3850052914E-03   0.8201081100E-04
  -0.8373434159E+00   0.1616356920E+01   0.5995890260E+00   0.3732481110E-02  -0.2952740026E-02  -0.4109979630E-03   0.0000000000E+00   0.0000000000E+00   0.0000000000E+00   0.1554344281E+00  -0.5337338844E-02  -0.5446936957E-03  -0.1583022668E-01   0.1889358971E-03   0.1114734264E-03
  -0.8390580554E+00   0.1806822453E+01   0.5995913991E+00   0.3916726588E-02  -0.3101677356E-02  -0.4086249073E-03   0.0000000000E+00   0.0000000000E+00   0.0000000000E+00   0.1490113745E+00  -0.1681943114E-02   0.4523996044E-03  -0.1051462892E-01   0.9000103874E-03   0.6367515854E-04
  -0.8445720758E+00   0.1996763252E+01   0.5995935061E+00   0.4126063155E-02  -0.3236748228E-02  -0.4065178873E-03   0.0000000000E+00   0.0000000000E+00   0.0000000000E+00   0.1459922158E+00  -0.1322675386E-03   0.1686822390E-02  -0.3487253665E-02   0.2368318646E-02   0.7424053962E-04
   0.6337303895E+00  -0.1762224126E+01   0.5995636441E+00   0.5950190467E-02  -0.1322459756E-03  -0.4363798580E-03   0.0000000000E+00   0.0000000000E+00   0.0000000000E+00   0.1716942179E+00   0.2887397820E-01  -0.9941054528E-03   0.1644808456E-02   0.5205351030E-04  -0.1496010877E-03
   0.4249699545E+00  -0.1769894374E+01   0.5995562769E+00   0.5626274524E-02  -0.9907375162E-04  -0.4437470631E-03   0.0000000000E+00   0.0000000000E+00   0.0000000000E+00   0.1735858368E+00   0.4221389672E-01  -0.6089172701E-03   0.5230356772E-03   0.8175599701E-04  -0.2470671342E-03
   0.4157838422E+00  -0.2000000000E+01   0.5995574502E+00   0.5595555195E-02   0.0000000000E+00  -0.4425738393E-03   0.0000000000E+00   0.0000000000E+00   0.0000000000E+00   0.1702189663E+00   0.4260171965E-01  -0.6897367035E-03   0.1338647291E-02   0.5178087443E-04  -0.6111429030E-04
   0.6236557104E+00  -0.2000000000E+01   0.5995642650E+00   0.5910966380E-02   0.0000000000E+00  -0.4357589969E-03   0.0000000000E+00   0.0000000000E+00   0.0000000000E+00   0.1697458823E+00   0.3019330717E-01  -0.1452062750E-03   0.1644764227E-02   0.7032821000E-04  -0.8737761118E-04
   0.2161243379E+00  -0.1777874464E+01   0.5995510323E+00   0.5311321880E-02  -0.7521388798E-04  -0.4489916953E-03   0.0000000000E+00   0.0000000000E+00   0.0000000000E+00   0.1740421619E+00   0.5163759556E-01  -0.1105838451E-02  -0.4952573908E-04   0.8006808274E-04  -0.3500818117E-03
   0.2069658463E+00  -0.2000000000E+01   0.5995529518E+00   0.5289880320E-02   0.0000000000E+00  -0.4470722037E-03   0.0000000000E+00   0.0000000000E+00   0.0000000000E+00   0.1704614764E+00   0.5182334900E-01  -0.4216353106E-03   0.6673610299E-03   0.1236083948E-04  -0.1135019038E-03
   0.6254213403E-02  -0.1782719627E+01   0.5995492040E+00   0.5001901653E-02  -0.6581734312E-04  -0.4508199789E-03   0.0000000000E+00   0.0000000000E+00   0.0000000000E+00   0.1739736686E+00   0.5544071660E-01  -0.1111025917E-02   0.2354258507E-04  -0.7487492291E-05  -0.3994014894E-03
  -0.5394317901E-02  -0.2000000000E+01   0.5995513944E+00   0.4985016099E-02   0.0000000000E+00  -0.4486296347E-03   0.0000000000E+00   0.0000000000E+00   0.0000000000E+00   0.1704128476E+00   0.5486043792E-01  -0.6100932458E-03  -0.4414345064E-05  -0.1142163396E-04  -0.1227723864E-03
  -0.2014765367E+00  -0.1784601320E+01   0.5995511451E+00   0.4696153280E-02  -0.7259024830E-04  -0.4488788715E-03   0.0000000000E+00   0.0000000000E+00   0.0000000000E+00   0.1737419362E+00   0.5179326651E-01  -0.1118568179E-02   0.1593757889E-03  -0.1038905315E-03  -0.3355444724E-03
  -0.2151737201E+00  -0.2000000000E+01   0.5995532656E+00   0.4683540892E-02   0.0000000000E+00  -0.4467584244E-03   0.0000000000E+00   0.0000000000E+00   0.0000000000E+00   0.1704419696E+00   0.5145343501E-01  -0.4094855195E-03  -0.6576277044E-03  -0.1774860097E-04  -0.9390868059E-04
  -0.4109757255E+00  -0.1783994024E+01   0.5995564796E+00   0.4381804456E-02  -0.9233377685E-04  -0.4435443576E-03   0.0000000000E+00   0.0000000000E+00   0.0000000000E+00   0.1731639394E+00   0.4251868368E-01  -0.6165890715E-03  -0.3859455638E-03  -0.8205140220E-04  -0.2265914036E-03
  -0.4215276212E+00  -0.2000000000E+01   0.5995578690E+00   0.4380735750E-02   0.0000000000E+00  -0.4421549599E-03   0.0000000000E+00   0.0000000000E+00   0.0000000000E+00   0.1701541735E+00   0.4219013016E-01  -0.5895788014E-03  -0.1299087209E-02  -0.4404301379E-04  -0.6905922218E-05
   0.6503571627E+00  -0.1523339461E+01   0.5995613696E+00   0.6060158746E-02  -0.2766312435E-03  -0.4386543769E-03   0.0000000000E+00   0.0000000000E+00   0.0000000000E+00   0.1776124467E+00   0.2671715834E-01  -0.4503841911E-03   0.7205416212E-02   0.3901846222E-03  -0.5813573946E-03
   0.4394586670E+00  -0.1542187745E+01   0.5995506112E+00   0.5706220042E-02  -0.2087853493E-03  -0.4494127764E-03   0.0000000000E+00   0.0000000000E+00   0.0000000000E+00   0.1828962523E+00   0.4053005227E-01  -0.1938706539E-02   0.4145268211E-02   0.4457251571E-03  -0.1001807911E-02
   0.2297843032E+00  -0.1559709476E+01   0.5995432321E+00   0.5361505179E-02  -0.1578761559E-03  -0.4567919479E-03   0.0000000000E+00   0.0000000000E+00   0.0000000000E+00   0.1863833068E+00   0.5175819233E-01  -0.1838420006E-02   0.2065576198E-02   0.3063271815E-03  -0.1313675846E-02
   0.2167463827E-01  -0.1569972333E+01   0.5995405168E+00   0.5026796466E-02  -0.1369128874E-03  -0.4595072233E-03   0.0000000000E+00   0.0000000000E+00   0.0000000000E+00   0.1877713745E+00   0.5616940184E-01  -0.1420087257E-02   0.1410010158E-03   0.2631399491E-04  -0.1445104483E-02
  -0.1858817013E+00  -0.1572703375E+01   0.5995429473E+00   0.4695745658E-02  -0.1477146507E-03  -0.4570767078E-03   0.0000000000E+00   0.0000000000E+00   0.0000000000E+00   0.1857356274E+00   0.5300794420E-01  -0.1820823194E-02  -0.1582287755E-02  -0.2548515904E-03  -0.1337303856E-02
  -0.3945289881E+00  -0.1568875492E+01   0.5995498871E+00   0.4360106922E-02  -0.1871022434E-03  -0.4501369042E-03   0.0000000000E+00   0.0000000000E+00   0.0000000000E+00   0.1819421209E+00   0.4271468871E-01  -0.2001489991E-02  -0.3180231148E-02  -0.3948125713E-03  -0.1031241414E-02
   0.6756704361E+00  -0.1279964539E+01   0.5995589942E+00   0.6277731143E-02  -0.4445086303E-03  -0.4410297939E-03   0.0000000000E+00   0.0000000000E+00   0.0000000000E+00   0.1841689540E+00   0.2227857987E-01  -0.3418414049E-02   0.1939411107E-01   0.9976245559E-03  -0.7459400975E-03
   0.4550012115E+00  -0.1319026604E+01   0.5995425989E+00   0.5857891479E-02  -0.3327241378E-03  -0.4574250854E-03   0.0000000000E+00   0.0000000000E+00   0.0000000000E+00   0.1987183861E+00   0.4029158843E-01  -0.2702752872E-02   0.1509887428E-01   0.1076227439E-02  -0.1260465540E-02
   0.2421194053E+00  -0.1350492375E+01   0.5995315724E+00   0.5450982345E-02  -0.2577450831E-03  -0.4684515919E-03   0.0000000000E+00   0.0000000000E+00   0.0000000000E+00   0.2118244202E+00   0.5114152241E-01  -0.1609649209E-02   0.9068938903E-02   0.7105475626E-03  -0.1765073598E-02
   0.3419084405E-01  -0.1367007612E+01   0.5995271853E+00   0.5055249948E-02  -0.2270916395E-03  -0.4728386514E-03   0.0000000000E+00   0.0000000000E+00   0.0000000000E+00   0.2162467973E+00   0.5466754312E-01  -0.2209149005E-02   0.8443218857E-03   0.1001996245E-03  -0.1973683716E-02
  -0.1743814882E+00  -0.1367800784E+01   0.5995303187E+00   0.4663771844E-02  -0.2375338884E-03  -0.4697052841E-03   0.0000000000E+00   0.0000000000E+00   0.0000000000E+00   0.2116192993E+00   0.5353261584E-01  -0.1827616550E-02  -0.7010216232E-02  -0.4968945901E-03  -0.1866794535E-02
  -0.3837649602E+00  -0.1355292917E+01   0.5995397110E+00   0.4278741770E-02  -0.2902765930E-03  -0.4603129666E-03   0.0000000000E+00   0.0000000000E+00   0.0000000000E+00   0.1990675113E+00   0.4450082505E-01  -0.3636427737E-02  -0.1175738130E-01  -0.9095863850E-03  -0.1503837173E-02
   0.7083699295E+00  -0.1013739731E+01   0.5995657165E+00   0.6712515495E-02  -0.6293305039E-03  -0.4343074854E-03   0.0000000000E+00   0.0000000000E+00   0.0000000000E+00   0.1703965571E+00   0.3218147455E-01   0.4399350088E-02   0.5023382299E-01   0.1915141225E-02   0.5245505560E-03
   0.4624655117E+00  -0.1104357376E+01   0.5995376670E+00   0.6129937668E-02  -0.4767364567E-03  -0.4623569728E-03   0.0000000000E+00   0.0000000000E+00   0.0000000000E+00   0.2229086706E+00   0.4332701007E-01   0.1041572991E-01   0.4813664443E-01   0.2064624723E-02  -0.3958980000E-03
   0.2470601213E+00  -0.1157515164E+01   0.5995209096E+00   0.5597056328E-02  -0.3987535262E-03  -0.4791143846E-03   0.0000000000E+00   0.0000000000E+00   0.0000000000E+00   0.2618569226E+00   0.4068463648E-01   0.1095813162E-01   0.3207411429E-01   0.1286582514E-02  -0.8606361146E-03
   0.4221377310E-01  -0.1180248845E+01   0.5995143607E+00   0.5091814102E-02  -0.3666745724E-03  -0.4856633170E-03   0.0000000000E+00   0.0000000000E+00   0.0000000000E+00   0.2757776909E+00   0.3912055428E-01   0.1140539608E-01   0.5693010336E-02   0.1821360644E-03  -0.1126721105E-02
  -0.1621008384E+00  -0.1176288094E+01   0.5995179802E+00   0.4594607600E-02  -0.3742838132E-03  -0.4820437770E-03   0.0000000000E+00   0.0000000000E+00   0.0000000000E+00   0.2680491258E+00   0.4022694030E-01   0.1138558321E-01  -0.2143748686E-01  -0.8914820704E-03  -0.1017539990E-02
  -0.3747167330E+00  -0.1145735404E+01   0.5995310991E+00   0.4090782000E-02  -0.4242837982E-03  -0.4689249213E-03   0.0000000000E+00   0.0000000000E+00   0.0000000000E+00   0.2357214963E+00   0.4311830653E-01   0.1154378477E-01  -0.3946355896E-01  -0.1666414690E-02  -0.7060080878E-03
  -0.1295357375E+00  -0.9916004903E+00   0.5995031621E+00   0.4522112522E-02  -0.6269582889E-03  -0.4968618758E-03   0.0000000000E+00   0.0000000000E+00   0.0000000000E+00   0.3434666337E+00   0.1398993166E-01   0.5740023542E-02  -0.4300711519E-01  -0.1435460117E-02   0.7834363584E-03
  -0.3065330106E+00  -0.9512246119E+00   0.5995172494E+00   0.3895847385E-02  -0.6279809111E-03  -0.4827746494E-03   0.0000000000E+00   0.0000000000E+00   0.0000000000E+00   0.2883479884E+00   0.3312156811E-01   0.3740924425E-02  -0.8362454718E-01  -0.2965946188E-02   0.1750973702E-02
   0.4576911469E-01  -0.9998015497E+00   0.5995001686E+00   0.5148392786E-02  -0.6268957055E-03  -0.4998554464E-03   0.0000000000E+00   0.0000000000E+00   0.0000000000E+00   0.3554907100E+00   0.8572533661E-02   0.6356255078E-02   0.1181573166E-01   0.3620378950E-03   0.5692643332E-03
   0.2220777864E+00  -0.9769545627E+00   0.5995080824E+00   0.5777775357E-02  -0.6276207476E-03  -0.4919416085E-03   0.0000000000E+00   0.0000000000E+00   0.0000000000E+00   0.3267339872E+00   0.2043554802E-01   0.6497950440E-02   0.6396856983E-01   0.2168114435E-02   0.9370070032E-03
   0.4015114772E+00  -0.9192716264E+00   0.5995276803E+00   0.6411420172E-02  -0.6335164022E-03  -0.4723436586E-03   0.0000000000E+00   0.0000000000E+00   0.0000000000E+00   0.2554013672E+00   0.4326739089E-01   0.4748274650E-02   0.9545588937E-01   0.3597398059E-02   0.2126748043E-02
   0.5805866669E+00  -0.8198299873E+00   0.5995593666E+00   0.7036144859E-02  -0.6598103117E-03  -0.4406573650E-03   0.0000000000E+00   0.0000000000E+00   0.0000000000E+00   0.1728509681E+00   0.6160902355E-01   0.2427013352E-02   0.9844186671E-01   0.4445519978E-02   0.3555955164E-02
   0.8644151151E+00  -0.7844497702E+00   0.5996000958E+00   0.7427877095E-02  -0.8325722102E-03  -0.3999282169E-03   0.0000000000E+00   0.0000000000E+00   0.0000000000E+00   0.1015105526E+00   0.2983843572E-01   0.5261718618E-02   0.5541221022E-01   0.1878694817E-02   0.2742825782E-02
   0.7403305794E+00  -0.6812571732E+00   0.5995984725E+00   0.7621648382E-02  -0.7150621869E-03  -0.4015515384E-03   0.0000000000E+00   0.0000000000E+00   0.0000000000E+00   0.8311810342E-01   0.5871254409E-01  -0.1466356405E-02   0.6388507523E-01   0.4397408121E-02   0.4679413614E-02
   0.9854682936E+00  -0.5799449181E+00   0.5996355945E+00   0.7975364647E-02  -0.9835460531E-03  -0.3644295368E-03   0.0000000000E+00   0.0000000000E+00   0.0000000000E+00   0.4640686034E-01   0.2211340351E-02  -0.5767735138E-02   0.3455507410E-01   0.1328311603E-02   0.3766200186E-02
   0.8628882141E+00  -0.5197399524E+00   0.5996389073E+00   0.8062896125E-02  -0.8240604102E-03  -0.3611167002E-03   0.0000000000E+00   0.0000000000E+00   0.0000000000E+00   0.2137065533E-01   0.1849511879E-01  -0.5935754365E-02   0.2165274612E-01   0.3441531427E-02   0.5903136339E-02
   0.1071593861E+01  -0.3839442541E+00   0.5996653389E+00   0.8359531134E-02  -0.1121889052E-02  -0.3346851164E-03   0.0000000000E+00   0.0000000000E+00   0.0000000000E+00   0.1532339295E-01  -0.3305976188E-01  -0.8828788224E-02   0.1712856429E-01   0.2869403718E-03   0.3525487239E-02
   0.9460682450E+00  -0.3484098129E+00   0.5996731765E+00   0.8365588994E-02  -0.9710599242E-03  -0.3268475310E-03   0.0000000000E+00   0.0000000000E+00   0.0000000000E+00   0.1859853255E-02  -0.4377621399E-01  -0.1047953628E-01  -0.7838699155E-02   0.2073527455E-02   0.5366457442E-02
   0.1120712254E+01  -0.1928233609E+00   0.5996859300E+00   0.8598893815E-02  -0.1245374860E-02  -0.3140939615E-03   0.0000000000E+00   0.0000000000E+00   0.0000000000E+00  -0.5624154492E-04  -0.6363067377E-01  -0.1224196354E-01   0.8770744910E-02  -0.6572047933E-03   0.2432159669E-02
   0.9932592156E+00  -0.1753458033E+00   0.5996977815E+00   0.8547687593E-02  -0.1152853299E-02  -0.3022424955E-03   0.0000000000E+00   0.0000000000E+00   0.0000000000E+00  -0.4659750543E-03  -0.1000894133E+00  -0.1276859276E-01  -0.1130331553E-01   0.8948179430E-03   0.3803760396E-02
   0.1256408488E+01  -0.1990118423E+00   0.5996752109E+00   0.8636868240E-02  -0.1285175255E-02  -0.3248130913E-03   0.0000000000E+00   0.0000000000E+00   0.0000000000E+00   0.1040287597E-01  -0.3249747426E-01  -0.5635674811E-03   0.2422762918E-01  -0.1652706501E-02   0.1460261602E-02
   0.1411380006E+01  -0.2033775717E+00   0.5996623051E+00   0.8676955842E-02  -0.1283925665E-02  -0.3377188948E-03   0.0000000000E+00   0.0000000000E+00   0.0000000000E+00   0.2308807197E-01  -0.1429587185E-01   0.1452602526E-02   0.2759123832E-01  -0.1745687543E-02   0.7978239713E-03
   0.1580449583E+01  -0.2067378045E+00   0.5996500209E+00   0.8729813078E-02  -0.1255947525E-02  -0.3500031207E-03   0.0000000000E+00   0.0000000000E+00   0.0000000000E+00   0.3589719083E-01  -0.2962830321E-02   0.1730472016E-02   0.2717764911E-01  -0.1027865898E-02   0.3520168129E-03
   0.1754363814E+01  -0.2091942599E+00   0.5996408863E+00   0.8799113978E-02  -0.1213656879E-02  -0.3591376599E-03   0.0000000000E+00   0.0000000000E+00   0.0000000000E+00   0.4690671150E-01   0.2888199106E-02   0.1082782065E-02   0.2470268838E-01  -0.4950046030E-03   0.1503369609E-03
   0.1928606771E+01  -0.2109208199E+00   0.5996341845E+00   0.8882781260E-02  -0.1166888930E-02  -0.3658395245E-03   0.0000000000E+00   0.0000000000E+00   0.0000000000E+00   0.5579789199E-01   0.6276049859E-02   0.5247532573E-03   0.2171579834E-01  -0.2100641415E-03   0.5914645315E-04
   0.2111180164E+01  -0.2135720655E+00   0.5996292193E+00   0.8983473862E-02  -0.1118133464E-02  -0.3708047122E-03   0.0000000000E+00   0.0000000000E+00   0.0000000000E+00   0.6318588034E-01   0.8142761081E-02   0.1750167289E-03   0.1857705712E-01  -0.7091343815E-04   0.3024717922E-04
   0.2294965287E+01  -0.2158976075E+00   0.5996255871E+00   0.9096167081E-02  -0.1072483489E-02  -0.3744368802E-03   0.0000000000E+00   0.0000000000E+00   0.0000000000E+00   0.6894092556E-01   0.9271485680E-02   0.8774863676E-05   0.1559174331E-01  -0.3299606109E-04   0.1685166906E-04
   0.2457698679E+01  -0.2152967521E+00   0.5996232045E+00   0.9204249068E-02  -0.1036904132E-02  -0.3768195364E-03   0.0000000000E+00   0.0000000000E+00   0.0000000000E+00   0.7331155996E-01   0.9779050546E-02  -0.1387650818E-04   0.1299895580E-01  -0.1000870041E-04   0.9445500951E-05
   0.2628071032E+01  -0.2157891719E+00   0.5996212737E+00   0.9323321949E-02  -0.1004042902E-02  -0.3787502648E-03   0.0000000000E+00   0.0000000000E+00   0.0000000000E+00   0.7676158597E-01   0.1009047880E-01  -0.3425513407E-04   0.1053117633E-01  -0.1156281850E-04   0.6184607680E-05
   0.2802934702E+01  -0.2169831093E+00   0.5996197980E+00   0.9450971798E-02  -0.9759962837E-03  -0.3802260478E-03   0.0000000000E+00   0.0000000000E+00   0.0000000000E+00   0.7965363404E-01   0.1020544377E-01  -0.1770818554E-04   0.8197863354E-02  -0.9865888974E-05   0.1931153066E-05
   0.2978606062E+01  -0.2182295372E+00   0.5996187141E+00   0.9583552097E-02  -0.9536491556E-03  -0.3813099350E-03   0.0000000000E+00   0.0000000000E+00   0.0000000000E+00   0.8181651292E-01   0.1024185963E-01  -0.5974719588E-05   0.6003314613E-02  -0.8737377385E-05  -0.4817721506E-06
   0.3155230831E+01  -0.2194760082E+00   0.5996179763E+00   0.9720160621E-02  -0.9375902488E-03  -0.3820476747E-03   0.0000000000E+00   0.0000000000E+00   0.0000000000E+00   0.8332780201E-01   0.1021255297E-01  -0.1006112485E-04   0.3966700770E-02  -0.7046323737E-05  -0.1958652449E-05
   0.3332347632E+01  -0.2203509161E+00   0.5996175466E+00   0.9859321591E-02  -0.9277110968E-03  -0.3824774324E-03   0.0000000000E+00   0.0000000000E+00   0.0000000000E+00   0.8422247854E-01   0.1019236212E-01  -0.2236628621E-05   0.1868856185E-02   0.8657547442E-06  -0.2660127033E-05
   0.3510000000E+01  -0.2211489361E+00   0.5996174071E+00   0.1000000000E-01  -0.9243621191E-03  -0.3826168794E-03   0.0000000000E+00   0.0000000000E+00   0.0000000000E+00   0.8451729433E-01   0.1017576034E-01  -0.3912737638E-05   0.3162197901E-03  -0.1505518493E-04  -0.3059711579E-05
   0.1210704937E+01  -0.3971200211E+00   0.5996595400E+00   0.8398906790E-02  -0.1199208113E-02  -0.3404840342E-03   0.0000000000E+00   0.0000000000E+00   0.0000000000E+00   0.3300580500E-01  -0.2382492865E-01  -0.5499836945E-03   0.3533006128E-01  -0.8666577903E-03   0.2161247168E-02
   0.1373611808E+01  -0.4070650861E+00   0.5996512335E+00   0.8464218498E-02  -0.1222156143E-02  -0.3487904912E-03   0.0000000000E+00   0.0000000000E+00   0.0000000000E+00   0.4386646148E-01  -0.1441846908E-01   0.8213639938E-03   0.3921339603E-01  -0.1155458903E-02   0.1181477735E-02
   0.1544051209E+01  -0.4130077888E+00   0.5996429925E+00   0.8548779039E-02  -0.1205049753E-02  -0.3570314521E-03   0.0000000000E+00   0.0000000000E+00   0.0000000000E+00   0.5351567509E-01  -0.7362822142E-02   0.1358862957E-02   0.3811686874E-01  -0.7357238068E-03   0.5378869038E-03
   0.1719271156E+01  -0.4171589603E+00   0.5996364173E+00   0.8648126230E-02  -0.1166879315E-02  -0.3636067195E-03   0.0000000000E+00   0.0000000000E+00   0.0000000000E+00   0.6046472343E-01  -0.2363617679E-02   0.6051055139E-03   0.3425964098E-01  -0.3786867643E-03   0.2240258234E-03
   0.1896823740E+01  -0.4204865996E+00   0.5996313140E+00   0.8758160278E-02  -0.1119375625E-02  -0.3687099782E-03   0.0000000000E+00   0.0000000000E+00   0.0000000000E+00   0.6641138623E-01   0.1177547592E-02   0.4015507532E-03   0.2991339771E-01  -0.1691442968E-03   0.9243138502E-04
   0.2074547257E+01  -0.4234117644E+00   0.5996275466E+00   0.8876287222E-02  -0.1069762384E-02  -0.3724773575E-03   0.0000000000E+00   0.0000000000E+00   0.0000000000E+00   0.7121864919E-01   0.3425955620E-02   0.1007835518E-03   0.2551480038E-01  -0.6117265420E-04   0.3907099934E-04
   0.2255434787E+01  -0.4264279301E+00   0.5996246498E+00   0.9003436973E-02  -0.1021295137E-02  -0.3753741815E-03   0.0000000000E+00   0.0000000000E+00   0.0000000000E+00   0.7528341382E-01   0.4897896843E-02   0.6877343043E-04   0.2139675756E-01  -0.2459276185E-04   0.2178522794E-04
   0.2432000524E+01  -0.4287392467E+00   0.5996225230E+00   0.9133223783E-02  -0.9781686957E-03  -0.3775010378E-03   0.0000000000E+00   0.0000000000E+00   0.0000000000E+00   0.7861081085E-01   0.5915314105E-02   0.4637934920E-04   0.1765127701E-01  -0.8740618864E-05   0.1552784145E-04
   0.2609422355E+01  -0.4311292669E+00   0.5996208821E+00   0.9268675148E-02  -0.9405519351E-03  -0.3791419063E-03   0.0000000000E+00   0.0000000000E+00   0.0000000000E+00   0.8123873354E-01   0.6476311953E-02  -0.1942651985E-04   0.1422818881E-01  -0.5471864811E-05   0.1131770866E-04
   0.2788302580E+01  -0.4337133573E+00   0.5996196437E+00   0.9409109809E-02  -0.9084743362E-03  -0.3803802729E-03   0.0000000000E+00   0.0000000000E+00   0.0000000000E+00   0.8331670550E-01   0.6897319128E-02  -0.9668292972E-05   0.1105790167E-01  -0.5447810292E-05   0.8048645906E-05
   0.2967875348E+01  -0.4362776750E+00   0.5996187343E+00   0.9553297826E-02  -0.8831489547E-03  -0.3812897349E-03   0.0000000000E+00   0.0000000000E+00   0.0000000000E+00   0.8491124433E-01   0.7135890796E-02  -0.1157686753E-04   0.8081736665E-02  -0.5650437766E-05   0.4244291783E-05
   0.3148030329E+01  -0.4385460036E+00   0.5996181114E+00   0.9700349062E-02  -0.8645666226E-03  -0.3819125545E-03   0.0000000000E+00   0.0000000000E+00   0.0000000000E+00   0.8603071024E-01   0.7283049590E-02   0.1142648624E-05   0.5330453577E-02  -0.5258448400E-05   0.2185022902E-05
   0.3328708125E+01  -0.4400993916E+00   0.5996177484E+00   0.9849505106E-02  -0.8534225717E-03  -0.3822756426E-03   0.0000000000E+00   0.0000000000E+00   0.0000000000E+00   0.8669514010E-01   0.7346252088E-02  -0.8065658182E-05   0.2513748311E-02   0.1105822981E-05   0.6753024274E-06
   0.3510000000E+01  -0.4413149166E+00   0.5996176290E+00   0.1000000000E-01  -0.8493175947E-03  -0.3823949877E-03   0.0000000000E+00   0.0000000000E+00   0.0000000000E+00   0.8691846140E-01   0.7367047312E-02   0.4132437886E-05   0.4093331175E-03  -0.1260779666E-04   0.4456812330E-06
   0.1137122652E+01  -0.5982458863E+00   0.5996372132E+00   0.8036162168E-02  -0.1086381315E-02  -0.3628107590E-03   0.0000000000E+00   0.0000000000E+00   0.0000000000E+00   0.6731584555E-01  -0.1210867860E-01   0.2890217294E-03   0.4426425892E-01   0.1440768207E-03   0.2225464183E-02
   0.1306453014E+01  -0.6104650012E+00   0.5996360483E+00   0.8145593688E-02  -0.1127731201E-02  -0.3639756844E-03   0.0000000000E+00   0.0000000000E+00   0.0000000000E+00   0.7442841034E-01  -0.1414472662E-01   0.1509525056E-02   0.4524940515E-01  -0.4094043020E-03   0.1174319020E-02
   0.1483411799E+01  -0.6185372420E+00   0.5996330064E+00   0.8280049265E-02  -0.1124675019E-02  -0.3670175514E-03   0.0000000000E+00   0.0000000000E+00   0.0000000000E+00   0.7755237157E-01  -0.1205671913E-01   0.7836111835E-03   0.4308520534E-01  -0.3822295545E-03   0.4972309904E-03
   0.1664275455E+01  -0.6244773086E+00   0.5996298313E+00   0.8423614522E-02  -0.1095097628E-02  -0.3701926697E-03   0.0000000000E+00   0.0000000000E+00   0.0000000000E+00   0.7971538359E-01  -0.8286077797E-02   0.7548364027E-03   0.3930321002E-01  -0.2317328310E-03   0.2173517789E-03
   0.1847181894E+01  -0.6294116432E+00   0.5996268949E+00   0.8571963913E-02  -0.1050775214E-02  -0.3731291123E-03   0.0000000000E+00   0.0000000000E+00   0.0000000000E+00   0.8152827221E-01  -0.5101732763E-02   0.2923123003E-03   0.3468504015E-01  -0.1161264388E-03   0.8299309324E-04
   0.2031039526E+01  -0.6338943376E+00   0.5996245091E+00   0.8723065531E-02  -0.1001252592E-02  -0.3755148560E-03   0.0000000000E+00   0.0000000000E+00   0.0000000000E+00   0.8330497256E-01  -0.2463330863E-02   0.1760946976E-03   0.2987196403E-01  -0.4167370576E-04   0.3887181695E-04
   0.2215868869E+01  -0.6382074621E+00   0.5996225799E+00   0.8876959044E-02  -0.9512570929E-03  -0.3774441050E-03   0.0000000000E+00   0.0000000000E+00   0.0000000000E+00   0.8490852550E-01  -0.5117116644E-03  -0.4187216739E-05   0.2518964922E-01  -0.1580902835E-04   0.1869802632E-04
   0.2399892557E+01  -0.6422791126E+00   0.5996210780E+00   0.9032237468E-02  -0.9050015571E-03  -0.3789460306E-03   0.0000000000E+00   0.0000000000E+00   0.0000000000E+00   0.8639233485E-01   0.9869394388E-03   0.8776120531E-06   0.2079010129E-01  -0.4552499474E-05   0.1283825924E-04
   0.2583947752E+01  -0.6462915576E+00   0.5996199028E+00   0.9189222154E-02  -0.8637946164E-03  -0.3801211880E-03   0.0000000000E+00   0.0000000000E+00   0.0000000000E+00   0.8769911847E-01   0.2069423186E-02   0.2319154741E-04   0.1671665492E-01  -0.2709524093E-05   0.9737886628E-05
   0.2768419761E+01  -0.6502903555E+00   0.5996189980E+00   0.9348411184E-02  -0.8291454653E-03  -0.3810260374E-03   0.0000000000E+00   0.0000000000E+00   0.0000000000E+00   0.8875021786E-01   0.2801291046E-02  -0.1091828129E-04   0.1297420632E-01  -0.2122743507E-05   0.8107563697E-05
   0.2953244440E+01  -0.6541005355E+00   0.5996183294E+00   0.9509320346E-02  -0.8012634816E-03  -0.3816946145E-03   0.0000000000E+00   0.0000000000E+00   0.0000000000E+00   0.8956653546E-01   0.3350107371E-02   0.5020587250E-05   0.9485432287E-02  -0.2430535706E-05   0.6099179548E-05
   0.3138427607E+01  -0.6573658955E+00   0.5996178685E+00   0.9671797328E-02  -0.7810965173E-03  -0.3821555146E-03   0.0000000000E+00   0.0000000000E+00   0.0000000000E+00   0.9014207313E-01   0.3693638600E-02  -0.7235246860E-05   0.6237979300E-02  -0.2997910055E-05   0.3851851479E-05
   0.3324001298E+01  -0.6596249257E+00   0.5996175980E+00   0.9835467518E-02  -0.7686526768E-03  -0.3824259579E-03   0.0000000000E+00   0.0000000000E+00   0.0000000000E+00   0.9049866370E-01   0.3897393324E-02   0.2719029599E-05   0.2972921869E-02   0.1101420303E-05   0.2864058835E-05
   0.3510000000E+01  -0.6611742596E+00   0.5996175084E+00   0.1000000000E-01  -0.7642725882E-03  -0.3825155643E-03   0.0000000000E+00   0.0000000000E+00   0.0000000000E+00   0.9061286927E-01   0.3946806177E-02  -0.5166555667E-05   0.3696409157E-03  -0.8966800432E-05   0.2248981282E-05
   0.1045922998E+01  -0.8085617419E+00   0.5996112120E+00   0.7560497552E-02  -0.9331099324E-03  -0.3888120324E-03   0.0000000000E+00   0.0000000000E+00   0.0000000000E+00   0.1158485660E+00  -0.3502688367E-02   0.2700314014E-02   0.4613543026E-01   0.9625315695E-03   0.1325015671E-02
   0.1232357060E+01  -0.8216949948E+00   0.5996176683E+00   0.7753049879E-02  -0.9876738302E-03  -0.3823557477E-03   0.0000000000E+00   0.0000000000E+00   0.0000000000E+00   0.1077739377E+00  -0.1366367582E-01  -0.3106810574E-03   0.4295350657E-01   0.2643769728E-03   0.6926552636E-03
   0.1419693233E+01  -0.8301111798E+00   0.5996208213E+00   0.7953643306E-02  -0.1001749786E-02  -0.3792027101E-03   0.0000000000E+00   0.0000000000E+00   0.0000000000E+00   0.1047423145E+00  -0.1508151480E-01   0.6362571792E-03   0.4177929429E-01  -0.5942850730E-04   0.3204681253E-03
   0.1607880024E+01  -0.8366203646E+00   0.5996213471E+00   0.8152873766E-02  -0.9841656481E-03  -0.3786768700E-03   0.0000000000E+00   0.0000000000E+00   0.0000000000E+00   0.1013171844E+00  -0.1362349560E-01   0.2188448605E-03   0.3897626765E-01  -0.1077128978E-03   0.1767436846E-03
   0.1796925082E+01  -0.8423678675E+00   0.5996210922E+00   0.8347882097E-02  -0.9487664584E-03  -0.3789318443E-03   0.0000000000E+00   0.0000000000E+00   0.0000000000E+00   0.9907719134E-01  -0.1100292458E-01   0.2131711766E-03   0.3514725303E-01  -0.5558600119E-04   0.6543217629E-04
   0.1986613073E+01  -0.8477857192E+00   0.5996204018E+00   0.8538762882E-02  -0.9036742384E-03  -0.3796222131E-03   0.0000000000E+00   0.0000000000E+00   0.0000000000E+00   0.9747718714E-01  -0.8442561796E-02   0.4790991466E-04   0.3078612288E-01  -0.2753540184E-04   0.3818572482E-04
   0.2176743809E+01  -0.8530433209E+00   0.5996197084E+00   0.8726418710E-02  -0.8562838815E-03  -0.3803156401E-03   0.0000000000E+00   0.0000000000E+00   0.0000000000E+00   0.9648472004E-01  -0.6164696895E-02   0.3288358098E-04   0.2625740801E-01  -0.5219246180E-05   0.1685129183E-04
   0.2366799838E+01  -0.8581753671E+00   0.5996190321E+00   0.8911137858E-02  -0.8103551146E-03  -0.3809918790E-03   0.0000000000E+00   0.0000000000E+00   0.0000000000E+00   0.9585516665E-01  -0.4287143479E-02  -0.7623625358E-05   0.2184967178E-01  -0.2329337443E-05   0.1398053350E-04
   0.2556859332E+01  -0.8632271392E+00   0.5996184596E+00   0.9094082139E-02  -0.7690292209E-03  -0.3815644169E-03   0.0000000000E+00   0.0000000000E+00   0.0000000000E+00   0.9547825484E-01  -0.2787037145E-02  -0.2270723548E-04   0.1764134709E-01   0.3151071129E-06   0.8949537785E-05
   0.2747051778E+01  -0.8681610400E+00   0.5996179834E+00   0.9275737588E-02  -0.7334519965E-03  -0.3820405996E-03   0.0000000000E+00   0.0000000000E+00   0.0000000000E+00   0.9528480721E-01  -0.1615615380E-02   0.7860889910E-05   0.1370492805E-01  -0.4908668133E-06   0.7958657066E-05
   0.2937421582E+01  -0.8727816824E+00   0.5996176170E+00   0.9456891783E-02  -0.7050513968E-03  -0.3824070102E-03   0.0000000000E+00   0.0000000000E+00   0.0000000000E+00   0.9516416091E-01  -0.7776289125E-03  -0.1427401247E-04   0.1001598078E-01  -0.1189565192E-06   0.5625256893E-05
   0.3128017371E+01  -0.8767260183E+00   0.5996173564E+00   0.9637780724E-02  -0.6840692517E-03  -0.3826675801E-03   0.0000000000E+00   0.0000000000E+00   0.0000000000E+00   0.9510660657E-01  -0.1775214521E-03   0.8470465390E-05   0.6589248801E-02  -0.1054495067E-05   0.4741235147E-05
   0.3318883186E+01  -0.8795394317E+00   0.5996172009E+00   0.9818795869E-02  -0.6713286549E-03  -0.3828231407E-03   0.0000000000E+00   0.0000000000E+00   0.0000000000E+00   0.9507850785E-01   0.1511968933E-03  -0.1097788706E-04   0.3130284919E-02   0.8666989976E-06   0.3273816090E-05
   0.3510000000E+01  -0.8813328145E+00   0.5996171481E+00   0.1000000000E-01  -0.6665585148E-03  -0.3828759264E-03   0.0000000000E+00   0.0000000000E+00   0.0000000000E+00   0.9508029701E-01   0.2652125508E-03   0.1250646294E-04   0.4121010005E-03  -0.4874978961E-05   0.3350155928E-05
   0.9516499387E+00  -0.1032645227E+01   0.5995884196E+00   0.7055912710E-02  -0.7370770872E-03  -0.4116044368E-03   0.0000000000E+00   0.0000000000E+00   0.0000000000E+00   0.1511979777E+00   0.1473825109E-02  -0.1356886702E-02   0.3255213741E-01   0.1175829170E-02   0.1507177904E-03
   0.1159344601E+01  -0.1040559102E+01   0.5996012192E+00   0.7346680769E-02  -0.8100718449E-03  -0.3988048288E-03   0.0000000000E+00   0.0000000000E+00   0.0000000000E+00   0.1362595113E+00  -0.1022622662E-01  -0.3175050594E-03   0.3485029312E-01   0.4601913063E-03   0.1632337101E-03
   0.1356960598E+01  -0.1046413439E+01   0.5996088306E+00   0.7615038017E-02  -0.8381788223E-03  -0.3911933873E-03   0.0000000000E+00   0.0000000000E+00   0.0000000000E+00   0.1286222334E+00  -0.1578694255E-01   0.4409463884E-04   0.3465316519E-01   0.8905605819E-04   0.1732659536E-03
   0.1552171764E+01  -0.1052150601E+01   0.5996126092E+00   0.7868583845E-02  -0.8362505016E-03  -0.3874148266E-03   0.0000000000E+00   0.0000000000E+00   0.0000000000E+00   0.1215472472E+00  -0.1653708202E-01   0.1899509638E-03   0.3373018470E-01  -0.2162837532E-04   0.8913665064E-04
   0.1747319718E+01  -0.1058038668E+01   0.5996147973E+00   0.8110428346E-02  -0.8118884695E-03  -0.3852266712E-03   0.0000000000E+00   0.0000000000E+00   0.0000000000E+00   0.1161104730E+00  -0.1546152708E-01   0.1396026840E-03   0.3147650765E-01  -0.1625565274E-04   0.5070218871E-04
   0.1942786121E+01  -0.1063949188E+01   0.5996158496E+00   0.8342410948E-02  -0.7758984442E-03  -0.3841743910E-03   0.0000000000E+00   0.0000000000E+00   0.0000000000E+00   0.1117175370E+00  -0.1345935697E-01   0.9547311541E-04   0.2824948161E-01  -0.1205131733E-04   0.2406519638E-04
   0.2138447300E+01  -0.1069805541E+01   0.5996164355E+00   0.8565679792E-02  -0.7342507060E-03  -0.3835884641E-03   0.0000000000E+00   0.0000000000E+00   0.0000000000E+00   0.1083010427E+00  -0.1131323849E-01   0.4691651193E-04   0.2454721985E-01   0.1701995328E-05   0.1603520179E-04
   0.2334132178E+01  -0.1075601189E+01   0.5996166764E+00   0.8781898005E-02  -0.6926990333E-03  -0.3833476005E-03   0.0000000000E+00   0.0000000000E+00   0.0000000000E+00   0.1056544783E+00  -0.9261729316E-02   0.2080111731E-04   0.2064380084E-01   0.1765436609E-05   0.1045960759E-04
   0.2529845966E+01  -0.1081333305E+01   0.5996167750E+00   0.8992205848E-02  -0.6538853295E-03  -0.3832489657E-03   0.0000000000E+00   0.0000000000E+00   0.0000000000E+00   0.1036478961E+00  -0.7461391937E-02   0.2688984115E-04   0.1679949810E-01   0.2929952516E-05   0.8152549640E-05
   0.2725592644E+01  -0.1086932864E+01   0.5996167724E+00   0.9198224031E-02  -0.6203338247E-03  -0.3832515609E-03   0.0000000000E+00   0.0000000000E+00   0.0000000000E+00   0.1021237029E+00  -0.5982576796E-02  -0.4365436628E-05   0.1309946596E-01   0.1461982998E-05   0.5889388045E-05
   0.2921406779E+01  -0.1092227635E+01   0.5996167435E+00   0.9400878917E-02  -0.5928847801E-03  -0.3832804555E-03   0.0000000000E+00   0.0000000000E+00   0.0000000000E+00   0.1010386592E+00  -0.4813280272E-02   0.2077996113E-04   0.9590572396E-02   0.1269914088E-05   0.4863101440E-05
   0.3117350930E+01  -0.1096894749E+01   0.5996167003E+00   0.9601470121E-02  -0.5726885434E-03  -0.3833236774E-03   0.0000000000E+00   0.0000000000E+00   0.0000000000E+00   0.1002866267E+00  -0.4005653367E-02  -0.8129730398E-05   0.6302379840E-02   0.4064407001E-06   0.3680545229E-05
   0.3313512982E+01  -0.1100467719E+01   0.5996166716E+00   0.9800851589E-02  -0.5599592469E-03  -0.3833524215E-03   0.0000000000E+00   0.0000000000E+00   0.0000000000E+00   0.9987346591E-01  -0.3509313606E-02   0.1220764829E-04   0.3013713642E-02   0.5221446882E-06   0.3340647269E-05
   0.3510000000E+01  -0.1102436290E+01   0.5996166574E+00   0.1000000000E-01  -0.5553795119E-03  -0.3833665751E-03   0.0000000000E+00   0.0000000000E+00   0.0000000000E+00   0.9972961800E-01  -0.3366103693E-02  -0.6957787849E-05   0.3327245389E-03  -0.1308954380E-05   0.2867260362E-05
   0.3309296468E+01  -0.1323136090E+01   0.5996161155E+00   0.9784557677E-02  -0.4348700875E-03  -0.3839084771E-03   0.0000000000E+00   0.0000000000E+00   0.0000000000E+00   0.1042984577E+00  -0.6793174695E-02  -0.1344242181E-04   0.2563303507E-02  -0.3844063805E-06   0.2264746187E-05
   0.3510000000E+01  -0.1324966560E+01   0.5996161453E+00   0.1000000000E-01  -0.4307095683E-03  -0.3838787100E-03   0.0000000000E+00   0.0000000000E+00   0.0000000000E+00   0.1040426821E+00  -0.6575705132E-02   0.1767405693E-04   0.3076659787E-03   0.3457921807E-05   0.2133068750E-05
   0.3306329213E+01  -0.1547645123E+01   0.5996156382E+00   0.9771552749E-02  -0.2974630610E-03  -0.3843858242E-03   0.0000000000E+00   0.0000000000E+00   0.0000000000E+00   0.1078917589E+00  -0.9354902987E-02   0.1820556144E-04   0.1890656198E-02  -0.7283636195E-06   0.2484079027E-05
   0.3510000000E+01  -0.1548982999E+01   0.5996157003E+00   0.1000000000E-01  -0.2944693711E-03  -0.3843236708E-03   0.0000000000E+00   0.0000000000E+00   0.0000000000E+00   0.1075046438E+00  -0.9127276536E-02  -0.1171807316E-04   0.1964130145E-03   0.5683356024E-05   0.2374748071E-05
   0.3304544631E+01  -0.1773480633E+01   0.5996153140E+00   0.9763180806E-02  -0.1511328813E-03  -0.3847100216E-03   0.0000000000E+00   0.0000000000E+00   0.0000000000E+00   0.1102033540E+00  -0.1101815818E-01  -0.1307380966E-04   0.9314417706E-03  -0.1284480913E-05  -0.1581179171E-05
   0.3510000000E+01  -0.1774159821E+01   0.5996154028E+00   0.1000000000E-01  -0.1495210182E-03  -0.3846212123E-03   0.0000000000E+00   0.0000000000E+00   0.0000000000E+00   0.1097684862E+00  -0.1073156530E-01   0.2092995411E-04   0.1133848789E-03   0.8499698853E-05  -0.1679792196E-05
   0.3303421959E+01  -0.2000000000E+01   0.5996152015E+00   0.9759648645E-02   0.0000000000E+00  -0.3848225380E-03   0.0000000000E+00   0.0000000000E+00   0.0000000000E+00   0.1110209287E+00  -0.1156654912E-01   0.2145888690E-04   0.1962212836E-03  -0.1139813217E-05   0.9490249212E-05
   0.3510000000E+01  -0.2000000000E+01   0.5996152960E+00   0.1000000000E-01   0.0000000000E+00  -0.3847279886E-03   0.0000000000E+00   0.0000000000E+00   0.0000000000E+00   0.1105341151E+00  -0.1130492416E-01  -0.1274259386E-04  -0.3383550856E-07   0.8305412147E-05   0.9611094397E-05
   0.3108943425E+01  -0.1319920459E+01   0.5996160218E+00   0.9568175201E-02  -0.4457593060E-03  -0.3840022119E-03   0.0000000000E+00   0.0000000000E+00   0.0000000000E+00   0.1051215200E+00  -0.7397598383E-02   0.1705084740E-04   0.5378017580E-02   0.1535504416E-05   0.2553034287E-05
   0.3102996200E+01  -0.1545302733E+01   0.5996154345E+00   0.9541600196E-02  -0.3055134715E-03  -0.3845894881E-03   0.0000000000E+00   0.0000000000E+00   0.0000000000E+00   0.1090153491E+00  -0.1009665632E-01  -0.1464724521E-04   0.3944125191E-02   0.2301556113E-05   0.3029999424E-05
   0.3099416968E+01  -0.1772286638E+01   0.5996150419E+00   0.9524337969E-02  -0.1553179527E-03  -0.3849820898E-03   0.0000000000E+00   0.0000000000E+00   0.0000000000E+00   0.1115644378E+00  -0.1179349579E-01   0.2323089827E-04   0.1957510188E-02   0.2946828957E-05  -0.2138558812E-05
   0.3097153395E+01  -0.2000000000E+01   0.5996148992E+00   0.9517165498E-02   0.0000000000E+00  -0.3851248389E-03   0.0000000000E+00   0.0000000000E+00   0.0000000000E+00   0.1124325898E+00  -0.1239876154E-01  -0.1586118233E-04   0.3810374134E-03   0.3078409288E-05   0.1232644445E-04
   0.2908804911E+01  -0.1315773218E+01   0.5996158382E+00   0.9349360614E-02  -0.4632176236E-03  -0.3841858071E-03   0.0000000000E+00   0.0000000000E+00   0.0000000000E+00   0.1065044950E+00  -0.8436168879E-02  -0.1541472962E-04   0.8169993209E-02   0.2292976986E-05   0.3388651760E-05
   0.2899871620E+01  -0.1542280055E+01   0.5996150654E+00   0.9307889666E-02  -0.3181452240E-03  -0.3849586347E-03   0.0000000000E+00   0.0000000000E+00   0.0000000000E+00   0.1109525002E+00  -0.1125208371E-01   0.2012420796E-04   0.5992819971E-02   0.3291845630E-05   0.3818350652E-05
   0.2894496866E+01  -0.1770738224E+01   0.5996145438E+00   0.9281106158E-02  -0.1619843786E-03  -0.3854802024E-03   0.0000000000E+00   0.0000000000E+00   0.0000000000E+00   0.1138148042E+00  -0.1307104311E-01  -0.1247490302E-04   0.2954240612E-02   0.4028524740E-05  -0.2440102994E-05
   0.2891078317E+01  -0.2000000000E+01   0.5996143567E+00   0.9269796825E-02   0.0000000000E+00  -0.3856672593E-03   0.0000000000E+00   0.0000000000E+00   0.0000000000E+00   0.1148348746E+00  -0.1366785163E-01   0.2035955641E-04   0.6239698504E-03   0.4417681428E-05   0.1497371132E-04
   0.2708789237E+01  -0.1311070036E+01   0.5996155342E+00   0.9126317290E-02  -0.4864463586E-03  -0.3844898001E-03   0.0000000000E+00   0.0000000000E+00   0.0000000000E+00   0.1085324838E+00  -0.9815072862E-02   0.1750968953E-04   0.1113483347E-01   0.3571003594E-05   0.4193763772E-05
   0.2696866288E+01  -0.1538840509E+01   0.5996144720E+00   0.9068508373E-02  -0.3350794339E-03  -0.3855519880E-03   0.0000000000E+00   0.0000000000E+00   0.0000000000E+00   0.1136792935E+00  -0.1281420687E-01  -0.1870414326E-04   0.8136361252E-02   0.5476655733E-05   0.5536223011E-05
   0.2689698268E+01  -0.1768967223E+01   0.5996137638E+00   0.9030868482E-02  -0.1707827629E-03  -0.3862602069E-03   0.0000000000E+00   0.0000000000E+00   0.0000000000E+00   0.1170303672E+00  -0.1467497050E-01   0.3204197418E-04   0.4009592889E-02   0.7051802851E-05  -0.3396996738E-05
   0.2685115256E+01  -0.2000000000E+01   0.5996135005E+00   0.9015236166E-02   0.0000000000E+00  -0.3865235210E-03   0.0000000000E+00   0.0000000000E+00   0.0000000000E+00   0.1181845332E+00  -0.1533314898E-01  -0.2530639128E-04   0.8253281102E-03   0.7467880927E-05   0.2103455113E-04
   0.2508836594E+01  -0.1306071438E+01   0.5996150459E+00   0.8897634190E-02  -0.5148979617E-03  -0.3849780705E-03   0.0000000000E+00   0.0000000000E+00   0.0000000000E+00   0.1112112796E+00  -0.1153063668E-01  -0.1729712810E-04   0.1419544228E-01   0.5396218162E-05   0.6685173074E-05
   0.2493922578E+01  -0.1535167726E+01   0.5996135816E+00   0.8821117547E-02  -0.3553963080E-03  -0.3864423563E-03   0.0000000000E+00   0.0000000000E+00   0.0000000000E+00   0.1172904790E+00  -0.1459208943E-01   0.2341443693E-04   0.1033014086E-01   0.8288599910E-05   0.7671107561E-05
   0.2484964611E+01  -0.1767067395E+01   0.5996126028E+00   0.8771661003E-02  -0.1813951314E-03  -0.3874212263E-03   0.0000000000E+00   0.0000000000E+00   0.0000000000E+00   0.1211583415E+00  -0.1651289710E-01  -0.1130532541E-04   0.5036233785E-02   0.1053709880E-04  -0.3656293783E-05
   0.2479210045E+01  -0.2000000000E+01   0.5996122409E+00   0.8750824951E-02   0.0000000000E+00  -0.3877830542E-03   0.0000000000E+00   0.0000000000E+00   0.0000000000E+00   0.1225428797E+00  -0.1712328412E-01   0.2048076063E-04   0.1139581860E-02   0.1194540416E-04   0.2701873046E-04
   0.2308913498E+01  -0.1300928183E+01   0.5996142918E+00   0.8661297561E-02  -0.5468830661E-03  -0.3857321799E-03   0.0000000000E+00   0.0000000000E+00   0.0000000000E+00   0.1146705486E+00  -0.1342263249E-01   0.1955466874E-04   0.1730412639E-01   0.6884794683E-05   0.8270355681E-05
   0.2291007205E+01  -0.1531374246E+01   0.5996122770E+00   0.8564154777E-02  -0.3781656169E-03  -0.3877469769E-03   0.0000000000E+00   0.0000000000E+00   0.0000000000E+00   0.1217475520E+00  -0.1646471250E-01  -0.2378951151E-04   0.1246599112E-01   0.1130524434E-04   0.1213115372E-04
   0.2280260570E+01  -0.1765097519E+01   0.5996109460E+00   0.8501060436E-02  -0.1930191960E-03  -0.3890779829E-03   0.0000000000E+00   0.0000000000E+00   0.0000000000E+00   0.1262476085E+00  -0.1823271676E-01   0.5143208506E-04   0.6043606365E-02   0.1633103958E-04  -0.4315315538E-05
   0.2273330105E+01  -0.2000000000E+01   0.5996104416E+00   0.8474955180E-02   0.0000000000E+00  -0.3895823563E-03   0.0000000000E+00   0.0000000000E+00   0.0000000000E+00   0.1277954722E+00  -0.1884412485E-01  -0.4405353072E-04   0.1361791203E-02   0.1725718475E-04   0.3709691157E-04
   0.2109008174E+01  -0.1295714596E+01   0.5996131404E+00   0.8416033796E-02  -0.5806458307E-03  -0.3868835815E-03   0.0000000000E+00   0.0000000000E+00   0.0000000000E+00   0.1189339581E+00  -0.1536291511E-01  -0.9471725408E-05   0.2026427609E-01   0.6916637441E-05   0.1536588934E-04
   0.2088102478E+01  -0.1527518859E+01   0.5996104156E+00   0.8295437677E-02  -0.4012487712E-03  -0.3896083701E-03   0.0000000000E+00   0.0000000000E+00   0.0000000000E+00   0.1271244445E+00  -0.1805100493E-01   0.3957154222E-04   0.1442593948E-01   0.1580900411E-04   0.1788310836E-04
   0.2075566995E+01  -0.1763091038E+01   0.5996086263E+00   0.8218034833E-02  -0.2047478909E-03  -0.3913976628E-03   0.0000000000E+00   0.0000000000E+00   0.0000000000E+00   0.1321335509E+00  -0.1955686184E-01  -0.1690509592E-04   0.6856556363E-02   0.2234142553E-04  -0.2687028878E-05
   0.2067455723E+01  -0.2000000000E+01   0.5996079560E+00   0.8185583175E-02   0.0000000000E+00  -0.3920680122E-03   0.0000000000E+00   0.0000000000E+00   0.0000000000E+00   0.1339154062E+00  -0.1996122348E-01   0.3047952967E-04   0.1745672924E-02   0.2621869573E-04   0.4565680652E-04
   0.1909119995E+01  -0.1290452676E+01   0.5996114104E+00   0.8159784571E-02  -0.6123362287E-03  -0.3886135515E-03   0.0000000000E+00   0.0000000000E+00   0.0000000000E+00   0.1241415499E+00  -0.1700041376E-01   0.4987023854E-04   0.2286953167E-01   0.5370663641E-05   0.2208338391E-04
   0.1885205372E+01  -0.1523626758E+01   0.5996077903E+00   0.8014301788E-02  -0.4223080749E-03  -0.3922336869E-03   0.0000000000E+00   0.0000000000E+00   0.0000000000E+00   0.1332787668E+00  -0.1901832554E-01  -0.3710105586E-04   0.1592590852E-01   0.2009031001E-04   0.2988681034E-04
   0.1870875320E+01  -0.1761062881E+01   0.5996054759E+00   0.7921060209E-02  -0.2148313378E-03  -0.3945481444E-03   0.0000000000E+00   0.0000000000E+00   0.0000000000E+00   0.1387537210E+00  -0.1981928593E-01   0.8731736696E-04   0.7452360031E-02   0.3270634488E-04  -0.7388283991E-06
   0.1861579035E+01  -0.2000000000E+01   0.5996045889E+00   0.7882804545E-02   0.0000000000E+00  -0.3954351054E-03   0.0000000000E+00   0.0000000000E+00   0.0000000000E+00   0.1405737422E+00  -0.2006813365E-01  -0.8355158403E-04   0.1938553184E-02   0.3677766578E-04   0.5947779478E-04
   0.1709326440E+01  -0.1285207610E+01   0.5996088082E+00   0.7891829747E-02  -0.6378704088E-03  -0.3912157951E-03   0.0000000000E+00   0.0000000000E+00   0.0000000000E+00   0.1302723950E+00  -0.1791473206E-01  -0.1348712229E-04   0.2470762801E-01   0.7160352274E-05   0.4712940344E-04
   0.1682354845E+01  -0.1519788685E+01   0.5996041587E+00   0.7719435045E-02  -0.4369653647E-03  -0.3958652746E-03   0.0000000000E+00   0.0000000000E+00   0.0000000000E+00   0.1402072956E+00  -0.1862145719E-01   0.7281891970E-04   0.1675304378E-01   0.3127820985E-04   0.4243416340E-04
   0.1666210557E+01  -0.1759099901E+01   0.5996012710E+00   0.7611297475E-02  -0.2214307323E-03  -0.3987529609E-03   0.0000000000E+00   0.0000000000E+00   0.0000000000E+00   0.1456806486E+00  -0.1853908127E-01  -0.6075396709E-04   0.7543995299E-02   0.4568635002E-04   0.7601968316E-05
   0.1655696337E+01  -0.2000000000E+01   0.5996001817E+00   0.7566277484E-02   0.0000000000E+00  -0.3998422688E-03   0.0000000000E+00   0.0000000000E+00   0.0000000000E+00   0.1475787659E+00  -0.1827236648E-01   0.5721669266E-04   0.2346037618E-02   0.5397598708E-04   0.6639924065E-04
   0.1509672941E+01  -0.1280276077E+01   0.5996048879E+00   0.7610500639E-02  -0.6497069089E-03  -0.3951361232E-03   0.0000000000E+00   0.0000000000E+00   0.0000000000E+00   0.1374687753E+00  -0.1722794561E-01   0.5985593906E-04   0.2549936955E-01   0.3363295519E-04   0.6194508363E-04
   0.1479590540E+01  -0.1516401776E+01   0.5995991794E+00   0.7412080027E-02  -0.4410856411E-03  -0.4008445945E-03   0.0000000000E+00   0.0000000000E+00   0.0000000000E+00   0.1475570802E+00  -0.1630488863E-01  -0.1566732722E-03   0.1654846601E-01   0.5729621104E-04   0.6512543765E-04
   0.1461632911E+01  -0.1757464618E+01   0.5995958525E+00   0.7289230684E-02  -0.2214582684E-03  -0.4041715189E-03   0.0000000000E+00   0.0000000000E+00   0.0000000000E+00   0.1527299783E+00  -0.1472793226E-01   0.1045400959E-03   0.7147413633E-02   0.7108794463E-04   0.9322223249E-05
   0.1449888901E+01  -0.2000000000E+01   0.5995945962E+00   0.7239650778E-02   0.0000000000E+00  -0.4054277722E-03   0.0000000000E+00   0.0000000000E+00   0.0000000000E+00   0.1542172989E+00  -0.1409876328E-01  -0.1410161298E-03   0.2351654194E-02   0.6624794255E-04   0.7131085108E-04
   0.1309685978E+01  -0.1276339340E+01   0.5995989194E+00   0.7315187545E-02  -0.6417496416E-03  -0.4011046080E-03   0.0000000000E+00   0.0000000000E+00   0.0000000000E+00   0.1456263990E+00  -0.1403342320E-01  -0.3640531201E-03   0.2495831041E-01   0.1329780486E-03   0.1054751829E-03
   0.1276647165E+01  -0.1514212079E+01   0.5995924866E+00   0.7091595425E-02  -0.4281486852E-03  -0.4075373909E-03   0.0000000000E+00   0.0000000000E+00   0.0000000000E+00   0.1554144054E+00  -0.1085447382E-01  -0.1401513689E-04   0.1517956978E-01   0.1362488424E-03   0.4850420506E-04
   0.1257056315E+01  -0.1756582416E+01   0.5995891023E+00   0.6959514837E-02  -0.2128257346E-03  -0.4109216840E-03   0.0000000000E+00   0.0000000000E+00   0.0000000000E+00   0.1591256158E+00  -0.7992257153E-02  -0.1596912870E-03   0.6022185664E-02   0.8809152152E-04   0.4827417836E-05
   0.1244233542E+01  -0.2000000000E+01   0.5995878654E+00   0.6905372425E-02   0.0000000000E+00  -0.4121585731E-03   0.0000000000E+00   0.0000000000E+00   0.0000000000E+00   0.1602182522E+00  -0.6716556430E-02   0.5550544860E-04   0.2666552329E-02   0.8216984800E-04   0.5625083272E-04
   0.1107432658E+01  -0.1274217156E+01   0.5995899525E+00   0.7001218499E-02  -0.6042957567E-03  -0.4100714794E-03   0.0000000000E+00   0.0000000000E+00   0.0000000000E+00   0.1554741166E+00  -0.6462189638E-02  -0.4302088636E-03   0.2303302021E-01   0.3729661097E-03   0.2862145625E-04
   0.1072497070E+01  -0.1514140738E+01   0.5995837457E+00   0.6760539927E-02  -0.3956684982E-03  -0.4162782969E-03   0.0000000000E+00   0.0000000000E+00   0.0000000000E+00   0.1631116910E+00  -0.1691491267E-02  -0.4116828260E-03   0.1292096103E-01   0.2126195952E-03  -0.8301162722E-05
   0.1051994811E+01  -0.1756949540E+01   0.5995811622E+00   0.6623871453E-02  -0.1934699675E-03  -0.4188618163E-03   0.0000000000E+00   0.0000000000E+00   0.0000000000E+00   0.1647578600E+00   0.2162180497E-02  -0.1052064761E-04   0.4548797408E-02   0.1193655829E-03  -0.4846666229E-04
   0.1038502189E+01  -0.2000000000E+01   0.5995802295E+00   0.6570669119E-02   0.0000000000E+00  -0.4197945369E-03   0.0000000000E+00   0.0000000000E+00   0.0000000000E+00   0.1646967028E+00   0.3610759750E-02  -0.2400747719E-03   0.2271903230E-02   0.4479766976E-04   0.2766323022E-04
   0.8987173264E+00  -0.1275080336E+01   0.5995767360E+00   0.6663007353E-02  -0.5370463113E-03  -0.4232880190E-03   0.0000000000E+00   0.0000000000E+00   0.0000000000E+00   0.1673254852E+00   0.7419992072E-02  -0.1056778627E-02   0.2235763353E-01   0.7719025048E-03  -0.2256118438E-03
   0.8653682934E+00  -0.1517407523E+01   0.5995732568E+00   0.6416605414E-02  -0.3423527038E-03  -0.4267672391E-03   0.0000000000E+00   0.0000000000E+00   0.0000000000E+00   0.1712685719E+00   0.1118643765E-01  -0.2713518679E-03   0.9791552074E-02   0.2920729210E-03  -0.2139997834E-03
   0.8457574519E+00  -0.1759143671E+01   0.5995723980E+00   0.6289329938E-02  -0.1653012804E-03  -0.4276260035E-03   0.0000000000E+00   0.0000000000E+00   0.0000000000E+00   0.1687533795E+00   0.1509504343E-01  -0.3044177278E-03   0.2936958290E-02   0.8424243891E-04  -0.9636897521E-04
   0.8320069245E+00  -0.2000000000E+01   0.5995722229E+00   0.6237202496E-02   0.0000000000E+00  -0.4278011460E-03   0.0000000000E+00   0.0000000000E+00   0.0000000000E+00   0.1679970500E+00   0.1625644415E-01  -0.2482140028E-03   0.2426009263E-02   0.4867618547E-04  -0.5906550694E-04
  -0.6209030064E+00  -0.1083765701E+01   0.5995551741E+00   0.3544100642E-02  -0.5458109459E-03  -0.4448498828E-03   0.0000000000E+00   0.0000000000E+00   0.0000000000E+00   0.1893640561E+00   0.3519279237E-01   0.5651556134E-02  -0.4532958548E-01  -0.1799587324E-02  -0.1028203854E-04
  -0.4849064072E+00  -0.8733863845E+00   0.5995428649E+00   0.3269372849E-02  -0.6410495364E-03  -0.4571591120E-03   0.0000000000E+00   0.0000000000E+00   0.0000000000E+00   0.2168441691E+00   0.5573364214E-01   0.2055494359E-02  -0.1016163211E+00  -0.3919475660E-02   0.2942353182E-02
  -0.6118100559E+00  -0.1336695070E+01   0.5995551670E+00   0.3867539074E-02  -0.3827801419E-03  -0.4448570409E-03   0.0000000000E+00   0.0000000000E+00   0.0000000000E+00   0.1858211926E+00   0.2763700726E-01  -0.3965744258E-02  -0.1447336312E-01  -0.9051768187E-03  -0.1012566721E-02
  -0.6097868616E+00  -0.1562923039E+01   0.5995602650E+00   0.4008657357E-02  -0.2432693999E-03  -0.4397590410E-03   0.0000000000E+00   0.0000000000E+00   0.0000000000E+00   0.1772551175E+00   0.2925687613E-01  -0.5287068104E-03  -0.5813903816E-02  -0.3362230454E-03  -0.6115165152E-03
  -0.6173624015E+00  -0.1782173610E+01   0.5995636729E+00   0.4063703487E-02  -0.1196601937E-03  -0.4363510816E-03   0.0000000000E+00   0.0000000000E+00   0.0000000000E+00   0.1713851401E+00   0.2964985620E-01  -0.8083499994E-03  -0.1338155467E-02  -0.3426001925E-04  -0.1375207998E-03
  -0.6248898408E+00  -0.2000000000E+01   0.5995646196E+00   0.4071603204E-02   0.0000000000E+00  -0.4354044278E-03   0.0000000000E+00   0.0000000000E+00   0.0000000000E+00   0.1695581160E+00   0.2993585303E-01  -0.1906390062E-03  -0.1549621529E-02  -0.7526253481E-04  -0.3308280265E-04
  -0.8243319624E+00  -0.1781435375E+01   0.5995719622E+00   0.3734684574E-02  -0.1479452458E-03  -0.4280617548E-03   0.0000000000E+00   0.0000000000E+00   0.0000000000E+00   0.1687140674E+00   0.1602419140E-01  -0.3016663258E-03  -0.2531876227E-02  -0.6285939904E-04  -0.9531670928E-04
  -0.8280635563E+00  -0.2000000000E+01   0.5995724836E+00   0.3753116734E-02   0.0000000000E+00  -0.4275404055E-03   0.0000000000E+00   0.0000000000E+00   0.0000000000E+00   0.1677995288E+00   0.1642487802E-01  -0.2038736260E-03  -0.2135892925E-02  -0.5883702996E-04  -0.5681020094E-04
  -0.1030753742E+01  -0.1781971602E+01   0.5995806251E+00   0.3400907566E-02  -0.1720521528E-03  -0.4193988736E-03   0.0000000000E+00   0.0000000000E+00   0.0000000000E+00   0.1649441832E+00   0.3024193925E-02  -0.3170953019E-04  -0.3891804189E-02  -0.1135635261E-03  -0.4783968095E-04
  -0.1031895580E+01  -0.2000000000E+01   0.5995803862E+00   0.3424339921E-02   0.0000000000E+00  -0.4196378252E-03   0.0000000000E+00   0.0000000000E+00   0.0000000000E+00   0.1646197764E+00   0.3817502206E-02  -0.1492644018E-03  -0.2102239170E-02  -0.4003765264E-04   0.2156408003E-04
  -0.1236622747E+01  -0.1783159266E+01   0.5995885579E+00   0.3064693490E-02  -0.1887162754E-03  -0.4114661051E-03   0.0000000000E+00   0.0000000000E+00   0.0000000000E+00   0.1595575277E+00  -0.7383285821E-02  -0.1193444194E-03  -0.5245907319E-02  -0.8066671097E-04   0.4125782422E-05
  -0.1236412811E+01  -0.2000000000E+01   0.5995879511E+00   0.3091408875E-02   0.0000000000E+00  -0.4120729230E-03   0.0000000000E+00   0.0000000000E+00   0.0000000000E+00   0.1601499630E+00  -0.6588097139E-02   0.5208863045E-04  -0.2376459405E-02  -0.8167112216E-04   0.4801724714E-04
  -0.1442250204E+01  -0.1784587610E+01   0.5995953532E+00   0.2732685567E-02  -0.1964497633E-03  -0.4046708125E-03   0.0000000000E+00   0.0000000000E+00   0.0000000000E+00   0.1532717669E+00  -0.1440835809E-01   0.5126058304E-04  -0.6274202158E-02  -0.7019360493E-04   0.7993643735E-05
  -0.1441458658E+01  -0.2000000000E+01   0.5995946390E+00   0.2758432142E-02   0.0000000000E+00  -0.4053850105E-03   0.0000000000E+00   0.0000000000E+00   0.0000000000E+00   0.1542009766E+00  -0.1399416945E-01  -0.6777802703E-04  -0.2137617812E-02  -0.6229455595E-04   0.5882574990E-04
  -0.1647853228E+01  -0.1786100046E+01   0.5996008544E+00   0.2408171517E-02  -0.1967159784E-03  -0.3991695675E-03   0.0000000000E+00   0.0000000000E+00   0.0000000000E+00   0.1462815207E+00  -0.1839123795E-01  -0.5577260516E-04  -0.6683052760E-02  -0.4401772457E-04   0.7498545103E-05
  -0.1646863277E+01  -0.2000000000E+01   0.5996001814E+00   0.2432413044E-02   0.0000000000E+00  -0.3998426082E-03   0.0000000000E+00   0.0000000000E+00   0.0000000000E+00   0.1475712449E+00  -0.1823660413E-01   0.5718532574E-04  -0.2091968538E-02  -0.5153069815E-04   0.5575275146E-04
  -0.1853507061E+01  -0.1787648278E+01   0.5996051429E+00   0.2095559070E-02  -0.1912878260E-03  -0.3948811291E-03   0.0000000000E+00   0.0000000000E+00   0.0000000000E+00   0.1393332871E+00  -0.1983628423E-01   0.4307487241E-04  -0.6621437692E-02  -0.3462295199E-04  -0.5491697862E-06
  -0.1852490495E+01  -0.2000000000E+01   0.5996045616E+00   0.2116494952E-02   0.0000000000E+00  -0.3954624340E-03   0.0000000000E+00   0.0000000000E+00   0.0000000000E+00   0.1406045854E+00  -0.2002918843E-01  -0.3163982020E-04  -0.1750256051E-02  -0.3393578835E-04   0.5108686336E-04
  -0.2059214736E+01  -0.1789214603E+01   0.5996083755E+00   0.1795863582E-02  -0.1826234247E-03  -0.3916485272E-03   0.0000000000E+00   0.0000000000E+00   0.0000000000E+00   0.1326790871E+00  -0.1965039956E-01  -0.1671723086E-04  -0.6121493655E-02  -0.2340598996E-04  -0.6045956199E-06
  -0.2058242555E+01  -0.2000000000E+01   0.5996079154E+00   0.1813895130E-02   0.0000000000E+00  -0.3921086028E-03   0.0000000000E+00   0.0000000000E+00   0.0000000000E+00   0.1339529925E+00  -0.1996408123E-01   0.3684518969E-04  -0.1565477280E-02  -0.2709830665E-04   0.4020114015E-04
  -0.2264957234E+01  -0.1790789868E+01   0.5996107603E+00   0.1510096029E-02  -0.1723978209E-03  -0.3892637143E-03   0.0000000000E+00   0.0000000000E+00   0.0000000000E+00   0.1267184150E+00  -0.1838997052E-01   0.3103026465E-04  -0.5413503300E-02  -0.1809927119E-04  -0.2887807119E-05
  -0.2264058608E+01  -0.2000000000E+01   0.5996104017E+00   0.1524671690E-02   0.0000000000E+00  -0.3896223178E-03   0.0000000000E+00   0.0000000000E+00   0.0000000000E+00   0.1278474590E+00  -0.1885062471E-01  -0.1714658537E-04  -0.1227013233E-02  -0.1801028503E-04   0.3305288586E-04
  -0.2470720187E+01  -0.1792364853E+01   0.5996124678E+00   0.1237022962E-02  -0.1621429041E-03  -0.3875561976E-03   0.0000000000E+00   0.0000000000E+00   0.0000000000E+00   0.1215511115E+00  -0.1667736484E-01  -0.1763598985E-04  -0.4525755935E-02  -0.1140030470E-04  -0.1971172325E-05
  -0.2469905426E+01  -0.2000000000E+01   0.5996122049E+00   0.1248783603E-02   0.0000000000E+00  -0.3878190531E-03   0.0000000000E+00   0.0000000000E+00   0.0000000000E+00   0.1225963466E+00  -0.1715010275E-01   0.2694009171E-04  -0.1023018447E-02  -0.1324620145E-04   0.2346583490E-04
  -0.2676506135E+01  -0.1793905768E+01   0.5996136675E+00   0.9755149840E-03  -0.1527382415E-03  -0.3863565012E-03   0.0000000000E+00   0.0000000000E+00   0.0000000000E+00   0.1173552088E+00  -0.1484270241E-01   0.2197744702E-04  -0.3605626168E-02  -0.8146844023E-05  -0.2640609176E-05
  -0.2675779387E+01  -0.2000000000E+01   0.5996134678E+00   0.9843831714E-03   0.0000000000E+00  -0.3865561588E-03   0.0000000000E+00   0.0000000000E+00   0.0000000000E+00   0.1182361387E+00  -0.1535665825E-01  -0.1480130856E-04  -0.7438230685E-03  -0.7937163202E-05   0.1912145995E-04
  -0.2882341031E+01  -0.1795326931E+01   0.5996144726E+00   0.7232394547E-03  -0.1449410589E-03  -0.3855514450E-03   0.0000000000E+00   0.0000000000E+00   0.0000000000E+00   0.1140851841E+00  -0.1322452146E-01  -0.1243982700E-04  -0.2660983806E-02  -0.4392122135E-05  -0.1572031892E-05
  -0.2881711756E+01  -0.2000000000E+01   0.5996143291E+00   0.7297642404E-03   0.0000000000E+00  -0.3856949410E-03   0.0000000000E+00   0.0000000000E+00   0.0000000000E+00   0.1148849343E+00  -0.1369693453E-01   0.1999614634E-04  -0.5586477416E-03  -0.5163015211E-05   0.1301633877E-04
  -0.3088246460E+01  -0.1796498990E+01   0.5996149884E+00   0.4781496634E-03  -0.1390898822E-03  -0.3850355820E-03   0.0000000000E+00   0.0000000000E+00   0.0000000000E+00   0.1117942960E+00  -0.1194108163E-01   0.1740655313E-04  -0.1763551033E-02  -0.3499890044E-05  -0.1735477686E-05
  -0.3087746572E+01  -0.2000000000E+01   0.5996148735E+00   0.4823684929E-03   0.0000000000E+00  -0.3851505276E-03   0.0000000000E+00   0.0000000000E+00   0.0000000000E+00   0.1124835682E+00  -0.1242318383E-01  -0.1066125424E-04  -0.3432745687E-03  -0.3271211111E-05   0.1144889846E-04
  -0.3294182455E+01  -0.1797307085E+01   0.5996152688E+00   0.2377851696E-03  -0.1354946775E-03  -0.3847551966E-03   0.0000000000E+00   0.0000000000E+00   0.0000000000E+00   0.1104124712E+00  -0.1115370784E-01  -0.9521523432E-05  -0.8404470040E-03   0.1266740973E-05  -0.1026743823E-05
  -0.3293878237E+01  -0.2000000000E+01   0.5996151783E+00   0.2399330583E-03   0.0000000000E+00  -0.3848457147E-03   0.0000000000E+00   0.0000000000E+00   0.0000000000E+00   0.1110720113E+00  -0.1159682033E-01   0.1728265242E-04  -0.1754646927E-03   0.8311177052E-06   0.8315075529E-05
  -0.3500000000E+01  -0.1797702509E+01   0.5996153612E+00   0.0000000000E+00  -0.1341892003E-03  -0.3846627912E-03   0.0000000000E+00   0.0000000000E+00   0.0000000000E+00   0.1099689514E+00  -0.1086984677E-01   0.1630958722E-04  -0.1008968108E-03  -0.8939324909E-05  -0.1370904579E-05
  -0.3500000000E+01  -0.2000000000E+01   0.5996152723E+00   0.0000000000E+00   0.0000000000E+00  -0.3847516557E-03   0.0000000000E+00   0.0000000000E+00   0.0000000000E+00   0.1105879981E+00  -0.1133124105E-01  -0.8909723577E-05   0.9201431790E-08  -0.8116616708E-05   0.9069258183E-05
  -0.8246645313E+00  -0.1563486104E+01   0.5995715951E+00   0.3658236654E-02  -0.2999335003E-03  -0.4284288872E-03   0.0000000000E+00   0.0000000000E+00   0.0000000000E+00   0.1715184344E+00   0.1398291076E-01  -0.4199491687E-03  -0.7785089317E-02  -0.2572739578E-03  -0.2335888068E-03
  -0.1035773273E+01  -0.1566581193E+01   0.5995819801E+00   0.3312237092E-02  -0.3466027130E-03  -0.4180439135E-03   0.0000000000E+00   0.0000000000E+00   0.0000000000E+00   0.1644670700E+00   0.5076730639E-03  -0.3109824463E-03  -0.1065951997E-01  -0.1938909559E-03  -0.2637496297E-04
  -0.1243182507E+01  -0.1569878928E+01   0.5995907931E+00   0.2975852800E-02  -0.3762178013E-03  -0.4092308863E-03   0.0000000000E+00   0.0000000000E+00   0.0000000000E+00   0.1572399477E+00  -0.9450381707E-02  -0.7798114058E-04  -0.1289576521E-01  -0.1301784561E-03   0.3762209769E-04
  -0.1449329408E+01  -0.1573018214E+01   0.5995977260E+00   0.2647842078E-02  -0.3891241976E-03  -0.4022980309E-03   0.0000000000E+00   0.0000000000E+00   0.0000000000E+00   0.1496564341E+00  -0.1558371256E-01  -0.1350109466E-03  -0.1432675120E-01  -0.5717780766E-04   0.5917137680E-04
  -0.1654269192E+01  -0.1575722325E+01   0.5996029864E+00   0.2332718301E-02  -0.3875352275E-03  -0.3970375994E-03   0.0000000000E+00   0.0000000000E+00   0.0000000000E+00   0.1423421381E+00  -0.1851223684E-01   0.4835307927E-04  -0.1470662343E-01  -0.3616729778E-04   0.3679631981E-04
  -0.1859720935E+01  -0.1578624874E+01   0.5996069047E+00   0.2029315446E-02  -0.3758936225E-03  -0.3931192716E-03   0.0000000000E+00   0.0000000000E+00   0.0000000000E+00   0.1353074089E+00  -0.1928843844E-01   0.3749563205E-05  -0.1415348750E-01  -0.2399685953E-04   0.3105828076E-04
  -0.2064930240E+01  -0.1581426339E+01   0.5996097658E+00   0.1740179809E-02  -0.3581788648E-03  -0.3902581709E-03   0.0000000000E+00   0.0000000000E+00   0.0000000000E+00   0.1288977900E+00  -0.1856062852E-01   0.3803740365E-04  -0.1293427556E-01  -0.1895655975E-04   0.1848497403E-04
  -0.2269992380E+01  -0.1584165564E+01   0.5996118084E+00   0.1464340179E-02  -0.3381844549E-03  -0.3882156349E-03   0.0000000000E+00   0.0000000000E+00   0.0000000000E+00   0.1232461065E+00  -0.1705240682E-01  -0.1837317930E-04  -0.1124606778E-01  -0.1283761558E-04   0.1377068805E-04
  -0.2475001752E+01  -0.1586862967E+01   0.5996132511E+00   0.1200978118E-02  -0.3182174914E-03  -0.3867729248E-03   0.0000000000E+00   0.0000000000E+00   0.0000000000E+00   0.1185400871E+00  -0.1519516725E-01   0.2627559914E-04  -0.9348897882E-02  -0.9744758644E-05   0.8006782115E-05
  -0.2680009132E+01  -0.1589468363E+01   0.5996142367E+00   0.9479480348E-03  -0.3002930854E-03  -0.3857872577E-03   0.0000000000E+00   0.0000000000E+00   0.0000000000E+00   0.1147103920E+00  -0.1338581924E-01  -0.1204468884E-04  -0.7387186122E-02  -0.6010714383E-05   0.6241172617E-05
  -0.2885047268E+01  -0.1591845731E+01   0.5996148981E+00   0.7035022240E-03  -0.2853705671E-03  -0.3851259008E-03   0.0000000000E+00   0.0000000000E+00   0.0000000000E+00   0.1118055619E+00  -0.1178257771E-01   0.1822699269E-04  -0.5450707902E-02  -0.4042220010E-05   0.4060623183E-05
  -0.3090123241E+01  -0.1593803453E+01   0.5996153092E+00   0.4653293669E-03  -0.2743428536E-03  -0.3847148479E-03   0.0000000000E+00   0.0000000000E+00   0.0000000000E+00   0.1097426634E+00  -0.1057925695E-01  -0.9202227114E-05  -0.3592586896E-02  -0.2524384973E-05   0.3406315793E-05
  -0.3295170793E+01  -0.1595169999E+01   0.5996155375E+00   0.2314968016E-03  -0.2674788827E-03  -0.3844865130E-03   0.0000000000E+00   0.0000000000E+00   0.0000000000E+00   0.1085394911E+00  -0.9811984961E-02   0.1493327845E-04  -0.1722735156E-02   0.5332455781E-06   0.2635442566E-05
  -0.3500000000E+01  -0.1595817660E+01   0.5996156068E+00   0.0000000000E+00  -0.2651001117E-03  -0.3844171823E-03   0.0000000000E+00   0.0000000000E+00   0.0000000000E+00   0.1081283551E+00  -0.9566728592E-02  -0.7203034038E-05  -0.1796950748E-03  -0.6031989865E-05   0.2719655551E-05
  -0.8379965446E+00  -0.1345102580E+01   0.5995723730E+00   0.3487823350E-02  -0.4637599616E-03  -0.4276510304E-03   0.0000000000E+00   0.0000000000E+00   0.0000000000E+00   0.1716741521E+00   0.1183874250E-01  -0.8588342031E-03  -0.1808160244E-01  -0.7352600531E-03  -0.3906716904E-03
  -0.1052824970E+01  -0.1354467727E+01   0.5995857182E+00   0.3142360417E-02  -0.5255668162E-03  -0.4143057873E-03   0.0000000000E+00   0.0000000000E+00   0.0000000000E+00   0.1604396734E+00  -0.3348965411E-02  -0.5971622205E-03  -0.1883950673E-01  -0.3611767556E-03  -0.2238985628E-04
  -0.1262497663E+01  -0.1361652888E+01   0.5995952933E+00   0.2812626577E-02  -0.5622277127E-03  -0.4047307158E-03   0.0000000000E+00   0.0000000000E+00   0.0000000000E+00   0.1509480225E+00  -0.1221786773E-01  -0.2904853765E-03  -0.2111385964E-01  -0.1415893631E-03   0.8993114156E-04
  -0.1465662560E+01  -0.1365976555E+01   0.5996019191E+00   0.2503079937E-02  -0.5745745456E-03  -0.3981049046E-03   0.0000000000E+00   0.0000000000E+00   0.0000000000E+00   0.1427469489E+00  -0.1675534618E-01   0.6934693893E-04  -0.2218527273E-01  -0.4859254159E-04   0.5965946907E-04
  -0.1668716960E+01  -0.1369532331E+01   0.5996065355E+00   0.2205679542E-02  -0.5686114126E-03  -0.3934885492E-03   0.0000000000E+00   0.0000000000E+00   0.0000000000E+00   0.1351137423E+00  -0.1831987856E-01   0.1200495581E-04  -0.2205234774E-01  -0.1887241937E-04   0.5911380097E-04
  -0.1873347528E+01  -0.1373494930E+01   0.5996097535E+00   0.1920092010E-02  -0.5485502711E-03  -0.3902705344E-03   0.0000000000E+00   0.0000000000E+00   0.0000000000E+00   0.1283502303E+00  -0.1799541934E-01   0.1867593026E-04  -0.2068285486E-01  -0.1273188539E-04   0.2800714651E-04
  -0.2078500682E+01  -0.1377599906E+01   0.5996119578E+00   0.1647057845E-02  -0.5211359181E-03  -0.3880661563E-03   0.0000000000E+00   0.0000000000E+00   0.0000000000E+00   0.1225020242E+00  -0.1659800779E-01  -0.1619737637E-04  -0.1849530528E-01  -0.1052343713E-04   0.2095502629E-04
  -0.2282013916E+01  -0.1381028262E+01   0.5996134572E+00   0.1388524059E-02  -0.4917016763E-03  -0.3865667949E-03   0.0000000000E+00   0.0000000000E+00   0.0000000000E+00   0.1176527063E+00  -0.1472729222E-01   0.3096333832E-04  -0.1589374012E-01  -0.8513204630E-05   0.1136460463E-04
  -0.2485096600E+01  -0.1384239452E+01   0.5996144543E+00   0.1140929962E-02  -0.4635016087E-03  -0.3855696779E-03   0.0000000000E+00   0.0000000000E+00   0.0000000000E+00   0.1136680764E+00  -0.1280067652E-01  -0.1381519800E-04  -0.1311861653E-01  -0.6081849411E-05   0.8943448092E-05
  -0.2688081984E+01  -0.1387281467E+01   0.5996151199E+00   0.9024056457E-03  -0.4382666012E-03  -0.3849040885E-03   0.0000000000E+00   0.0000000000E+00   0.0000000000E+00   0.1105466257E+00  -0.1099651179E-01   0.1411369373E-04  -0.1032703513E-01  -0.4697347293E-05   0.5438049998E-05
  -0.2891074316E+01  -0.1390039881E+01   0.5996155425E+00   0.6707741187E-03  -0.4176710243E-03  -0.3844815109E-03   0.0000000000E+00   0.0000000000E+00   0.0000000000E+00   0.1081776346E+00  -0.9507748124E-02  -0.1058893433E-04  -0.7598276429E-02  -0.2423379467E-05   0.4275652633E-05
  -0.3094102696E+01  -0.1392326844E+01   0.5996158033E+00   0.4443340399E-03  -0.4023441188E-03  -0.3842206564E-03   0.0000000000E+00   0.0000000000E+00   0.0000000000E+00   0.1065458986E+00  -0.8382332656E-02   0.1103139496E-04  -0.5008881252E-02  -0.2035460910E-05   0.2831578425E-05
  -0.3297131550E+01  -0.1393957427E+01   0.5996159394E+00   0.2212400413E-03  -0.3929674343E-03  -0.3840846182E-03   0.0000000000E+00   0.0000000000E+00   0.0000000000E+00   0.1055724334E+00  -0.7706892500E-02  -0.1003354817E-04  -0.2391098718E-02   0.6011618230E-06   0.2526846079E-05
  -0.3500000000E+01  -0.1394734918E+01   0.5996159841E+00   0.0000000000E+00  -0.3896380316E-03  -0.3840399129E-03   0.0000000000E+00   0.0000000000E+00   0.0000000000E+00   0.1052630867E+00  -0.7469954658E-02   0.9853165485E-05  -0.2801016535E-03  -0.4649906970E-05   0.2081568040E-05
  -0.8666940594E+00  -0.1126955140E+01   0.5995780547E+00   0.3196451611E-02  -0.6340603988E-03  -0.4219692779E-03   0.0000000000E+00   0.0000000000E+00   0.0000000000E+00   0.1636684052E+00   0.7076161189E-02  -0.2795293664E-02  -0.2638543341E-01  -0.1258340891E-02  -0.2146711392E-03
  -0.1082001903E+01  -0.1146927185E+01   0.5995928845E+00   0.2886077095E-02  -0.7056648296E-03  -0.4071394943E-03   0.0000000000E+00   0.0000000000E+00   0.0000000000E+00   0.1482188199E+00  -0.6786160759E-02  -0.6540626574E-03  -0.2934331589E-01  -0.5699166828E-03  -0.1231161561E-04
  -0.1292474950E+01  -0.1158108427E+01   0.5996026068E+00   0.2583300218E-02  -0.7409568843E-03  -0.3974172350E-03   0.0000000000E+00   0.0000000000E+00   0.0000000000E+00   0.1394387316E+00  -0.1450114602E-01  -0.1666641430E-03  -0.2959296888E-01  -0.1439426402E-03   0.1230315697E-03
  -0.1486799717E+01  -0.1161877427E+01   0.5996078392E+00   0.2308843382E-02  -0.7500973682E-03  -0.3921847823E-03   0.0000000000E+00   0.0000000000E+00   0.0000000000E+00   0.1311509587E+00  -0.1702574294E-01   0.1904440979E-04  -0.2994694086E-01  -0.1832694374E-04   0.6218049615E-04
  -0.1685189236E+01  -0.1164697706E+01   0.5996114326E+00   0.2040994419E-02  -0.7367764832E-03  -0.3885913768E-03   0.0000000000E+00   0.0000000000E+00   0.0000000000E+00   0.1243715111E+00  -0.1701299023E-01   0.7780556394E-04  -0.2871215600E-01  -0.3184085283E-05   0.4661351680E-04
  -0.1891024098E+01  -0.1170350154E+01   0.5996134665E+00   0.1778501978E-02  -0.7062736676E-03  -0.3865574727E-03   0.0000000000E+00   0.0000000000E+00   0.0000000000E+00   0.1185606379E+00  -0.1556002268E-01   0.4850497325E-04  -0.2624676204E-01   0.6409852972E-05   0.2039070975E-04
  -0.2098001536E+01  -0.1176422626E+01   0.5996147679E+00   0.1526773754E-02  -0.6676062762E-03  -0.3852561325E-03   0.0000000000E+00   0.0000000000E+00   0.0000000000E+00   0.1139243136E+00  -0.1355925511E-01   0.2866760618E-04  -0.2301466570E-01  -0.5811152896E-05   0.1663988833E-04
  -0.2298141133E+01  -0.1179768377E+01   0.5996155002E+00   0.1291857022E-02  -0.6306669187E-03  -0.3845238216E-03   0.0000000000E+00   0.0000000000E+00   0.0000000000E+00   0.1102400781E+00  -0.1146401539E-01   0.5892657351E-05  -0.1955806341E-01  -0.2296427272E-05   0.9055873273E-05
  -0.2498260997E+01  -0.1183060964E+01   0.5996159572E+00   0.1065232923E-02  -0.5954142859E-03  -0.3840668339E-03   0.0000000000E+00   0.0000000000E+00   0.0000000000E+00   0.1073762736E+00  -0.9518930113E-02   0.1067205217E-04  -0.1601375769E-01  -0.4507684029E-05   0.8624953445E-05
  -0.2698395136E+01  -0.1186241479E+01   0.5996161995E+00   0.8450740665E-03  -0.5646686532E-03  -0.3838245391E-03   0.0000000000E+00   0.0000000000E+00   0.0000000000E+00   0.1051745857E+00  -0.7847883646E-02  -0.2933501894E-05  -0.1253726649E-01  -0.1659806951E-05   0.5577640710E-05
  -0.2898572885E+01  -0.1189186765E+01   0.5996163373E+00   0.6299347110E-03  -0.5394946379E-03  -0.3836866539E-03   0.0000000000E+00   0.0000000000E+00   0.0000000000E+00   0.1035684414E+00  -0.6508706530E-02   0.9855690045E-05  -0.9203714636E-02  -0.1687013955E-05   0.4642274484E-05
  -0.3098835389E+01  -0.1191711281E+01   0.5996163993E+00   0.4182606457E-03  -0.5210405118E-03  -0.3836246710E-03   0.0000000000E+00   0.0000000000E+00   0.0000000000E+00   0.1024572215E+00  -0.5546245834E-02  -0.4198902302E-05  -0.6057730825E-02  -0.4993586861E-06   0.3361213086E-05
  -0.3299252598E+01  -0.1193595227E+01   0.5996164298E+00   0.2087623347E-03  -0.5095571430E-03  -0.3835942392E-03   0.0000000000E+00   0.0000000000E+00   0.0000000000E+00   0.1018224573E+00  -0.4958956825E-02   0.7911209588E-05  -0.2899464698E-02  -0.3190820197E-06   0.2804849673E-05
  -0.3500000000E+01  -0.1194629410E+01   0.5996164344E+00   0.0000000000E+00  -0.5055496508E-03  -0.3835896034E-03   0.0000000000E+00   0.0000000000E+00   0.0000000000E+00   0.1016060516E+00  -0.4773524189E-02  -0.5671736476E-05  -0.3201546969E-03  -0.1399781194E-06   0.2549480323E-05
  -0.3304248151E+01  -0.9948055895E+00   0.5996169320E+00   0.1923485687E-03  -0.6153735041E-03  -0.3830920266E-03   0.0000000000E+00   0.0000000000E+00   0.0000000000E+00   0.9760209372E-01  -0.1796563889E-02  -0.2361440252E-05  -0.3134779323E-02  -0.5810017927E-06   0.3124971252E-05
  -0.3500000000E+01  -0.9956208036E+00   0.5996169005E+00   0.0000000000E+00  -0.6110835600E-03  -0.3831234772E-03   0.0000000000E+00   0.0000000000E+00   0.0000000000E+00   0.9751782551E-01  -0.1644129034E-02   0.8910970121E-05  -0.3940396561E-03   0.3077655063E-05   0.2792069935E-05
  -0.3310328778E+01  -0.7966460601E+00   0.5996173738E+00   0.1751815670E-03  -0.7099521214E-03  -0.3826501814E-03   0.0000000000E+00   0.0000000000E+00   0.0000000000E+00   0.9330195210E-01   0.1580165865E-02   0.2789555818E-05  -0.3120491076E-02  -0.8149549528E-06   0.3145930274E-05
  -0.3500000000E+01  -0.7971645543E+00   0.5996173071E+00   0.0000000000E+00  -0.7058923361E-03  -0.3827169480E-03   0.0000000000E+00   0.0000000000E+00   0.0000000000E+00   0.9333072148E-01   0.1681087691E-02   0.4031634745E-06  -0.3768433587E-03   0.6660833754E-05   0.3220010243E-05
  -0.3316373197E+01  -0.5983950160E+00   0.5996176733E+00   0.1594126039E-03  -0.7938999574E-03  -0.3823507170E-03   0.0000000000E+00   0.0000000000E+00   0.0000000000E+00   0.8933245508E-01   0.4906332217E-02  -0.1381816565E-05  -0.2846211595E-02  -0.1008834661E-05   0.2844339678E-05
  -0.3500000000E+01  -0.5986638132E+00   0.5996175760E+00   0.0000000000E+00  -0.7900062002E-03  -0.3824480471E-03   0.0000000000E+00   0.0000000000E+00   0.0000000000E+00   0.8947046908E-01   0.4966381216E-02   0.1761389010E-05  -0.4093443053E-03   0.1011126463E-04   0.2104444887E-05
  -0.3321197452E+01  -0.3995773782E+00   0.5996177457E+00   0.1469279078E-03  -0.8680812285E-03  -0.3822783086E-03   0.0000000000E+00   0.0000000000E+00   0.0000000000E+00   0.8612302662E-01   0.7935552499E-02  -0.3741986331E-05  -0.2393102171E-02  -0.1106345962E-05   0.8108254022E-07
  -0.3500000000E+01  -0.3997671688E+00   0.5996176244E+00   0.0000000000E+00  -0.8646337741E-03  -0.3823996493E-03   0.0000000000E+00   0.0000000000E+00   0.0000000000E+00   0.8635069057E-01   0.7953082788E-02  -0.2780490501E-05  -0.3511070764E-03   0.1283207795E-04   0.2842323401E-06
  -0.3323334689E+01  -0.1997632412E+00   0.5996175135E+00   0.1394812954E-03  -0.9346632202E-03  -0.3825104910E-03   0.0000000000E+00   0.0000000000E+00   0.0000000000E+00   0.8407896136E-01   0.1041441410E-01  -0.6550143949E-05  -0.1774056540E-02  -0.1223102812E-05  -0.3033588571E-05
  -0.3500000000E+01  -0.2001049743E+00   0.5996173727E+00   0.0000000000E+00  -0.9313893499E-03  -0.3826512947E-03   0.0000000000E+00   0.0000000000E+00   0.0000000000E+00   0.8437495105E-01   0.1040201039E-01  -0.5760030572E-05  -0.3567627988E-03   0.1525376475E-04  -0.3749656609E-05
  -0.3108812449E+01  -0.9933299554E+00   0.5996170205E+00   0.3849308944E-03  -0.6274713948E-03  -0.3830035222E-03   0.0000000000E+00   0.0000000000E+00   0.0000000000E+00   0.9788169056E-01  -0.2247429485E-02   0.6620276495E-05  -0.6583885737E-02   0.7325722565E-06   0.4115219192E-05
  -0.3120758728E+01  -0.7956917437E+00   0.5996175740E+00   0.3502822435E-03  -0.7220657211E-03  -0.3824499746E-03   0.0000000000E+00   0.0000000000E+00   0.0000000000E+00   0.9321383218E-01   0.1260619185E-02  -0.1369640315E-05  -0.6549189794E-02   0.2208214179E-05   0.4691200003E-05
  -0.3132588142E+01  -0.5978808135E+00   0.5996179689E+00   0.3185381824E-03  -0.8052314733E-03  -0.3820550648E-03   0.0000000000E+00   0.0000000000E+00   0.0000000000E+00   0.8891810900E-01   0.4725071511E-02  -0.1540479537E-05  -0.6018124456E-02   0.3741218804E-05   0.3392146850E-05
  -0.3141984081E+01  -0.3992937289E+00   0.5996181186E+00   0.2933988799E-03  -0.8785809347E-03  -0.3819053958E-03   0.0000000000E+00   0.0000000000E+00   0.0000000000E+00   0.8543531831E-01   0.7870507500E-02  -0.6693964985E-05  -0.5066898985E-02   0.5232750376E-05   0.1469379475E-05
  -0.3146323289E+01  -0.1994583654E+00   0.5996179460E+00   0.2781506688E-03  -0.9440523993E-03  -0.3820780334E-03   0.0000000000E+00   0.0000000000E+00   0.0000000000E+00   0.8318019346E-01   0.1044247030E-01  -0.5127200774E-05  -0.3811156638E-02   0.6509402987E-05  -0.2882140742E-05
  -0.2913534536E+01  -0.9913628816E+00   0.5996171636E+00   0.5785035686E-03  -0.6473776015E-03  -0.3828603551E-03   0.0000000000E+00   0.0000000000E+00   0.0000000000E+00   0.9836961103E-01  -0.3023797264E-02  -0.7437219696E-06  -0.1000725933E-01  -0.3842601945E-07   0.5376564065E-05
  -0.2931244891E+01  -0.7944033223E+00   0.5996179107E+00   0.5254290001E-03  -0.7418473203E-03  -0.3821132728E-03   0.0000000000E+00   0.0000000000E+00   0.0000000000E+00   0.9308509118E-01   0.7152766118E-03  -0.2723117228E-06  -0.9971403418E-02   0.1939430961E-05   0.5609811393E-05
  -0.2948715159E+01  -0.5971673981E+00   0.5996184743E+00   0.4768914596E-03  -0.8241790625E-03  -0.3815496926E-03   0.0000000000E+00   0.0000000000E+00   0.0000000000E+00   0.8822457433E-01   0.4399334317E-02  -0.2623487628E-05  -0.9163911794E-02   0.3860152383E-05   0.5421874667E-05
  -0.2962582130E+01  -0.3989035690E+00   0.5996187592E+00   0.4384304846E-03  -0.8959079756E-03  -0.3812647895E-03   0.0000000000E+00   0.0000000000E+00   0.0000000000E+00   0.8426956675E-01   0.7744202287E-02  -0.8938997325E-05  -0.7714681009E-02   0.5633428472E-05   0.2476757377E-05
  -0.2969341518E+01  -0.1990754660E+00   0.5996186922E+00   0.4146116779E-03  -0.9598190415E-03  -0.3813318412E-03   0.0000000000E+00   0.0000000000E+00   0.0000000000E+00   0.8165195187E-01   0.1045976859E-01  -0.9296624694E-05  -0.5780951138E-02   0.7574450775E-05  -0.1058695299E-05
  -0.2718338962E+01  -0.9890672644E+00   0.5996173399E+00   0.7739077816E-03  -0.6744343650E-03  -0.3826841056E-03   0.0000000000E+00   0.0000000000E+00   0.0000000000E+00   0.9911627425E-01  -0.4118721666E-02   0.4655867055E-05  -0.1367756295E-01   0.2139393987E-06   0.7848787478E-05
  -0.2741763786E+01  -0.7928842018E+00   0.5996183881E+00   0.7007539852E-03  -0.7692888140E-03  -0.3816358719E-03   0.0000000000E+00   0.0000000000E+00   0.0000000000E+00   0.9293411870E-01  -0.9440154493E-04  -0.1851679180E-05  -0.1366128888E-01   0.2240270254E-05   0.8776096451E-05
  -0.2764797593E+01  -0.5963090990E+00   0.5996192086E+00   0.6340466881E-03  -0.8503530203E-03  -0.3808153854E-03   0.0000000000E+00   0.0000000000E+00   0.0000000000E+00   0.8724076536E-01   0.3903393909E-02  -0.6824551697E-05  -0.1257727482E-01   0.4451308513E-05   0.6791331178E-05
  -0.2783108889E+01  -0.3984333043E+00   0.5996197023E+00   0.5810913786E-03  -0.9202123289E-03  -0.3803216760E-03   0.0000000000E+00   0.0000000000E+00   0.0000000000E+00   0.8259670589E-01   0.7519872292E-02  -0.9728179359E-05  -0.1058442451E-01   0.6961393947E-05   0.5170536328E-05
  -0.2792777494E+01  -0.1987096104E+00   0.5996197924E+00   0.5474555999E-03  -0.9816024131E-03  -0.3802316045E-03   0.0000000000E+00   0.0000000000E+00   0.0000000000E+00   0.7945800994E-01   0.1044260650E-01  -0.9438588288E-05  -0.7910774312E-02   0.8975052594E-05   0.2411815032E-06
  -0.2523185800E+01  -0.9865772317E+00   0.5996175436E+00   0.9719595381E-03  -0.7082416631E-03  -0.3824804041E-03   0.0000000000E+00   0.0000000000E+00   0.0000000000E+00   0.1001731359E+00  -0.5559408718E-02   0.5805384948E-05  -0.1755659462E-01  -0.1669565838E-05   0.8992826915E-05
  -0.2552302265E+01  -0.7912212902E+00   0.5996190105E+00   0.8765253558E-03  -0.8036192008E-03  -0.3810135381E-03   0.0000000000E+00   0.0000000000E+00   0.0000000000E+00   0.9279496123E-01  -0.1197672005E-02  -0.6267906773E-05  -0.1760887043E-01   0.1816428236E-05   0.9628473803E-05
  -0.2580860169E+01  -0.5953565918E+00   0.5996201996E+00   0.7896113560E-03  -0.8837068007E-03  -0.3798243596E-03   0.0000000000E+00   0.0000000000E+00   0.0000000000E+00   0.8597690529E-01   0.3169610638E-02  -0.7959653482E-05  -0.1626284534E-01   0.4678162970E-05   0.1019060305E-04
  -0.2603674944E+01  -0.3979327257E+00   0.5996209931E+00   0.7204464318E-03  -0.9510686590E-03  -0.3790308524E-03   0.0000000000E+00   0.0000000000E+00   0.0000000000E+00   0.8036678687E-01   0.7151490665E-02  -0.1201000908E-04  -0.1368360375E-01   0.8263640891E-05   0.7226883843E-05
  -0.2617910727E+01  -0.1987204169E+00   0.5996212925E+00   0.6746228209E-03  -0.1009157907E-02  -0.3787315313E-03   0.0000000000E+00   0.0000000000E+00   0.0000000000E+00   0.7655561946E-01   0.1032281304E-01   0.2050019491E-05  -0.1017281528E-01   0.1172271756E-04   0.2936535145E-05
  -0.2328051289E+01  -0.9839845229E+00   0.5996177002E+00   0.1173770883E-02  -0.7472558828E-03  -0.3823237736E-03   0.0000000000E+00   0.0000000000E+00   0.0000000000E+00   0.1016475979E+00  -0.7347188845E-02  -0.2932236612E-05  -0.2163679972E-01  -0.1918131998E-06   0.1432465877E-04
  -0.2362850919E+01  -0.7894780814E+00   0.5996197815E+00   0.1053081317E-02  -0.8442583765E-03  -0.3802425083E-03   0.0000000000E+00   0.0000000000E+00   0.0000000000E+00   0.9274178077E-01  -0.2650271245E-02   0.1583482213E-04  -0.2185747364E-01   0.2982957947E-05   0.1574632879E-04
  -0.2396915323E+01  -0.5943485362E+00   0.5996214926E+00   0.9432968664E-03  -0.9233811888E-03  -0.3785313550E-03   0.0000000000E+00   0.0000000000E+00   0.0000000000E+00   0.8442960276E-01   0.2144373935E-02  -0.3842332696E-05  -0.2027016449E-01   0.6171853273E-05   0.1242903016E-04
  -0.2424552923E+01  -0.3975118031E+00   0.5996227075E+00   0.8554369266E-03  -0.9882681333E-03  -0.3773164944E-03   0.0000000000E+00   0.0000000000E+00   0.0000000000E+00   0.7754314075E-01   0.6525407951E-02  -0.1808408879E-04  -0.1707379181E-01   0.1026012140E-04   0.1255282249E-04
  -0.2443492363E+01  -0.1989805301E+00   0.5996232985E+00   0.7958866681E-03  -0.1042147065E-02  -0.3767254898E-03   0.0000000000E+00   0.0000000000E+00   0.0000000000E+00   0.7282308886E-01   0.1004180444E-01   0.2294682258E-04  -0.1262706655E-01   0.1425538980E-04   0.5500341291E-05
  -0.2132918237E+01  -0.9813425509E+00   0.5996178085E+00   0.1380563024E-02  -0.7898779089E-03  -0.3822155422E-03   0.0000000000E+00   0.0000000000E+00   0.0000000000E+00   0.1036991973E+00  -0.9469815041E-02   0.4591813984E-04  -0.2582677736E-01   0.1897903236E-05   0.1551535155E-04
  -0.2173403474E+01  -0.7876938045E+00   0.5996206957E+00   0.1230985993E-02  -0.8893665455E-03  -0.3793282725E-03   0.0000000000E+00   0.0000000000E+00   0.0000000000E+00   0.9282897998E-01  -0.4510973713E-02   0.1429074341E-04  -0.2637822826E-01   0.9895631255E-05   0.1842971024E-04
  -0.2212969040E+01  -0.5933114051E+00   0.5996231450E+00   0.1094839810E-02  -0.9685510655E-03  -0.3768789987E-03   0.0000000000E+00   0.0000000000E+00   0.0000000000E+00   0.8262162933E-01   0.7269752609E-03   0.5548548792E-04  -0.2462038457E-01   0.1690012240E-04   0.1996401004E-04
  -0.2245281753E+01  -0.3970229418E+00   0.5996249548E+00   0.9855670634E-03  -0.1030960766E-02  -0.3750691699E-03   0.0000000000E+00   0.0000000000E+00   0.0000000000E+00   0.7407832689E-01   0.5572733644E-02   0.1454171671E-04  -0.2077962467E-01   0.2343501147E-04   0.1848394048E-04
  -0.2267886598E+01  -0.1988482030E+00   0.5996259657E+00   0.9108018438E-03  -0.1080900953E-02  -0.3740583460E-03   0.0000000000E+00   0.0000000000E+00   0.0000000000E+00   0.6810631265E-01   0.9437897250E-02   0.7075356229E-04  -0.1529014639E-01   0.3412900539E-04   0.1179722304E-04
  -0.1935504538E+01  -0.9777637137E+00   0.5996176662E+00   0.1595632417E-02  -0.8334526755E-03  -0.3823578111E-03   0.0000000000E+00   0.0000000000E+00   0.0000000000E+00   0.1064559634E+00  -0.1182673595E-01   0.1000530295E-03  -0.3001453795E-01   0.1980067212E-04   0.3994909341E-04
  -0.1983261866E+01  -0.7855857004E+00   0.5996217465E+00   0.1411513572E-02  -0.9369843888E-03  -0.3782774500E-03   0.0000000000E+00   0.0000000000E+00   0.0000000000E+00   0.9323568898E-01  -0.6821465164E-02   0.1116184216E-03  -0.3104682829E-01   0.3221126328E-04   0.3984464017E-04
  -0.2028835597E+01  -0.5921435656E+00   0.5996252550E+00   0.1244242939E-02  -0.1017242579E-02  -0.3747690001E-03   0.0000000000E+00   0.0000000000E+00   0.0000000000E+00   0.8055887704E-01  -0.1253218721E-02   0.9254143506E-04  -0.2930809616E-01   0.4811705800E-04   0.3640659085E-04
  -0.2065891628E+01  -0.3964348503E+00   0.5996279436E+00   0.1109712493E-02  -0.1078076344E-02  -0.3720803501E-03   0.0000000000E+00   0.0000000000E+00   0.0000000000E+00   0.6982649054E-01   0.4096078808E-02   0.1849374554E-03  -0.2480608864E-01   0.6606900035E-04   0.3742683954E-04
  -0.2096728809E+01  -0.1994314487E+00   0.5996294721E+00   0.1014700946E-02  -0.1122742730E-02  -0.3705519308E-03   0.0000000000E+00   0.0000000000E+00   0.0000000000E+00   0.6258681093E-01   0.8403764821E-02   0.1989028281E-03  -0.1810493004E-01   0.6939789985E-04   0.2287805315E-04
  -0.1738633260E+01  -0.9741945815E+00   0.5996171889E+00   0.1818200252E-02  -0.8720704517E-03  -0.3828351377E-03   0.0000000000E+00   0.0000000000E+00   0.0000000000E+00   0.1101206514E+00  -0.1422998781E-01   0.1401702899E-03  -0.3375239481E-01   0.2825282827E-04   0.6130800443E-04
  -0.1793384815E+01  -0.7832352630E+00   0.5996228556E+00   0.1594754632E-02  -0.9822360104E-03  -0.3771683992E-03   0.0000000000E+00   0.0000000000E+00   0.0000000000E+00   0.9411316284E-01  -0.9607425672E-02   0.1922977754E-03  -0.3564033108E-01   0.7831379692E-04   0.7423848109E-04
  -0.1844930172E+01  -0.5906579926E+00   0.5996279225E+00   0.1391168086E-02  -0.1066429562E-02  -0.3721014736E-03   0.0000000000E+00   0.0000000000E+00   0.0000000000E+00   0.7833608438E-01  -0.3905063494E-02   0.3414295154E-03  -0.3419362446E-01   0.1290077489E-03   0.9135870593E-04
  -0.1888976586E+01  -0.3959062733E+00   0.5996318580E+00   0.1225104415E-02  -0.1126531252E-02  -0.3681659975E-03   0.0000000000E+00   0.0000000000E+00   0.0000000000E+00   0.6480969296E-01   0.1862972912E-02   0.4424586273E-03  -0.2904312519E-01   0.1778727405E-03   0.8039221894E-04
  -0.1930439067E+01  -0.2006361346E+00   0.5996339581E+00   0.1106782731E-02  -0.1166061586E-02  -0.3660658876E-03   0.0000000000E+00   0.0000000000E+00   0.0000000000E+00   0.5549882646E-01   0.6572426059E-02   0.3935940797E-03  -0.2105514377E-01   0.2193132285E-03   0.5811724872E-04
  -0.1543728145E+01  -0.9703995087E+00   0.5996156111E+00   0.2048224758E-02  -0.8975956841E-03  -0.3844129116E-03   0.0000000000E+00   0.0000000000E+00   0.0000000000E+00   0.1148364134E+00  -0.1593054960E-01   0.1083983281E-03  -0.3658096761E-01   0.3456325853E-04   0.1514738884E-03
  -0.1604620951E+01  -0.7798057218E+00   0.5996238070E+00   0.1780369128E-02  -0.1019300751E-02  -0.3762169732E-03   0.0000000000E+00   0.0000000000E+00   0.0000000000E+00   0.9559736009E-01  -0.1247020416E-01   0.4821676892E-03  -0.3986708972E-01   0.1317876241E-03   0.2059558369E-03
  -0.1662059758E+01  -0.5879502888E+00   0.5996312756E+00   0.1533892317E-02  -0.1110672806E-02  -0.3687483946E-03   0.0000000000E+00   0.0000000000E+00   0.0000000000E+00   0.7571173266E-01  -0.7280405578E-02   0.6164018715E-03  -0.3888599020E-01   0.2740290511E-03   0.2246717808E-03
  -0.1714606188E+01  -0.3958729393E+00   0.5996370329E+00   0.1331901853E-02  -0.1172382338E-02  -0.3629910556E-03   0.0000000000E+00   0.0000000000E+00   0.0000000000E+00   0.5872397755E-01  -0.1621597586E-02   0.7993175357E-03  -0.3334253351E-01   0.4024765926E-03   0.2126890273E-03
  -0.1748915157E+01  -0.1988019267E+00   0.5996409407E+00   0.1193562665E-02  -0.1214436722E-02  -0.3590832797E-03   0.0000000000E+00   0.0000000000E+00   0.0000000000E+00   0.4681976223E-01   0.3188120568E-02   0.1043360617E-02  -0.2405950855E-01   0.4774553341E-03   0.1385779488E-03
  -0.1351521439E+01  -0.9640663229E+00   0.5996127471E+00   0.2282790746E-02  -0.9034839345E-03  -0.3872769136E-03   0.0000000000E+00   0.0000000000E+00   0.0000000000E+00   0.1210592746E+00  -0.1560447379E-01   0.3653413746E-03  -0.3802619520E-01  -0.7374199931E-04   0.2196546866E-03
  -0.1418513813E+01  -0.7731769297E+00   0.5996241269E+00   0.1964057442E-02  -0.1039049728E-02  -0.3758970925E-03   0.0000000000E+00   0.0000000000E+00   0.0000000000E+00   0.9740800891E-01  -0.1469794529E-01   0.4182167493E-03  -0.4300926278E-01   0.1341901044E-03   0.4226004069E-03
  -0.1482039219E+01  -0.5822736632E+00   0.5996352046E+00   0.1668680508E-02  -0.1142205190E-02  -0.3648194331E-03   0.0000000000E+00   0.0000000000E+00   0.0000000000E+00   0.7264450686E-01  -0.1126118975E-01   0.1109881054E-02  -0.4289397874E-01   0.4697094596E-03   0.5551689669E-03
  -0.1536988848E+01  -0.3906931659E+00   0.5996441377E+00   0.1427541624E-02  -0.1212068851E-02  -0.3558863295E-03   0.0000000000E+00   0.0000000000E+00   0.0000000000E+00   0.5086119541E-01  -0.6786880524E-02   0.1323883160E-02  -0.3690851630E-01   0.8028660197E-03   0.5034278464E-03
  -0.1582750016E+01  -0.1990925001E+00   0.5996495882E+00   0.1260823958E-02  -0.1254611107E-02  -0.3504358218E-03   0.0000000000E+00   0.0000000000E+00   0.0000000000E+00   0.3580250192E-01  -0.2605455444E-02   0.1540883970E-02  -0.2666137352E-01   0.1018559891E-02   0.3276452432E-03
  -0.1157019942E+01  -0.9505155371E+00   0.5996063770E+00   0.2519397538E-02  -0.8800310979E-03  -0.3936469733E-03   0.0000000000E+00   0.0000000000E+00   0.0000000000E+00   0.1270589159E+00  -0.1111670128E-01  -0.4934561964E-03  -0.3866093301E-01  -0.5606554573E-03   0.3792935606E-03
  -0.1235891414E+01  -0.7600308241E+00   0.5996230587E+00   0.2137236400E-02  -0.1031715052E-02  -0.3769652671E-03   0.0000000000E+00   0.0000000000E+00   0.0000000000E+00   0.9863174639E-01  -0.1350414282E-01   0.1039908235E-02  -0.4511029983E-01  -0.1017710508E-03   0.9638093899E-03
  -0.1307792544E+01  -0.5713944252E+00   0.5996394923E+00   0.1786586351E-02  -0.1148623241E-02  -0.3605316977E-03   0.0000000000E+00   0.0000000000E+00   0.0000000000E+00   0.6697147728E-01  -0.1453200449E-01   0.7414031955E-03  -0.4450459459E-01   0.5873160126E-03   0.1238744579E-02
  -0.1366048735E+01  -0.3822838935E+00   0.5996532587E+00   0.1504855175E-02  -0.1230803495E-02  -0.3467653388E-03   0.0000000000E+00   0.0000000000E+00   0.0000000000E+00   0.4060771597E-01  -0.1468833660E-01   0.1151943008E-02  -0.3785071163E-01   0.1272879255E-02   0.1130566427E-02
  -0.1407988099E+01  -0.1918389651E+00   0.5996624129E+00   0.1312940708E-02  -0.1286701121E-02  -0.3376110713E-03   0.0000000000E+00   0.0000000000E+00   0.0000000000E+00   0.2266159126E-01  -0.1372088687E-01   0.1455623051E-02  -0.2699564615E-01   0.1737801223E-02   0.7477790739E-03
  -0.9646068411E+00  -0.9251413985E+00   0.5995963727E+00   0.2738515896E-02  -0.8243965358E-03  -0.4036512545E-03   0.0000000000E+00   0.0000000000E+00   0.0000000000E+00   0.1395343021E+00   0.1610705948E-02   0.1709067355E-02  -0.4207509794E-01  -0.1271383041E-02   0.7719116948E-03
  -0.1061648759E+01  -0.7371602359E+00   0.5996197136E+00   0.2274601091E-02  -0.9857119488E-03  -0.3803103505E-03   0.0000000000E+00   0.0000000000E+00   0.0000000000E+00   0.9666385054E-01  -0.5521846232E-02   0.8060817609E-03  -0.4676681593E-01  -0.7639299362E-03   0.1878745022E-02
  -0.1144798738E+01  -0.5534755658E+00   0.5996429204E+00   0.1873151643E-02  -0.1112944825E-02  -0.3571036467E-03   0.0000000000E+00   0.0000000000E+00   0.0000000000E+00   0.5874908132E-01  -0.1559389761E-01  -0.2477296031E-03  -0.4207731252E-01   0.9767078186E-04   0.2270763851E-02
  -0.1208371824E+01  -0.3695827273E+00   0.5996624584E+00   0.1559785551E-02  -0.1213267314E-02  -0.3375655883E-03   0.0000000000E+00   0.0000000000E+00   0.0000000000E+00   0.2904498551E-01  -0.2574550947E-01  -0.6761388334E-03  -0.3375056214E-01   0.9920308142E-03   0.2024085614E-02
  -0.1251033800E+01  -0.1844856977E+00   0.5996758791E+00   0.1350029752E-02  -0.1291179670E-02  -0.3241448535E-03   0.0000000000E+00   0.0000000000E+00   0.0000000000E+00   0.9209158610E-02  -0.3195356734E-01  -0.3585101114E-03  -0.2383511079E-01   0.1700339955E-02   0.1373667738E-02
  -0.7756209795E+00  -0.8820557240E+00   0.5995824848E+00   0.2889948452E-02  -0.7424599689E-03  -0.4175392217E-03   0.0000000000E+00   0.0000000000E+00   0.0000000000E+00   0.1341496193E+00   0.3616200495E-01   0.8714493018E-02  -0.5978215837E-01  -0.2070598594E-02   0.1974833569E-02
  -0.9014003853E+00  -0.7056718590E+00   0.5996136697E+00   0.2347292659E-02  -0.8880019894E-03  -0.3863542512E-03   0.0000000000E+00   0.0000000000E+00   0.0000000000E+00   0.7832197912E-01   0.2075188325E-01  -0.1528483273E-02  -0.4816359717E-01  -0.1908893172E-02   0.3321197126E-02
  -0.9998403735E+00  -0.5317932180E+00   0.5996439015E+00   0.1917006503E-02  -0.1019041986E-02  -0.3561224975E-03   0.0000000000E+00   0.0000000000E+00   0.0000000000E+00   0.3726957993E-01  -0.6128195043E-02  -0.5034510225E-02  -0.2957854412E-01  -0.1155985264E-02   0.3757432433E-02
  -0.1070565869E+01  -0.3557858543E+00   0.5996693125E+00   0.1596880745E-02  -0.1140781313E-02  -0.3307114968E-03   0.0000000000E+00   0.0000000000E+00   0.0000000000E+00   0.1220644555E-01  -0.3839366305E-01  -0.9527850261E-02  -0.1512662566E-01  -0.1380313398E-03   0.3294937736E-02
  -0.1113993707E+01  -0.1773827258E+00   0.5996870918E+00   0.1386463100E-02  -0.1257661826E-02  -0.3129321638E-03   0.0000000000E+00   0.0000000000E+00   0.0000000000E+00  -0.7921565981E-03  -0.6456981315E-01  -0.1196369641E-01  -0.9037145917E-02   0.7118335980E-03   0.2306944686E-02
  -0.9853256005E+00  -0.1633102561E+00   0.5996991588E+00   0.1441691482E-02  -0.1167413122E-02  -0.3008652205E-03   0.0000000000E+00   0.0000000000E+00   0.0000000000E+00  -0.3428534486E-03  -0.1034280317E+00  -0.1277425631E-01   0.1096427169E-01  -0.7921325742E-03   0.3609229889E-02
  -0.9440167349E+00  -0.3262664242E+00   0.5996773853E+00   0.1603742065E-02  -0.9944302321E-03  -0.3226387019E-03   0.0000000000E+00   0.0000000000E+00   0.0000000000E+00   0.1009249741E-02  -0.5226338471E-01  -0.1020240006E-01   0.8871922254E-02  -0.1846707257E-02   0.5146608607E-02
  -0.8746478336E+00  -0.4822446038E+00   0.5996474869E+00   0.1857839434E-02  -0.8531138444E-03  -0.3525371341E-03   0.0000000000E+00   0.0000000000E+00   0.0000000000E+00   0.1506965838E-01   0.4555968042E-02  -0.7424523436E-02  -0.1234274762E-01  -0.3123459947E-02   0.5833856185E-02
  -0.7758858955E+00  -0.6288894463E+00   0.5996126603E+00   0.2212628516E-02  -0.7472082697E-03  -0.3873637439E-03   0.0000000000E+00   0.0000000000E+00   0.0000000000E+00   0.5376783914E-01   0.4941790744E-01  -0.2816537385E-02  -0.5024302252E-01  -0.4131296529E-02   0.5537240239E-02
  -0.6465820684E+00  -0.7612410095E+00   0.5995761615E+00   0.2677498647E-02  -0.6741194673E-03  -0.4238625075E-03   0.0000000000E+00   0.0000000000E+00   0.0000000000E+00   0.1270223233E+00   0.6681921855E-01   0.9877247721E-04  -0.8432776248E-01  -0.4332242926E-02   0.4064744568E-02
   0.6843778680E+00   0.9251944349E+00   0.7994346587E+00   0.7006425978E-02  -0.2570636143E-02  -0.5653532922E-03   0.0000000000E+00   0.0000000000E+00   0.0000000000E+00   0.1440921189E+00   0.6781772806E-02  -0.7689330408E-03  -0.3885865055E-01   0.6035106669E-02  -0.4127410820E-02
   0.4942267076E+00   0.1030594315E+01   0.7993219930E+00   0.6398095605E-02  -0.2958685298E-02  -0.6780189957E-03   0.0000000000E+00   0.0000000000E+00   0.0000000000E+00   0.2093046445E+00   0.2195150139E-01   0.5518234127E-02  -0.3904846876E-01   0.6342501118E-02  -0.1545346795E-02
   0.4328363633E+00   0.9017253794E+00   0.7992872166E+00   0.6694624261E-02  -0.2931030562E-02  -0.7127954278E-03   0.0000000000E+00   0.0000000000E+00   0.0000000000E+00   0.2266858115E+00   0.3886424104E-01   0.8534209925E-03  -0.9138173306E-01   0.1352363002E-01  -0.7289012562E-02
   0.5972587674E+00   0.8047668668E+00   0.7994256238E+00   0.7318875401E-02  -0.2680268160E-02  -0.5743882319E-03   0.0000000000E+00   0.0000000000E+00   0.0000000000E+00   0.1188503282E+00   0.4349888357E-01   0.5511012095E-03  -0.6920158506E-01   0.1258444043E-01  -0.9202749058E-02
   0.2798819746E+00   0.1094871640E+01   0.7992284411E+00   0.5777766554E-02  -0.3275869998E-02  -0.7715708502E-03   0.0000000000E+00   0.0000000000E+00   0.0000000000E+00   0.2743817295E+00   0.2818479692E-01   0.1065605097E-01  -0.2930138666E-01   0.5354155485E-02   0.7523230406E-03
   0.2519263898E+00   0.9661672174E+00   0.7991763439E+00   0.5988654774E-02  -0.3118389635E-02  -0.8236681432E-03   0.0000000000E+00   0.0000000000E+00   0.0000000000E+00   0.3356334816E+00   0.2001022960E-01   0.6814656509E-02  -0.7397653172E-01   0.1008461627E-01  -0.3407080156E-02
   0.6265640321E-01   0.1126711457E+01   0.7991849788E+00   0.5156674113E-02  -0.3435763176E-02  -0.8150332030E-03   0.0000000000E+00   0.0000000000E+00   0.0000000000E+00   0.3055638722E+00   0.2918476918E-01   0.1196342613E-01  -0.7537464986E-02   0.1165618197E-02   0.1982557396E-02
   0.6503454149E-01   0.9950015409E+00   0.7991221772E+00   0.5239079892E-02  -0.3209128075E-02  -0.8778347960E-03   0.0000000000E+00   0.0000000000E+00   0.0000000000E+00   0.4013030914E+00   0.4543938192E-02   0.1154820377E-01  -0.1890068764E-01   0.2595118025E-02  -0.1244431983E-02
  -0.1601585137E+00   0.1124723208E+01   0.7992046799E+00   0.4540459286E-02  -0.3392211651E-02  -0.7953321048E-03   0.0000000000E+00   0.0000000000E+00   0.0000000000E+00   0.2920748221E+00   0.2871069371E-01   0.1198248739E-01   0.1610863949E-01  -0.3468520244E-02   0.1866719661E-02
  -0.1263814712E+00   0.9882173348E+00   0.7991367272E+00   0.4463017775E-02  -0.3185589207E-02  -0.8632848162E-03   0.0000000000E+00   0.0000000000E+00   0.0000000000E+00   0.3826685430E+00   0.9969041711E-02   0.9399333249E-02   0.4918929361E-01  -0.6206040359E-02  -0.2068370837E-02
  -0.3869339809E+00   0.1089257921E+01   0.7992826207E+00   0.3930808137E-02  -0.3145128720E-02  -0.7173913382E-03   0.0000000000E+00   0.0000000000E+00   0.0000000000E+00   0.2373946804E+00   0.2321882304E-01   0.8998257480E-02   0.2751835535E-01  -0.6312719184E-02   0.1059293996E-02
  -0.3244610159E+00   0.9415882073E+00   0.7992240132E+00   0.3681418105E-02  -0.3040031689E-02  -0.7759988047E-03   0.0000000000E+00   0.0000000000E+00   0.0000000000E+00   0.2808982221E+00   0.2850681263E-01   0.2483017145E-02   0.8413484123E-01  -0.1183884517E-01  -0.5926458383E-02
   0.7938434420E+00   0.1068731037E+01   0.7994460885E+00   0.6850832043E-02  -0.2510582881E-02  -0.5539235325E-03   0.0000000000E+00   0.0000000000E+00   0.0000000000E+00   0.1612302159E+00  -0.1821630662E-01  -0.5775671033E-03  -0.1047496811E-01   0.1844226157E-02  -0.6188833501E-03
   0.5198103105E+00   0.1177669404E+01   0.7993460454E+00   0.6163827534E-02  -0.3055215878E-02  -0.6539666401E-03   0.0000000000E+00   0.0000000000E+00   0.0000000000E+00   0.2015912418E+00   0.5783521850E-02  -0.6790355656E-03   0.2786135156E-02   0.4242427998E-02   0.1668326710E-02
   0.2845208760E+00   0.1237868960E+01   0.7992803239E+00   0.5605948030E-02  -0.3412789551E-02  -0.7196880794E-03   0.0000000000E+00   0.0000000000E+00   0.0000000000E+00   0.2223620207E+00   0.2414118735E-01  -0.1547432613E-02   0.3432382157E-02   0.2968650405E-02   0.3128651967E-02
   0.6235425731E-01   0.1268475655E+01   0.7992563405E+00   0.5119187715E-02  -0.3575444638E-02  -0.7436714524E-03   0.0000000000E+00   0.0000000000E+00   0.0000000000E+00   0.2268914859E+00   0.3314969732E-01  -0.2036738086E-02   0.2251347102E-02   0.6301214483E-03   0.4614245948E-02
  -0.1589630931E+00   0.1275153601E+01   0.7992727468E+00   0.4658004856E-02  -0.3536018505E-02  -0.7272652443E-03   0.0000000000E+00   0.0000000000E+00   0.0000000000E+00   0.2188217834E+00   0.3042570065E-01  -0.2079912042E-02  -0.2239533552E-02  -0.1817451144E-02   0.4217741954E-02
  -0.3850313535E+00   0.1261560904E+01   0.7993228651E+00   0.4196334509E-02  -0.3303775800E-02  -0.6771468657E-03   0.0000000000E+00   0.0000000000E+00   0.0000000000E+00   0.2006410086E+00   0.1382869260E-01  -0.3319880437E-02  -0.7515451632E-02  -0.2917717627E-02   0.2116615479E-02
  -0.1706127394E+00   0.1442710319E+01   0.7993486031E+00   0.4705248599E-02  -0.3648841126E-02  -0.6514089090E-03   0.0000000000E+00   0.0000000000E+00   0.0000000000E+00   0.1794722252E+00   0.2264622178E-01  -0.7834803728E-03  -0.1029559896E-01  -0.8158026530E-03   0.3573497047E-02
  -0.3928252085E+00   0.1441077479E+01   0.7993761523E+00   0.4328526544E-02  -0.3438460914E-02  -0.6238596979E-03   0.0000000000E+00   0.0000000000E+00   0.0000000000E+00   0.1754538422E+00   0.9585021877E-02  -0.1053552208E-02  -0.1896549926E-01  -0.9144239121E-03   0.2324040036E-02
  -0.1838990789E+00   0.1621850310E+01   0.7994170495E+00   0.4733424133E-02  -0.3754320159E-02  -0.5829624859E-03   0.0000000000E+00   0.0000000000E+00   0.0000000000E+00   0.1498007546E+00   0.1323830769E-01  -0.9447242759E-04  -0.1193669632E-01  -0.2630751819E-04   0.1794464469E-02
  -0.4049853774E+00   0.1623936165E+01   0.7994253516E+00   0.4412522568E-02  -0.3558644880E-02  -0.5746604444E-03   0.0000000000E+00   0.0000000000E+00   0.0000000000E+00   0.1519395622E+00   0.5822484556E-02  -0.8574903344E-04  -0.2055991212E-01   0.2352680122E-03   0.1078899493E-02
  -0.1935131402E+00   0.1807530166E+01   0.7994759310E+00   0.4772543815E-02  -0.3857373804E-02  -0.5240810315E-03   0.0000000000E+00   0.0000000000E+00   0.0000000000E+00   0.1155542755E+00   0.3088802083E-02  -0.3284305964E-02  -0.7673625371E-02   0.6314418017E-03   0.1004450036E-03
  -0.4143751819E+00   0.1809287836E+01   0.7994683422E+00   0.4506443058E-02  -0.3670163821E-02  -0.5316698307E-03   0.0000000000E+00   0.0000000000E+00   0.0000000000E+00   0.1249146785E+00   0.9310258319E-03  -0.2293355392E-02  -0.1295676636E-01   0.1141918974E-02  -0.1012191770E-04
  -0.2012456567E+00   0.1996061792E+01   0.7995282799E+00   0.4845866256E-02  -0.3938207789E-02  -0.4717320969E-03   0.0000000000E+00   0.0000000000E+00   0.0000000000E+00   0.8314529792E-01   0.2078100499E-02  -0.6657498378E-03  -0.2737849576E-02   0.2228791488E-02  -0.6845925298E-03
  -0.4219878069E+00   0.1996236371E+01   0.7995065018E+00   0.4649962054E-02  -0.3763629457E-02  -0.4935102042E-03   0.0000000000E+00   0.0000000000E+00   0.0000000000E+00   0.1016329040E+00   0.1289927930E-02   0.7465689091E-04  -0.4546202939E-02   0.3873878145E-02  -0.4888658360E-03
   0.5149807258E-01   0.1433960154E+01   0.7993360866E+00   0.5078571279E-02  -0.3696006263E-02  -0.6639254208E-03   0.0000000000E+00   0.0000000000E+00   0.0000000000E+00   0.1833592336E+00   0.2676073411E-01  -0.5490246310E-03   0.2503760354E-02   0.1110663877E-03   0.3936874859E-02
   0.3863412969E-01   0.1614565514E+01   0.7994111112E+00   0.5047713291E-02  -0.3807645766E-02  -0.5889007629E-03   0.0000000000E+00   0.0000000000E+00   0.0000000000E+00   0.1505381052E+00   0.1648309941E-01   0.1530760821E-03   0.1805188792E-02  -0.4902892423E-04   0.2234270912E-02
   0.2889862865E-01   0.1803529651E+01   0.7994769990E+00   0.5027221746E-02  -0.3914208710E-02  -0.5230130002E-03   0.0000000000E+00   0.0000000000E+00   0.0000000000E+00   0.1129061449E+00   0.4139506027E-02  -0.3755122922E-02   0.9162006755E-03  -0.9885739579E-04   0.2126534459E-03
   0.2137249616E-01   0.1996004609E+01   0.7995354576E+00   0.5012466556E-02  -0.3995390572E-02  -0.4645543870E-03   0.0000000000E+00   0.0000000000E+00   0.0000000000E+00   0.7674270750E-01   0.2408412371E-02  -0.8998324165E-03  -0.1498944108E-03  -0.1774074012E-03  -0.8135420447E-03
   0.2761610712E+00   0.1411221843E+01   0.7993451296E+00   0.5471315186E-02  -0.3557346799E-02  -0.6548823867E-03   0.0000000000E+00   0.0000000000E+00   0.0000000000E+00   0.1846528422E+00   0.2007040199E-01  -0.4646509522E-03   0.1338960339E-01   0.1118809463E-02   0.3343296871E-02
   0.2630342035E+00   0.1600184142E+01   0.7994110575E+00   0.5372860456E-02  -0.3695787966E-02  -0.5889545312E-03   0.0000000000E+00   0.0000000000E+00   0.0000000000E+00   0.1538876561E+00   0.1298660139E-01   0.1915742706E-03   0.1520994740E-01   0.4528277510E-04   0.1953518670E-02
   0.2523683788E+00   0.1796653923E+01   0.7994711849E+00   0.5288380812E-02  -0.3822146944E-02  -0.5288270808E-03   0.0000000000E+00   0.0000000000E+00   0.0000000000E+00   0.1186734892E+00   0.3066567489E-02  -0.3427529178E-02   0.9618161276E-02  -0.7166608171E-03   0.1947995980E-03
   0.2442574339E+00   0.1996079967E+01   0.7995254899E+00   0.5182443868E-02  -0.3920033270E-02  -0.4745220942E-03   0.0000000000E+00   0.0000000000E+00   0.0000000000E+00   0.8543560701E-01   0.2196918300E-02  -0.2953474319E-03   0.2974898468E-02  -0.2557288564E-02  -0.7311639084E-03
   0.5088148205E+00   0.1374330456E+01   0.7993761530E+00   0.5905517454E-02  -0.3250784468E-02  -0.6238590415E-03   0.0000000000E+00   0.0000000000E+00   0.0000000000E+00   0.1803337592E+00   0.4907165400E-02  -0.1127076913E-03   0.1597480374E-01   0.1477862719E-02   0.1359590238E-02
   0.4909728916E+00   0.1579796409E+01   0.7994174623E+00   0.5726531583E-02  -0.3437661418E-02  -0.5825497414E-03   0.0000000000E+00   0.0000000000E+00   0.0000000000E+00   0.1579234547E+00   0.3527222369E-02  -0.7099364811E-03   0.2300223886E-01  -0.1013322917E-03   0.1303590124E-02
   0.4769615147E+00   0.1787586604E+01   0.7994608951E+00   0.5575886657E-02  -0.3600686036E-02  -0.5391168977E-03   0.0000000000E+00   0.0000000000E+00   0.0000000000E+00   0.1304384439E+00   0.9553010960E-03  -0.1738806090E-02   0.1477153970E-01  -0.1051867937E-02   0.8633796562E-04
   0.4667409309E+00   0.1996270841E+01   0.7995014504E+00   0.5385154892E-02  -0.3729158741E-02  -0.4985616318E-03   0.0000000000E+00   0.0000000000E+00   0.0000000000E+00   0.1050558300E+00   0.1333153106E-02  -0.2698175872E-04   0.4592378603E-02  -0.3985336104E-02  -0.5932247578E-03
   0.7511352721E+00   0.1329628523E+01   0.7994194017E+00   0.6378693071E-02  -0.2840106846E-02  -0.5806102885E-03   0.0000000000E+00   0.0000000000E+00   0.0000000000E+00   0.1721337724E+00  -0.1230031680E-01  -0.7635511277E-04   0.1184944385E-01   0.7022601194E-03  -0.1168082231E-03
   0.7188087652E+00   0.1557795497E+01   0.7994282384E+00   0.6106193188E-02  -0.3099232536E-02  -0.5717735889E-03   0.0000000000E+00   0.0000000000E+00   0.0000000000E+00   0.1602442712E+00  -0.4759433967E-02   0.6973773544E-04   0.2225405047E-01  -0.1520441709E-03   0.6219799730E-03
   0.6977479085E+00   0.1777735869E+01   0.7994494263E+00   0.5887590494E-02  -0.3303131491E-02  -0.5505857078E-03   0.0000000000E+00   0.0000000000E+00   0.0000000000E+00   0.1424426033E+00  -0.1926205717E-02  -0.1105359808E-02   0.1533465055E-01  -0.1116271384E-02   0.2792666000E-04
   0.6876013697E+00   0.1996534654E+01   0.7994713088E+00   0.5640131723E-02  -0.3465345980E-02  -0.5287031751E-03   0.0000000000E+00   0.0000000000E+00   0.0000000000E+00   0.1294129674E+00   0.5001245638E-03   0.9580690933E-03   0.5614886729E-02  -0.4150731382E-02  -0.2892140694E-03
   0.9205830913E+00   0.1772379536E+01   0.7994396183E+00   0.6226621322E-02  -0.2979854283E-02  -0.5603937126E-03   0.0000000000E+00   0.0000000000E+00   0.0000000000E+00   0.1523610178E+00  -0.3178792789E-02  -0.1381146124E-04   0.1240635046E-01  -0.8273102151E-03   0.4250731399E-05
   0.9082499982E+00   0.1996829125E+01   0.7994427049E+00   0.5946481160E-02  -0.3170875458E-02  -0.5573070867E-03   0.0000000000E+00   0.0000000000E+00   0.0000000000E+00   0.1509019978E+00  -0.5784954992E-03   0.9439385886E-03   0.4039766286E-02  -0.3418525253E-02   0.3598753049E-04
   0.1140924331E+01   0.1770083897E+01   0.7994331567E+00   0.6573310783E-02  -0.2678643149E-02  -0.5668553190E-03   0.0000000000E+00   0.0000000000E+00   0.0000000000E+00   0.1589509612E+00  -0.3474510279E-02   0.1122136973E-02   0.7061115041E-02  -0.4081476532E-03  -0.6052685709E-04
   0.1127804524E+01   0.1997115114E+01   0.7994211977E+00   0.6296994161E-02  -0.2884885765E-02  -0.5788142941E-03   0.0000000000E+00   0.0000000000E+00   0.0000000000E+00   0.1658698239E+00  -0.9709754469E-03   0.4678276408E-03   0.3112863605E-02  -0.2241669894E-02   0.2247149634E-03
   0.1359053292E+01   0.1769485608E+01   0.7994301614E+00   0.6925021650E-02  -0.2422431721E-02  -0.5698506097E-03   0.0000000000E+00   0.0000000000E+00   0.0000000000E+00   0.1607265080E+00  -0.3017764082E-02   0.9272468767E-03   0.1869158039E-02  -0.1539734374E-03  -0.5185549015E-04
   0.1346196114E+01   0.1997367022E+01   0.7994093317E+00   0.6670413965E-02  -0.2632977513E-02  -0.5906803035E-03   0.0000000000E+00   0.0000000000E+00   0.0000000000E+00   0.1739512734E+00  -0.1184591952E-02   0.5814880261E-03   0.9329695019E-03  -0.9906238274E-03   0.3200427570E-03
   0.1575694096E+01   0.1769687795E+01   0.7994304279E+00   0.7271306377E-02  -0.2220365132E-02  -0.5695840777E-03   0.0000000000E+00   0.0000000000E+00   0.0000000000E+00   0.1597151038E+00  -0.1680908632E-02   0.1269607942E-02  -0.2233918688E-02   0.4939966783E-04   0.5418310549E-04
   0.1563717969E+01   0.1997574659E+01   0.7994064281E+00   0.7054459413E-02  -0.2425340607E-02  -0.5935839480E-03   0.0000000000E+00   0.0000000000E+00   0.0000000000E+00   0.1747182860E+00  -0.1091927129E-02  -0.1561068945E-03  -0.1058739366E-03  -0.8744895445E-04   0.3290222335E-03
   0.1791488344E+01   0.1770239516E+01   0.7994336158E+00   0.7611213537E-02  -0.2067764279E-02  -0.5663961814E-03   0.0000000000E+00   0.0000000000E+00   0.0000000000E+00   0.1562783435E+00  -0.8107245321E-03   0.8466889840E-03  -0.4606124222E-02   0.1729264126E-03   0.1313629598E-03
   0.1780689343E+01   0.1997735731E+01   0.7994102583E+00   0.7433163348E-02  -0.2264268872E-02  -0.5897537269E-03   0.0000000000E+00   0.0000000000E+00   0.0000000000E+00   0.1711868271E+00  -0.8277012638E-03  -0.1623433713E-03  -0.1282141425E-02   0.4757235929E-03   0.3249211329E-03
   0.2006842082E+01   0.1770933112E+01   0.7994389668E+00   0.7940471845E-02  -0.1957698354E-02  -0.5610452315E-03   0.0000000000E+00   0.0000000000E+00   0.0000000000E+00   0.1518366965E+00   0.3067894425E-04   0.8033499947E-03  -0.5756612080E-02   0.2236287838E-03   0.1897587937E-03
   0.1997348353E+01   0.1997856474E+01   0.7994182591E+00   0.7800982912E-02  -0.2143526279E-02  -0.5817528763E-03   0.0000000000E+00   0.0000000000E+00   0.0000000000E+00   0.1648176542E+00  -0.6339357394E-03  -0.5639796775E-03  -0.1498611883E-02   0.7133160378E-03   0.2704158743E-03
   0.2221979271E+01   0.1771677508E+01   0.7994453805E+00   0.8259660552E-02  -0.1880392438E-02  -0.5546314738E-03   0.0000000000E+00   0.0000000000E+00   0.0000000000E+00   0.1468626415E+00   0.4160728602E-03   0.4853514244E-03  -0.5829643062E-02   0.2064753209E-03   0.2129240738E-03
   0.2213837271E+01   0.1997943492E+01   0.7994281096E+00   0.8152611357E-02  -0.2056508163E-02  -0.5719024195E-03   0.0000000000E+00   0.0000000000E+00   0.0000000000E+00   0.1578000558E+00  -0.3965205369E-03  -0.4627605912E-03  -0.1748784174E-02   0.7425963652E-03   0.2233644724E-03
   0.2437009185E+01   0.1772431278E+01   0.7994519373E+00   0.8567894934E-02  -0.1828052296E-02  -0.5480747197E-03   0.0000000000E+00   0.0000000000E+00   0.0000000000E+00   0.1421631709E+00   0.7230688143E-03   0.4236369168E-03  -0.5349770538E-02   0.1680161486E-03   0.2208175102E-03
   0.2430233348E+01   0.1998004875E+01   0.7994380426E+00   0.8488758129E-02  -0.1995125314E-02  -0.5619693628E-03   0.0000000000E+00   0.0000000000E+00   0.0000000000E+00   0.1508422210E+00  -0.2727997030E-03  -0.5761601526E-03  -0.1505813043E-02   0.6487770023E-03   0.1683913671E-03
   0.2651975800E+01   0.1773165180E+01   0.7994578997E+00   0.8866959910E-02  -0.1793429766E-02  -0.5421123490E-03   0.0000000000E+00   0.0000000000E+00   0.0000000000E+00   0.1379555923E+00   0.7903741539E-03   0.2438905356E-03  -0.4453262770E-02   0.1192646989E-03   0.2141709114E-03
   0.2646564520E+01   0.1998046690E+01   0.7994469443E+00   0.8809840010E-02  -0.1953309608E-02  -0.5530677041E-03   0.0000000000E+00   0.0000000000E+00   0.0000000000E+00   0.1448722051E+00  -0.1396778047E-03  -0.4370762591E-03  -0.1342397581E-02   0.5136023799E-03   0.1317325416E-03
   0.2866870039E+01   0.1773833211E+01   0.7994628375E+00   0.9157769259E-02  -0.1771508830E-02  -0.5371745495E-03   0.0000000000E+00   0.0000000000E+00   0.0000000000E+00   0.1345961958E+00   0.8567348953E-03   0.2223890420E-03  -0.3423282570E-02   0.7809419522E-04   0.2041013504E-03
   0.2862815701E+01   0.1998074420E+01   0.7994541647E+00   0.9118881231E-02  -0.1925579816E-02  -0.5458472546E-03   0.0000000000E+00   0.0000000000E+00   0.0000000000E+00   0.1400102952E+00  -0.8817975210E-04  -0.4555656663E-03  -0.9798964299E-03   0.3658748627E-03   0.9830152703E-04
   0.3081622745E+01   0.1774375855E+01   0.7994664729E+00   0.9442475258E-02  -0.1758274991E-02  -0.5335390673E-03   0.0000000000E+00   0.0000000000E+00   0.0000000000E+00   0.1321078081E+00   0.8209747927E-03   0.1269274097E-03  -0.2269455665E-02   0.5041474123E-04   0.1925516836E-03
   0.3078917462E+01   0.1998091604E+01   0.7994594182E+00   0.9418211677E-02  -0.1908395813E-02  -0.5405938331E-03   0.0000000000E+00   0.0000000000E+00   0.0000000000E+00   0.1365686029E+00  -0.2608849906E-04  -0.3480153382E-03  -0.6683010630E-03   0.2415292862E-03   0.8037246635E-04
   0.3296078794E+01   0.1774748972E+01   0.7994686914E+00   0.9722584092E-02  -0.1751368293E-02  -0.5313205849E-03   0.0000000000E+00   0.0000000000E+00   0.0000000000E+00   0.1306340760E+00   0.8356083050E-03   0.1408996807E-03  -0.1200088033E-02   0.3567332633E-05   0.1851597675E-03
   0.3294722088E+01   0.1998101001E+01   0.7994625774E+00   0.9711038226E-02  -0.1898999150E-02  -0.5374345833E-03   0.0000000000E+00   0.0000000000E+00   0.0000000000E+00   0.1344556466E+00  -0.1894581063E-04  -0.3698597039E-03  -0.3924140831E-03   0.8772627583E-04   0.6631535465E-04
   0.3510000000E+01   0.1774899682E+01   0.7994694290E+00   0.1000000000E-01  -0.1749198106E-02  -0.5305829993E-03   0.0000000000E+00   0.0000000000E+00   0.0000000000E+00   0.1301181602E+00   0.8032175072E-03   0.9352962185E-04   0.2030036636E-03   0.6637610328E-04   0.1819513611E-03
   0.3510000000E+01   0.1998103913E+01   0.7994636325E+00   0.1000000000E-01  -0.1896086973E-02  -0.5363795145E-03   0.0000000000E+00   0.0000000000E+00   0.0000000000E+00   0.1337900597E+00   0.4168394506E-05  -0.3097495200E-03   0.2455473887E-03   0.9488779489E-04   0.6458159888E-04
   0.9466494153E+00   0.1547728873E+01   0.7994409023E+00   0.6484968334E-02  -0.2753276798E-02  -0.5591097044E-03   0.0000000000E+00   0.0000000000E+00   0.0000000000E+00   0.1587864701E+00  -0.1056069144E-01   0.2047240546E-03   0.1552975629E-01   0.1516798187E-04  -0.7834707131E-04
   0.1168671460E+01   0.1544148898E+01   0.7994499732E+00   0.6850209962E-02  -0.2449301919E-02  -0.5500388009E-03   0.0000000000E+00   0.0000000000E+00   0.0000000000E+00   0.1536899580E+00  -0.1217561319E-01  -0.7229924835E-03   0.6752558616E-02  -0.3639778084E-04  -0.4232190347E-03
   0.1386074816E+01   0.1543439955E+01   0.7994543772E+00   0.7191935874E-02  -0.2206955329E-02  -0.5456348080E-03   0.0000000000E+00   0.0000000000E+00   0.0000000000E+00   0.1487879471E+00  -0.9665399584E-02  -0.3185965045E-03  -0.8847985761E-03  -0.8633050608E-04  -0.3689002667E-03
   0.1600738134E+01   0.1543870368E+01   0.7994564211E+00   0.7515874216E-02  -0.2020562380E-02  -0.5435908927E-03   0.0000000000E+00   0.0000000000E+00   0.0000000000E+00   0.1439657755E+00  -0.6511509513E-02  -0.6071236146E-03  -0.6309660196E-02  -0.2086150343E-04  -0.2622519634E-03
   0.1813997574E+01   0.1544749776E+01   0.7994582607E+00   0.7823293506E-02  -0.1884304080E-02  -0.5417512510E-03   0.0000000000E+00   0.0000000000E+00   0.0000000000E+00   0.1398727315E+00  -0.3291072797E-02  -0.3395789094E-03  -0.9533584239E-02   0.5850906880E-04  -0.1438114923E-03
   0.2026599590E+01   0.1545821980E+01   0.7994605850E+00   0.8118809667E-02  -0.1786869815E-02  -0.5394270047E-03   0.0000000000E+00   0.0000000000E+00   0.0000000000E+00   0.1361406972E+00  -0.9827737167E-03  -0.3792006775E-03  -0.1077151052E-01   0.8467714600E-04  -0.4955701723E-04
   0.2238905267E+01   0.1546975395E+01   0.7994634720E+00   0.8403856861E-02  -0.1720164705E-02  -0.5365399994E-03   0.0000000000E+00   0.0000000000E+00   0.0000000000E+00   0.1329658434E+00   0.6779997876E-03  -0.1964823540E-03  -0.1065954707E-01   0.8687398014E-04   0.2452932344E-04
   0.2451080108E+01   0.1548151237E+01   0.7994665861E+00   0.8681318222E-02  -0.1675383459E-02  -0.5334258624E-03   0.0000000000E+00   0.0000000000E+00   0.0000000000E+00   0.1301716799E+00   0.1615502819E-02  -0.1842971035E-03  -0.9588527113E-02   0.6505438447E-04   0.7395598445E-04
   0.2663189787E+01   0.1549294569E+01   0.7994696109E+00   0.8952276766E-02  -0.1646661194E-02  -0.5304010545E-03   0.0000000000E+00   0.0000000000E+00   0.0000000000E+00   0.1278942663E+00   0.2169766524E-02  -0.6818638473E-04  -0.8000033208E-02   0.4674843440E-04   0.1047038557E-03
   0.2875238850E+01   0.1550330596E+01   0.7994722291E+00   0.9218650058E-02  -0.1628683950E-02  -0.5277829274E-03   0.0000000000E+00   0.0000000000E+00   0.0000000000E+00   0.1260532862E+00   0.2385689727E-02  -0.6836328522E-04  -0.6113639125E-02   0.2631814995E-04   0.1211504979E-03
   0.3087165712E+01   0.1551173680E+01   0.7994742394E+00   0.9481311866E-02  -0.1618269855E-02  -0.5257725868E-03   0.0000000000E+00   0.0000000000E+00   0.0000000000E+00   0.1247548623E+00   0.2497380045E-02  -0.5021671057E-06  -0.4097464687E-02   0.1847327304E-04   0.1289616911E-03
   0.3298830483E+01   0.1551763121E+01   0.7994754888E+00   0.9741523469E-02  -0.1612839406E-02  -0.5245231863E-03   0.0000000000E+00   0.0000000000E+00   0.0000000000E+00   0.1239438934E+00   0.2496165421E-02  -0.2004256265E-04  -0.2091780691E-02  -0.4517037954E-05   0.1317785453E-03
   0.3510000000E+01   0.1551983335E+01   0.7994759147E+00   0.1000000000E-01  -0.1611255153E-02  -0.5240973243E-03   0.0000000000E+00   0.0000000000E+00   0.0000000000E+00   0.1236942173E+00   0.2519218307E-02   0.1914343232E-04   0.1398008786E-03   0.4031964077E-04   0.1325842653E-03
   0.9894362899E+00   0.1319555376E+01   0.7994573500E+00   0.6809255864E-02  -0.2473734428E-02  -0.5426619721E-03   0.0000000000E+00   0.0000000000E+00   0.0000000000E+00   0.1580987612E+00  -0.2046903685E-01  -0.5910918888E-03   0.4441564004E-02   0.5412273364E-03  -0.3409736987E-03
   0.1213331089E+01   0.1318379195E+01   0.7994765251E+00   0.7173168848E-02  -0.2191754756E-02  -0.5234869147E-03   0.0000000000E+00   0.0000000000E+00   0.0000000000E+00   0.1459635171E+00  -0.1940674933E-01   0.2988277546E-03  -0.2855756117E-02  -0.6853653158E-04  -0.3111570605E-03
   0.1428557974E+01   0.1319324358E+01   0.7994827900E+00   0.7495263746E-02  -0.1978652386E-02  -0.5172220003E-03   0.0000000000E+00   0.0000000000E+00   0.0000000000E+00   0.1370193510E+00  -0.1480115518E-01   0.4944242052E-04  -0.8730912098E-02  -0.1761598126E-03  -0.9781967065E-04
   0.1639501123E+01   0.1320570511E+01   0.7994838888E+00   0.7787853108E-02  -0.1823259087E-02  -0.5161232108E-03   0.0000000000E+00   0.0000000000E+00   0.0000000000E+00   0.1303727500E+00  -0.9133585599E-02   0.1927788134E-03  -0.1238027272E-01  -0.7811913305E-04  -0.3205035088E-04
   0.1848531082E+01   0.1321789846E+01   0.7994830987E+00   0.8060771892E-02  -0.1710073643E-02  -0.5169132947E-03   0.0000000000E+00   0.0000000000E+00   0.0000000000E+00   0.1255816455E+00  -0.4233744653E-02   0.4788647181E-04  -0.1394557494E-01  -0.2613822794E-04   0.2340149270E-04
   0.2056761528E+01   0.1323009259E+01   0.7994821928E+00   0.8319637816E-02  -0.1630781318E-02  -0.5178191572E-03   0.0000000000E+00   0.0000000000E+00   0.0000000000E+00   0.1223381738E+00  -0.5166582972E-03   0.6980224846E-04  -0.1405922249E-01   0.1833921962E-04   0.4199274761E-04
   0.2264668152E+01   0.1324255997E+01   0.7994816557E+00   0.8569641537E-02  -0.1575772673E-02  -0.5183563198E-03   0.0000000000E+00   0.0000000000E+00   0.0000000000E+00   0.1201130607E+00   0.1967775383E-02   0.7717576768E-05  -0.1306217351E-01   0.1977513244E-04   0.6246894935E-04
   0.2472443026E+01   0.1325506796E+01   0.7994816275E+00   0.8813546051E-02  -0.1539244417E-02  -0.5183845119E-03   0.0000000000E+00   0.0000000000E+00   0.0000000000E+00   0.1186483207E+00   0.3491951236E-02   0.3918016835E-04  -0.1141723979E-01   0.2092561249E-04   0.7177475624E-04
   0.2680161519E+01   0.1326711976E+01   0.7994819536E+00   0.9053989153E-02  -0.1515303597E-02  -0.5180584325E-03   0.0000000000E+00   0.0000000000E+00   0.0000000000E+00   0.1176211196E+00   0.4295613526E-02   0.3208654125E-05  -0.9356759467E-02   0.1172675071E-04   0.7986431218E-04
   0.2887838294E+01   0.1327799394E+01   0.7994824609E+00   0.9292054018E-02  -0.1500536163E-02  -0.5175511331E-03   0.0000000000E+00   0.0000000000E+00   0.0000000000E+00   0.1169489756E+00   0.4693180274E-02   0.3567966507E-04  -0.7108845875E-02   0.7780526969E-05   0.8287159356E-04
   0.3095440622E+01   0.1328690597E+01   0.7994829590E+00   0.9528872449E-02  -0.1491713241E-02  -0.5170529626E-03   0.0000000000E+00   0.0000000000E+00   0.0000000000E+00   0.1164834888E+00   0.4819739114E-02   0.6356756858E-05  -0.4745249703E-02   0.4065608558E-05   0.8447754459E-04
   0.3302882745E+01   0.1329325152E+01   0.7994833152E+00   0.9764745113E-02  -0.1487298011E-02  -0.5166967629E-03   0.0000000000E+00   0.0000000000E+00   0.0000000000E+00   0.1162386925E+00   0.4871553971E-02   0.3496351731E-04  -0.2422191836E-02  -0.1782888165E-05   0.8471650017E-04
   0.3510000000E+01   0.1329551425E+01   0.7994834419E+00   0.1000000000E-01  -0.1485855422E-02  -0.5165700772E-03   0.0000000000E+00   0.0000000000E+00   0.0000000000E+00   0.1161421851E+00   0.4858400341E-02   0.7611809390E-05   0.1537376347E-03   0.1284751343E-04   0.8466512536E-04
   0.1052330843E+01   0.1083801646E+01   0.7994981907E+00   0.7247322710E-02  -0.2159453732E-02  -0.5018213269E-03   0.0000000000E+00   0.0000000000E+00   0.0000000000E+00   0.1397659066E+00  -0.2712400356E-01  -0.9676960502E-03  -0.9513598176E-02   0.7578242710E-03  -0.2011806628E-04
   0.1272841581E+01   0.1091933093E+01   0.7995127861E+00   0.7557880949E-02  -0.1924436737E-02  -0.4872259051E-03   0.0000000000E+00   0.0000000000E+00   0.0000000000E+00   0.1270056960E+00  -0.2347359246E-01   0.2512622259E-03  -0.1536093327E-01  -0.4095941917E-03  -0.1105847936E-03
   0.1481496486E+01   0.1096403269E+01   0.7995137576E+00   0.7829106107E-02  -0.1760811063E-02  -0.4862543680E-03   0.0000000000E+00   0.0000000000E+00   0.0000000000E+00   0.1186666622E+00  -0.1613307872E-01   0.7685114302E-04  -0.1745042074E-01  -0.2189933322E-03   0.1095542002E-03
   0.1685988893E+01   0.1098736475E+01   0.7995105723E+00   0.8075703053E-02  -0.1640964910E-02  -0.4894396503E-03   0.0000000000E+00   0.0000000000E+00   0.0000000000E+00   0.1127151957E+00  -0.8951005512E-02   0.3607814367E-04  -0.1807343597E-01  -0.1011172718E-03   0.1614452392E-03
   0.1889109084E+01   0.1100114016E+01   0.7995058984E+00   0.8305494193E-02  -0.1555534029E-02  -0.4941135563E-03   0.0000000000E+00   0.0000000000E+00   0.0000000000E+00   0.1093478878E+00  -0.2941911555E-02   0.8479125154E-05  -0.1744264545E-01  -0.1838014655E-04   0.1668712141E-03
   0.2091832203E+01   0.1101272517E+01   0.7995016364E+00   0.8524933021E-02  -0.1493872594E-02  -0.4983756273E-03   0.0000000000E+00   0.0000000000E+00   0.0000000000E+00   0.1075582006E+00   0.1360339656E-02  -0.3676480263E-04  -0.1593965524E-01   0.2642025933E-04   0.1490057505E-03
   0.2294441542E+01   0.1102438891E+01   0.7994980804E+00   0.8738121737E-02  -0.1451048931E-02  -0.5019316165E-03   0.0000000000E+00   0.0000000000E+00   0.0000000000E+00   0.1069415014E+00   0.4245592070E-02  -0.1034636753E-04  -0.1401048298E-01   0.2799335267E-04   0.1263784267E-03
   0.2497009812E+01   0.1103608067E+01   0.7994954877E+00   0.8948622019E-02  -0.1421163470E-02  -0.5045242729E-03   0.0000000000E+00   0.0000000000E+00   0.0000000000E+00   0.1069055272E+00   0.5933906726E-02  -0.2898932358E-04  -0.1179254067E-01   0.2595921018E-04   0.1066192225E-03
   0.2699566049E+01   0.1104735918E+01   0.7994936702E+00   0.9158058608E-02  -0.1401361532E-02  -0.5063418186E-03   0.0000000000E+00   0.0000000000E+00   0.0000000000E+00   0.1071968294E+00   0.6868133343E-02   0.3751776765E-05  -0.9475286023E-02   0.1692250398E-04   0.9292053295E-04
   0.2902121106E+01   0.1105769163E+01   0.7994925117E+00   0.9367745794E-02  -0.1388306962E-02  -0.5075003209E-03   0.0000000000E+00   0.0000000000E+00   0.0000000000E+00   0.1075415921E+00   0.7270835941E-02  -0.1519046572E-04  -0.7101246981E-02   0.1140521216E-04   0.8210220434E-04
   0.3104678537E+01   0.1106639544E+01   0.7994918121E+00   0.9577896825E-02  -0.1380526458E-02  -0.5081998618E-03   0.0000000000E+00   0.0000000000E+00   0.0000000000E+00   0.1078719768E+00   0.7436114512E-02   0.1175164818E-04  -0.4719301242E-02   0.5705235663E-05   0.7599337695E-04
   0.3307260220E+01   0.1107277996E+01   0.7994914540E+00   0.9788700154E-02  -0.1376263801E-02  -0.5085580356E-03   0.0000000000E+00   0.0000000000E+00   0.0000000000E+00   0.1080759316E+00   0.7452703960E-02  -0.8847069770E-05  -0.2386852606E-02   0.5620881205E-05   0.7130371973E-04
   0.3510000000E+01   0.1107628207E+01   0.7994913368E+00   0.1000000000E-01  -0.1375102769E-02  -0.5086751752E-03   0.0000000000E+00   0.0000000000E+00   0.0000000000E+00   0.1081602735E+00   0.7467250484E-02   0.1228810802E-04   0.1049417770E-03  -0.9902845574E-05   0.7072179204E-04
   0.3314058322E+01   0.8860151757E+00   0.7994993978E+00   0.9813322310E-02  -0.1280249296E-02  -0.5006142323E-03   0.0000000000E+00   0.0000000000E+00   0.0000000000E+00   0.1002753581E+00   0.9906166465E-02   0.2683884534E-05  -0.2051229938E-02   0.1223006460E-04   0.5895825494E-04
   0.3510000000E+01   0.8862076864E+00   0.7994991115E+00   0.1000000000E-01  -0.1278771629E-02  -0.5009004925E-03   0.0000000000E+00   0.0000000000E+00   0.0000000000E+00   0.1004706146E+00   0.9891160699E-02  -0.6751946810E-05   0.1695952309E-03  -0.2685795151E-04   0.5656156287E-04
   0.3321183462E+01   0.6647950225E+00   0.7995066367E+00   0.9834781574E-02  -0.1197118532E-02  -0.4933752820E-03   0.0000000000E+00   0.0000000000E+00   0.0000000000E+00   0.9342613570E-01   0.1188305930E-01  -0.4771834403E-05  -0.1427637763E-02   0.1791812394E-04   0.5072613035E-04
   0.3510000000E+01   0.6648463319E+00   0.7995062409E+00   0.1000000000E-01  -0.1195579073E-02  -0.4937711329E-03   0.0000000000E+00   0.0000000000E+00   0.0000000000E+00   0.9371408931E-01   0.1186373039E-01  -0.5537887154E-07   0.1383383628E-03  -0.3989762214E-04   0.5118659352E-04
   0.3327383770E+01   0.4432451386E+00   0.7995128223E+00   0.9850989557E-02  -0.1124416359E-02  -0.4871896518E-03   0.0000000000E+00   0.0000000000E+00   0.0000000000E+00   0.8806578396E-01   0.1309502036E-01  -0.4572956956E-05  -0.6688919262E-03   0.2157325774E-04   0.4203710339E-04
   0.3510000000E+01   0.4431935799E+00   0.7995123702E+00   0.1000000000E-01  -0.1122360056E-02  -0.4876418432E-03   0.0000000000E+00   0.0000000000E+00   0.0000000000E+00   0.8840866086E-01   0.1305740567E-01  -0.4089055291E-05   0.2343688837E-03  -0.4719122719E-04   0.3987508884E-04
   0.3331677715E+01   0.2215603632E+00   0.7995176734E+00   0.9860795067E-02  -0.1058007848E-02  -0.4823386054E-03   0.0000000000E+00   0.0000000000E+00   0.0000000000E+00   0.8461160722E-01   0.1331234602E-01  -0.1445774967E-05   0.2096839478E-03   0.2295621982E-04   0.3003650008E-04
   0.3510000000E+01   0.2213333250E+00   0.7995172026E+00   0.1000000000E-01  -0.1055701969E-02  -0.4828094005E-03   0.0000000000E+00   0.0000000000E+00   0.0000000000E+00   0.8496944514E-01   0.1326771171E-01  -0.4644221873E-05   0.2218485697E-03  -0.5090295141E-04   0.3164379453E-04
   0.3334494372E+01   0.6388904836E-05   0.7995210571E+00   0.9864591790E-02  -0.9937658552E-03  -0.4789548984E-03   0.0000000000E+00   0.0000000000E+00   0.0000000000E+00   0.8325739175E-01   0.1241424393E-01  -0.5495263474E-05   0.1061661686E-02   0.2200694378E-04   0.2063650736E-04
   0.3510000000E+01  -0.3044206178E-03   0.7995206027E+00   0.1000000000E-01  -0.9908575098E-03  -0.4794093332E-03   0.0000000000E+00   0.0000000000E+00   0.0000000000E+00   0.8360188762E-01   0.1237822379E-01  -0.7132847161E-06   0.3277482825E-03  -0.4982911897E-04   0.1949790904E-04
   0.3118222700E+01   0.8856506870E+00   0.7995002799E+00   0.9627569893E-02  -0.1284546959E-02  -0.4997320858E-03   0.0000000000E+00   0.0000000000E+00   0.0000000000E+00   0.9968260528E-01   0.9896752647E-02  -0.9833957388E-05  -0.4021775567E-02   0.8535852974E-05   0.6051465680E-04
   0.3132217942E+01   0.6646748964E+00   0.7995078495E+00   0.9670551880E-02  -0.1202207579E-02  -0.4921624895E-03   0.0000000000E+00   0.0000000000E+00   0.0000000000E+00   0.9256654053E-01   0.1193573518E-01  -0.3158945981E-06  -0.2805627784E-02   0.1284853826E-04   0.5564591397E-04
   0.3144365357E+01   0.4432853102E+00   0.7995142167E+00   0.9702967354E-02  -0.1130229800E-02  -0.4857953354E-03   0.0000000000E+00   0.0000000000E+00   0.0000000000E+00   0.8703478091E-01   0.1319257438E-01  -0.4552737836E-05  -0.1222074782E-02   0.1555154682E-04   0.4201800981E-04
   0.3152843092E+01   0.2217754164E+00   0.7995191258E+00   0.9722562109E-02  -0.1065190619E-02  -0.4808861809E-03   0.0000000000E+00   0.0000000000E+00   0.0000000000E+00   0.8351366794E-01   0.1343317786E-01  -0.3365023723E-05   0.5480619911E-03   0.1612610865E-04   0.3142870679E-04
   0.3158620195E+01   0.4239958851E-03   0.7995224579E+00   0.9730175181E-02  -0.1002022885E-02  -0.4775540612E-03   0.0000000000E+00   0.0000000000E+00   0.0000000000E+00   0.8220715501E-01   0.1252299784E-01  -0.4003666385E-05   0.2344199478E-02   0.1399955596E-04   0.1785949361E-04
   0.2922406009E+01   0.8851427484E+00   0.7995018422E+00   0.9443328841E-02  -0.1292521614E-02  -0.4981698359E-03   0.0000000000E+00   0.0000000000E+00   0.0000000000E+00   0.9873678494E-01   0.9810202423E-02  -0.1478366151E-05  -0.6119569929E-02   0.1891106201E-04   0.6851569824E-04
   0.2943146794E+01   0.6644858092E+00   0.7995099724E+00   0.9508463883E-02  -0.1210692824E-02  -0.4900395748E-03   0.0000000000E+00   0.0000000000E+00   0.0000000000E+00   0.9113491676E-01   0.1194008856E-01  -0.5216273957E-05  -0.4312201876E-02   0.2729966708E-04   0.5973272382E-04
   0.2961118367E+01   0.4433021322E+00   0.7995166439E+00   0.9557397094E-02  -0.1140288836E-02  -0.4833681126E-03   0.0000000000E+00   0.0000000000E+00   0.0000000000E+00   0.8528643165E-01   0.1330307576E-01  -0.9634807411E-05  -0.1932251862E-02   0.3281651698E-04   0.4700993588E-04
   0.2973769299E+01   0.2220097309E+00   0.7995216533E+00   0.9586919071E-02  -0.1076939122E-02  -0.4783587123E-03   0.0000000000E+00   0.0000000000E+00   0.0000000000E+00   0.8165597484E-01   0.1360225804E-01   0.2803620444E-05   0.7726469725E-03   0.3443953476E-04   0.2946945728E-04
   0.2982674183E+01   0.9518324919E-03   0.7995248854E+00   0.9598312551E-02  -0.1015999958E-02  -0.4751266019E-03   0.0000000000E+00   0.0000000000E+00   0.0000000000E+00   0.8043269967E-01   0.1267454230E-01  -0.1200562284E-04   0.3518724942E-02   0.3254510557E-04   0.1735097233E-04
   0.2726586872E+01   0.8845294448E+00   0.7995042277E+00   0.9261181574E-02  -0.1304534241E-02  -0.4957843051E-03   0.0000000000E+00   0.0000000000E+00   0.0000000000E+00   0.9746914952E-01   0.9474856730E-02  -0.1201717023E-04  -0.8277450071E-02   0.2675743272E-04   0.7576332253E-04
   0.2754010356E+01   0.6642385165E+00   0.7995131480E+00   0.9349506047E-02  -0.1223381524E-02  -0.4868640493E-03   0.0000000000E+00   0.0000000000E+00   0.0000000000E+00   0.8914325602E-01   0.1180625859E-01  -0.3614583131E-05  -0.5925709400E-02   0.4023532929E-04   0.7167650680E-04
   0.2777746032E+01   0.4432944829E+00   0.7995202613E+00   0.9415692307E-02  -0.1154346149E-02  -0.4797506952E-03   0.0000000000E+00   0.0000000000E+00   0.0000000000E+00   0.8280822455E-01   0.1335232132E-01  -0.5862032031E-05  -0.2715713120E-02   0.4881441912E-04   0.4972912561E-04
   0.2795681563E+01   0.2220029629E+00   0.7995253868E+00   0.9456242943E-02  -0.1093497087E-02  -0.4746252179E-03   0.0000000000E+00   0.0000000000E+00   0.0000000000E+00   0.7896730507E-01   0.1376204229E-01  -0.4760443587E-05   0.9960632222E-03   0.4934894504E-04   0.3008563645E-04
   0.2808954339E+01   0.1017277858E-02   0.7995284318E+00   0.9471989387E-02  -0.1034902612E-02  -0.4715802362E-03   0.0000000000E+00   0.0000000000E+00   0.0000000000E+00   0.7785039744E-01   0.1283767270E-01  -0.1443362076E-04   0.4776583427E-02   0.4145973328E-04   0.1231334370E-04
   0.2530763248E+01   0.8838486104E+00   0.7995076193E+00   0.9081227894E-02  -0.1322206562E-02  -0.4923926570E-03   0.0000000000E+00   0.0000000000E+00   0.0000000000E+00   0.9598809417E-01   0.8701118100E-02  -0.1440869694E-04  -0.1055976958E-01   0.4095229262E-04   0.9367275945E-04
   0.2564838646E+01   0.6639500649E+00   0.7995176030E+00   0.9194605643E-02  -0.1240334092E-02  -0.4824089748E-03   0.0000000000E+00   0.0000000000E+00   0.0000000000E+00   0.8661866694E-01   0.1134102571E-01  -0.1061688959E-05  -0.7732361700E-02   0.5819582267E-04   0.8361110385E-04
   0.2594846839E+01   0.4431429432E+00   0.7995252902E+00   0.9279599107E-02  -0.1172907832E-02  -0.4747217672E-03   0.0000000000E+00   0.0000000000E+00   0.0000000000E+00   0.7953790063E-01   0.1321662521E-01  -0.2061499366E-04  -0.3666304003E-02   0.7114100334E-04   0.6091185436E-04
   0.2616580231E+01   0.2222139086E+00   0.7995305965E+00   0.9330490758E-02  -0.1114786427E-02  -0.4694155428E-03   0.0000000000E+00   0.0000000000E+00   0.0000000000E+00   0.7541407445E-01   0.1384128056E-01   0.1330650888E-04   0.1124938625E-02   0.7596779875E-04   0.2646978016E-04
   0.2632982855E+01   0.1609867718E-02   0.7995334076E+00   0.9349475166E-02  -0.1059783342E-02  -0.4666043687E-03   0.0000000000E+00   0.0000000000E+00   0.0000000000E+00   0.7442666760E-01   0.1294750025E-01  -0.2255180974E-04   0.6078206486E-02   0.6833550952E-04   0.7168955484E-05
   0.2334932360E+01   0.8831328238E+00   0.7995122298E+00   0.8903299747E-02  -0.1346520199E-02  -0.4877822484E-03   0.0000000000E+00   0.0000000000E+00   0.0000000000E+00   0.9445544411E-01   0.7199277447E-02   0.2796634866E-05  -0.1298118662E-01   0.5035389550E-04   0.1094352973E-03
   0.2375648093E+01   0.6636363178E+00   0.7995236067E+00   0.9044242947E-02  -0.1262733153E-02  -0.4764053419E-03   0.0000000000E+00   0.0000000000E+00   0.0000000000E+00   0.8361220115E-01   0.1032269084E-01  -0.1452613851E-04  -0.9825960617E-02   0.7681227992E-04   0.1062211437E-03
   0.2411242858E+01   0.4431293248E+00   0.7995321031E+00   0.9149448487E-02  -0.1195884190E-02  -0.4679089089E-03   0.0000000000E+00   0.0000000000E+00   0.0000000000E+00   0.7545195494E-01   0.1273047570E-01  -0.1033966228E-05  -0.4887202909E-02   0.9356835539E-04   0.7035439653E-04
   0.2440031169E+01   0.2219679982E+00   0.7995375248E+00   0.9213799280E-02  -0.1140516841E-02  -0.4624872298E-03   0.0000000000E+00   0.0000000000E+00   0.0000000000E+00   0.7086542297E-01   0.1371875137E-01   0.1251515237E-04   0.1153465233E-02   0.9790331951E-04   0.2815938516E-04
   0.2465618551E+01   0.7728627326E-03   0.7995397315E+00   0.9239370668E-02  -0.1087968197E-02  -0.4602804856E-03   0.0000000000E+00   0.0000000000E+00   0.0000000000E+00   0.7016293267E-01   0.1291260188E-01  -0.4360634919E-04   0.7389483225E-02   0.8864087656E-04   0.8962983689E-06
   0.2139090935E+01   0.8824040219E+00   0.7995182795E+00   0.8726275117E-02  -0.1380213090E-02  -0.4817324946E-03   0.0000000000E+00   0.0000000000E+00   0.0000000000E+00   0.9311163209E-01   0.4576162871E-02  -0.2041387156E-04  -0.1557698514E-01   0.5380184642E-04   0.1434602645E-03
   0.2186459240E+01   0.6632974233E+00   0.7995315573E+00   0.8898670356E-02  -0.1290908666E-02  -0.4684547457E-03   0.0000000000E+00   0.0000000000E+00   0.0000000000E+00   0.8026573877E-01   0.8457484086E-02   0.4354060077E-04  -0.1231383039E-01   0.8670348198E-04   0.1259783539E-03
   0.2228304863E+01   0.4429360973E+00   0.7995411749E+00   0.9027483493E-02  -0.1223678715E-02  -0.4588370583E-03   0.0000000000E+00   0.0000000000E+00   0.0000000000E+00   0.7044965341E-01   0.1162402058E-01  -0.4406738226E-04  -0.6486480133E-02   0.1086358266E-03   0.8758629678E-04
   0.2264705744E+01   0.2213505282E+00   0.7995467254E+00   0.9106724181E-02  -0.1170225793E-02  -0.4532865743E-03   0.0000000000E+00   0.0000000000E+00   0.0000000000E+00   0.6521440368E-01   0.1324687174E-01   0.7464505544E-04   0.9931405512E-03   0.1114548916E-03   0.2212739549E-04
   0.2301124918E+01  -0.1120006475E-02   0.7995478883E+00   0.9138687893E-02  -0.1120006475E-02  -0.4521237324E-03   0.0000000000E+00   0.0000000000E+00   0.0000000000E+00   0.6492192935E-01   0.1264511106E-01  -0.5312125925E-04   0.8821829738E-02   0.1006176442E-03  -0.6520989404E-05
   0.1943246126E+01   0.8815779513E+00   0.7995259026E+00   0.8548256235E-02  -0.1425283702E-02  -0.4741094430E-03   0.0000000000E+00   0.0000000000E+00   0.0000000000E+00   0.9241191177E-01   0.5512288153E-03   0.1061511602E-03  -0.1831466454E-01   0.1122762046E-04   0.1513528616E-03
   0.1997341411E+01   0.6627716131E+00   0.7995419116E+00   0.8757611081E-02  -0.1326708933E-02  -0.4581004381E-03   0.0000000000E+00   0.0000000000E+00   0.0000000000E+00   0.7668000878E-01   0.5311710188E-02   0.2322622288E-04  -0.1531995232E-01   0.4374818301E-04   0.1482536063E-03
   0.2045312059E+01   0.4425607102E+00   0.7995532593E+00   0.8914128732E-02  -0.1256159792E-02  -0.4467527329E-03   0.0000000000E+00   0.0000000000E+00   0.0000000000E+00   0.6459808031E-01   0.9720933690E-02   0.1057676650E-03  -0.8634262108E-02   0.6781221263E-04   0.8807512998E-04
   0.2087590706E+01   0.2209808092E+00   0.7995591487E+00   0.9009136481E-02  -0.1204742788E-02  -0.4408632782E-03   0.0000000000E+00   0.0000000000E+00   0.0000000000E+00   0.5818221714E-01   0.1218051124E-01   0.8164149727E-04   0.5011952852E-03   0.7097706915E-04   0.9903580627E-05
   0.2128411983E+01  -0.1158503827E-02   0.7995592036E+00   0.9042952799E-02  -0.1158503827E-02  -0.4408083975E-03   0.0000000000E+00   0.0000000000E+00   0.0000000000E+00   0.5820221837E-01   0.1199607320E-01   0.2728072512E-04   0.1020251369E-01   0.6687065945E-04  -0.1157938497E-04
   0.1747368335E+01   0.8801250143E+00   0.7995350857E+00   0.8366584818E-02  -0.1486690672E-02  -0.4649262998E-03   0.0000000000E+00   0.0000000000E+00   0.0000000000E+00   0.9274857447E-01  -0.5470410321E-02   0.4224943050E-04  -0.2106491923E-01  -0.8732342004E-04   0.1582662247E-03
   0.1808467137E+01   0.6613926798E+00   0.7995553691E+00   0.8620486895E-02  -0.1371154171E-02  -0.4446429033E-03   0.0000000000E+00   0.0000000000E+00   0.0000000000E+00   0.7321891517E-01   0.5928280632E-03   0.2867275106E-03  -0.1891528575E-01  -0.9613353952E-04   0.1094802344E-03
   0.1862559507E+01   0.4414104188E+00   0.7995695632E+00   0.8810947269E-02  -0.1294259173E-02  -0.4304487736E-03   0.0000000000E+00   0.0000000000E+00   0.0000000000E+00   0.5764033988E-01   0.6344150890E-02   0.9062500827E-04  -0.1143275257E-01  -0.1054653952E-03   0.6895687511E-04
   0.1908671878E+01   0.2205438703E+00   0.7995763017E+00   0.8923078338E-02  -0.1243448692E-02  -0.4237103273E-03   0.0000000000E+00   0.0000000000E+00   0.0000000000E+00   0.4969952717E-01   0.1013114534E-01   0.3773925436E-03  -0.4140636358E-03  -0.9256328699E-04  -0.1741863191E-04
   0.1950288715E+01  -0.1931468152E-03   0.7995751202E+00   0.8956974887E-02  -0.1201864395E-02  -0.4248917914E-03   0.0000000000E+00   0.0000000000E+00   0.0000000000E+00   0.4974434665E-01   0.1037258627E-01   0.6745577242E-07   0.1158133892E-01  -0.3857267315E-04  -0.4177329258E-05
   0.1551269727E+01   0.8767382664E+00   0.7995451654E+00   0.8177957273E-02  -0.1568718565E-02  -0.4548465929E-03   0.0000000000E+00   0.0000000000E+00   0.0000000000E+00   0.9486243873E-01  -0.1286316431E-01   0.5216067002E-03  -0.2353352533E-01  -0.2951700492E-03   0.2012538524E-04
   0.1620335058E+01   0.6577801024E+00   0.7995724326E+00   0.8487657579E-02  -0.1428254649E-02  -0.4275794288E-03   0.0000000000E+00   0.0000000000E+00   0.0000000000E+00   0.6980905848E-01  -0.6337078060E-02   0.2129151026E-03  -0.2282135235E-01  -0.4214337068E-03  -0.5035275472E-04
   0.1680725675E+01   0.4384825229E+00   0.7995916577E+00   0.8719065243E-02  -0.1338482054E-02  -0.4083542780E-03   0.0000000000E+00   0.0000000000E+00   0.0000000000E+00   0.4979753711E-01   0.1206749696E-02   0.5269199736E-03  -0.1487604781E-01  -0.5721277284E-03  -0.9587289270E-04
   0.1732206955E+01   0.2188925751E+00   0.7995998383E+00   0.8853215476E-02  -0.1285417905E-02  -0.4001737330E-03   0.0000000000E+00   0.0000000000E+00   0.0000000000E+00   0.3932248951E-01   0.6414572165E-02   0.5584300399E-03  -0.1689807871E-02  -0.6011066335E-03  -0.8200189383E-04
   0.1779140858E+01  -0.3279965172E-03   0.7995961752E+00   0.8888037840E-02  -0.1246087966E-02  -0.4038367679E-03   0.0000000000E+00   0.0000000000E+00   0.0000000000E+00   0.3969558622E-01   0.7640433888E-02   0.2757102730E-03   0.1278857229E-01  -0.4612544544E-03   0.2773330096E-04
   0.1354755439E+01   0.8693274901E+00   0.7995544529E+00   0.7982289057E-02  -0.1681442897E-02  -0.4455591213E-03   0.0000000000E+00   0.0000000000E+00   0.0000000000E+00   0.9839685970E-01  -0.2215901156E-01   0.1050323016E-03  -0.2529617448E-01  -0.4749087991E-03  -0.1903980939E-03
   0.1434525551E+01   0.6500309607E+00   0.7995934446E+00   0.8360920660E-02  -0.1502464276E-02  -0.4065673558E-03   0.0000000000E+00   0.0000000000E+00   0.0000000000E+00   0.6679148731E-01  -0.1465356723E-01   0.1071996135E-02  -0.2670738887E-01  -0.8925802429E-03  -0.5618698450E-03
   0.1502581609E+01   0.4324204867E+00   0.7996213025E+00   0.8642208955E-02  -0.1392340308E-02  -0.3787095247E-03   0.0000000000E+00   0.0000000000E+00   0.0000000000E+00   0.4048508034E-01  -0.6955204156E-02   0.4743401069E-03  -0.1803896316E-01  -0.1366155895E-02  -0.4825184140E-03
   0.1557271299E+01   0.2159089904E+00   0.7996325758E+00   0.8799369318E-02  -0.1331059585E-02  -0.3674362110E-03   0.0000000000E+00   0.0000000000E+00   0.0000000000E+00   0.2734179665E-01  -0.4523283814E-03   0.9345208842E-03  -0.3185041631E-02  -0.1451661445E-02  -0.2101675910E-03
   0.1602048180E+01   0.4319142327E-03   0.7996267947E+00   0.8833429507E-02  -0.1291837657E-02  -0.3732172506E-03   0.0000000000E+00   0.0000000000E+00   0.0000000000E+00   0.2744964974E-01   0.1982904686E-02   0.5697350691E-03   0.1355999905E-01  -0.1238570822E-02   0.9479882332E-04
   0.1158816315E+01   0.8548247902E+00   0.7995578034E+00   0.7783505249E-02  -0.1833370771E-02  -0.4422085871E-03   0.0000000000E+00   0.0000000000E+00   0.0000000000E+00   0.1040631879E+00  -0.2753689589E-01   0.1245628395E-02  -0.2592664057E-01   0.2846587803E-04  -0.9002913841E-03
   0.1255245849E+01   0.6359896917E+00   0.7996171808E+00   0.8251239434E-02  -0.1604173301E-02  -0.3828311721E-03   0.0000000000E+00   0.0000000000E+00   0.0000000000E+00   0.6042820396E-01  -0.2392310928E-01  -0.1124684515E-03  -0.2790491135E-01  -0.1441641377E-02  -0.1726567979E-02
   0.1332610093E+01   0.4222317204E+00   0.7996583107E+00   0.8581362607E-02  -0.1462353561E-02  -0.3417012909E-03   0.0000000000E+00   0.0000000000E+00   0.0000000000E+00   0.3055969681E-01  -0.1870824535E-01   0.5940211717E-03  -0.1892557131E-01  -0.2354721356E-02  -0.1203261450E-02
   0.1387760708E+01   0.2110449338E+00   0.7996753815E+00   0.8761358113E-02  -0.1382056224E-02  -0.3246304917E-03   0.0000000000E+00   0.0000000000E+00   0.0000000000E+00   0.1472812346E-01  -0.1296892957E-01   0.7116008227E-03  -0.3806492434E-02  -0.2662470946E-02  -0.4481753044E-03
   0.1422678624E+01   0.1825574170E-02   0.7996697201E+00   0.8793983517E-02  -0.1335163280E-02  -0.3302918952E-03   0.0000000000E+00   0.0000000000E+00   0.0000000000E+00   0.1415742869E-01  -0.9514445811E-02   0.6435487194E-03   0.1345191567E-01  -0.2486501108E-02   0.2680087269E-03
   0.9709581302E+00   0.8278316178E+00   0.7995512685E+00   0.7624166239E-02  -0.2035328219E-02  -0.4487434640E-03   0.0000000000E+00   0.0000000000E+00   0.0000000000E+00   0.1032413583E+00  -0.2616531785E-01   0.1829710398E-02  -0.3000394349E-01   0.1452102428E-03  -0.3245386738E-02
   0.1092775279E+01   0.6147287541E+00   0.7996404129E+00   0.8173759264E-02  -0.1743787923E-02  -0.3595991219E-03   0.0000000000E+00   0.0000000000E+00   0.0000000000E+00   0.5108288723E-01  -0.3111870486E-01  -0.2118387142E-03  -0.2495541445E-01  -0.8599913182E-03  -0.3351070757E-02
   0.1180342753E+01   0.4085685371E+00   0.7996989039E+00   0.8540943108E-02  -0.1555376931E-02  -0.3011081161E-03   0.0000000000E+00   0.0000000000E+00   0.0000000000E+00   0.1889590234E-01  -0.3401427689E-01   0.1018046462E-02  -0.1512115699E-01  -0.2441869271E-02  -0.2205321473E-02
   0.1238346604E+01   0.2041743763E+00   0.7997234578E+00   0.8734853864E-02  -0.1438744717E-02  -0.2765542339E-03   0.0000000000E+00   0.0000000000E+00   0.0000000000E+00   0.3054579913E-02  -0.3312611150E-01   0.8549075386E-03  -0.2278311542E-02  -0.3103788182E-02  -0.7293443986E-03
   0.1266644839E+01   0.1067310546E-02   0.7997188391E+00   0.8768209240E-02  -0.1363199234E-02  -0.2811728732E-03   0.0000000000E+00   0.0000000000E+00   0.0000000000E+00   0.2017686608E-02  -0.2845286393E-01   0.1428750882E-02   0.1194845516E-01  -0.3174858701E-02   0.5951023921E-03
   0.1109258128E+01   0.1926040378E+00   0.7997685107E+00   0.8709388464E-02  -0.1502675224E-02  -0.2315013276E-03   0.0000000000E+00   0.0000000000E+00   0.0000000000E+00  -0.5590475250E-02  -0.7151168979E-01  -0.7123098230E-02   0.6623798905E-02  -0.1516325779E-02  -0.8713376537E-03
   0.1132720314E+01  -0.1434910194E-02   0.7997646911E+00   0.8739434414E-02  -0.1373182832E-02  -0.2353208999E-03   0.0000000000E+00   0.0000000000E+00   0.0000000000E+00  -0.5342597684E-02  -0.6842462077E-01  -0.6977768620E-02   0.7515285312E-02  -0.1665371440E-02   0.1311781007E-02
   0.9925820297E+00   0.1770035134E+00   0.7998098394E+00   0.8658355696E-02  -0.1586113602E-02  -0.1901726256E-03   0.0000000000E+00   0.0000000000E+00   0.0000000000E+00  -0.2534958030E-02  -0.1169562599E+00  -0.8071734326E-02   0.1990070522E-01   0.8186956562E-03  -0.1258759088E-02
   0.1008677291E+01  -0.1361997989E-02   0.7998075060E+00   0.8677290786E-02  -0.1361997989E-02  -0.1925060409E-03   0.0000000000E+00   0.0000000000E+00   0.0000000000E+00   0.7111658318E-03  -0.1172111106E+00  -0.7287527382E-02   0.1992435791E-02   0.6255003355E-03   0.2657195069E-02
   0.1053293109E+01   0.3881431244E+00   0.7997348016E+00   0.8522628562E-02  -0.1677600593E-02  -0.2652103701E-03   0.0000000000E+00   0.0000000000E+00   0.0000000000E+00   0.1862445660E-02  -0.5810282798E-01  -0.7393874926E-02   0.2832497305E-02  -0.3512776194E-03  -0.3217570588E-02
   0.9431037332E+00   0.3539055386E+00   0.7997696289E+00   0.8519056167E-02  -0.1835157368E-02  -0.2303830864E-03   0.0000000000E+00   0.0000000000E+00   0.0000000000E+00  -0.7246528673E-02  -0.8500412940E-01  -0.7996333429E-02   0.2697215891E-01   0.2609311484E-02  -0.5315637636E-02
   0.9629449063E+00   0.5825323724E+00   0.7996588840E+00   0.8163493251E-02  -0.1908514649E-02  -0.3411280058E-03   0.0000000000E+00   0.0000000000E+00   0.0000000000E+00   0.2537549955E-01  -0.3052438278E-01  -0.5636903292E-02  -0.1146006406E-01   0.1206664312E-02  -0.5162331063E-02
   0.8587667702E+00   0.5238365316E+00   0.7996860194E+00   0.8249139241E-02  -0.2110026398E-02  -0.3139926094E-03   0.0000000000E+00   0.0000000000E+00   0.0000000000E+00  -0.2858985369E-03  -0.3167000346E-01  -0.7159103358E-02   0.1226970448E-01   0.5605315042E-02  -0.8396707763E-02
   0.8396820154E+00   0.7713448770E+00   0.7995500643E+00   0.7626267434E-02  -0.2208316023E-02  -0.4499477042E-03   0.0000000000E+00   0.0000000000E+00   0.0000000000E+00   0.7778250097E-01  -0.6668812595E-02  -0.3194424048E-02  -0.2862349245E-01   0.3152243219E-02  -0.4767138203E-02
   0.7409532694E+00   0.6777099465E+00   0.7995653570E+00   0.7840517354E-02  -0.2397229549E-02  -0.4346550277E-03   0.0000000000E+00   0.0000000000E+00   0.0000000000E+00   0.4122526667E-01   0.1636923131E-01  -0.3526028703E-02  -0.2635128235E-01   0.9862331947E-02  -0.9728343387E-02
  -0.6284904819E+00   0.1808551690E+01   0.7994564883E+00   0.4222180141E-02  -0.3403880134E-02  -0.5435237275E-03   0.0000000000E+00   0.0000000000E+00   0.0000000000E+00   0.1374872967E+00  -0.8793133159E-03  -0.7494900871E-03  -0.1431808959E-01   0.1365218578E-02  -0.8928008829E-04
  -0.6369510869E+00   0.1996484993E+01   0.7994777421E+00   0.4411699079E-02  -0.3515006508E-02  -0.5222698590E-03   0.0000000000E+00   0.0000000000E+00   0.0000000000E+00   0.1247062658E+00   0.4317095351E-03   0.4617983812E-03  -0.4554818735E-02   0.4277177381E-02  -0.1606372844E-03
  -0.6230727535E+00   0.1620738043E+01   0.7994326174E+00   0.4079451512E-02  -0.3272046544E-02  -0.5673946428E-03   0.0000000000E+00   0.0000000000E+00   0.0000000000E+00   0.1543563346E+00  -0.1949115001E-02  -0.6156528915E-03  -0.2221320707E-01   0.3885685029E-03   0.5387692681E-03
  -0.6190813363E+00   0.1430848340E+01   0.7994074336E+00   0.3931802678E-02  -0.3119730236E-02  -0.5925784409E-03   0.0000000000E+00   0.0000000000E+00   0.0000000000E+00   0.1705754674E+00  -0.3070566202E-02   0.3538902071E-04  -0.1962421200E-01  -0.4699594065E-03   0.1118083349E-02
  -0.6247105636E+00   0.1232928374E+01   0.7993895725E+00   0.3706868406E-02  -0.2925535656E-02  -0.6104395397E-03   0.0000000000E+00   0.0000000000E+00   0.0000000000E+00   0.1840315723E+00  -0.8130312965E-02  -0.2197977345E-02  -0.6642511103E-02  -0.1847950582E-02   0.4218693423E-03
  -0.6495929814E+00   0.1008206113E+01   0.7994064410E+00   0.3250374614E-02  -0.2676267143E-02  -0.5935710497E-03   0.0000000000E+00   0.0000000000E+00   0.0000000000E+00   0.1674304569E+00   0.3208422428E-02   0.1961007866E-02   0.2760659560E-01  -0.3938983108E-02  -0.1348452330E-02
  -0.5244358053E+00   0.8468628305E+00   0.7993730532E+00   0.2929640682E-02  -0.2775750460E-02  -0.6269588147E-03   0.0000000000E+00   0.0000000000E+00   0.0000000000E+00   0.1642824756E+00   0.3956153392E-01  -0.2014773414E-02   0.7838296994E-01  -0.1321864526E-01  -0.9250535331E-02
  -0.8160499107E+00   0.7978161346E+00   0.7995306298E+00   0.2459191302E-02  -0.2243660431E-02  -0.4693821973E-03   0.0000000000E+00   0.0000000000E+00   0.0000000000E+00   0.8538326832E-01  -0.1792900880E-02   0.1022602884E-02   0.3453874891E-01  -0.2613454535E-02  -0.5425464473E-02
  -0.6983457508E+00   0.7110639706E+00   0.7995327711E+00   0.2272278202E-02  -0.2472590360E-02  -0.4672409305E-03   0.0000000000E+00   0.0000000000E+00   0.0000000000E+00   0.5857002775E-01   0.2399324539E-01  -0.6081362528E-02   0.3408198681E-01  -0.9770851129E-02  -0.9460695784E-02
  -0.9455260544E+00   0.6001480724E+00   0.7996492001E+00   0.1875707646E-02  -0.1929828580E-02  -0.3508119005E-03   0.0000000000E+00   0.0000000000E+00   0.0000000000E+00   0.2763709020E-01  -0.2841465417E-01  -0.7053568812E-02   0.1233959708E-01  -0.1562576030E-02  -0.5497522263E-02
  -0.8331804882E+00   0.5481227833E+00   0.7996690478E+00   0.1800714763E-02  -0.2155701655E-02  -0.3309642066E-03   0.0000000000E+00   0.0000000000E+00   0.0000000000E+00   0.1640255878E-02  -0.2576968381E-01  -0.7932895653E-02  -0.8445452787E-02  -0.6084875326E-02  -0.9233237667E-02
  -0.1042016292E+01   0.4004316810E+00   0.7997303754E+00   0.1492598464E-02  -0.1685749961E-02  -0.2696365588E-03   0.0000000000E+00   0.0000000000E+00   0.0000000000E+00   0.2611261116E-02  -0.5581647582E-01  -0.6654779868E-02  -0.1765872999E-02   0.5005403137E-03  -0.3359890189E-02
  -0.9270543905E+00   0.3693415097E+00   0.7997641229E+00   0.1497581530E-02  -0.1860959263E-02  -0.2358890796E-03   0.0000000000E+00   0.0000000000E+00   0.0000000000E+00  -0.6933984147E-02  -0.8164037483E-01  -0.8170441715E-02  -0.2710523217E-01  -0.2771258227E-02  -0.5601162202E-02
  -0.1103747487E+01   0.1998231847E+00   0.7997658163E+00   0.1291873256E-02  -0.1505480295E-02  -0.2341957466E-03   0.0000000000E+00   0.0000000000E+00   0.0000000000E+00  -0.5635272368E-02  -0.6927907905E-01  -0.7387084742E-02  -0.6685115388E-02   0.1548228632E-02  -0.7966216141E-03
  -0.9808585409E+00   0.1862173136E+00   0.7998082941E+00   0.1345539106E-02  -0.1599559437E-02  -0.1917178769E-03   0.0000000000E+00   0.0000000000E+00   0.0000000000E+00  -0.2661202300E-02  -0.1154993934E+00  -0.7802084362E-02  -0.1991652209E-01  -0.8246583459E-03  -0.1347080138E-02
  -0.1131338886E+01   0.4323438448E-03   0.7997616508E+00   0.1257483566E-02  -0.1375157695E-02  -0.2383611919E-03   0.0000000000E+00   0.0000000000E+00   0.0000000000E+00  -0.5089964386E-02  -0.6646965625E-01  -0.6760705445E-02  -0.7685268097E-02   0.1798239008E-02   0.1065320349E-02
  -0.9986509646E+00   0.6070529303E-02   0.7998079561E+00   0.1321319362E-02  -0.1373950197E-02  -0.1920558882E-03   0.0000000000E+00   0.0000000000E+00   0.0000000000E+00   0.7340752826E-03  -0.1172728378E+00  -0.6718073014E-02  -0.2464006872E-02  -0.6378732733E-03   0.2376773006E-02
  -0.1236881807E+01   0.2076216930E+00   0.7997200753E+00   0.1264973328E-02  -0.1436085014E-02  -0.2799367487E-03   0.0000000000E+00   0.0000000000E+00   0.0000000000E+00   0.3947763355E-02  -0.3074167518E-01   0.1397571349E-02   0.2624076725E-02   0.3164877607E-02  -0.7138313727E-03
  -0.1273693630E+01   0.9074443126E-03   0.7997132951E+00   0.1228740028E-02  -0.1361228607E-02  -0.2867168851E-03   0.0000000000E+00   0.0000000000E+00   0.0000000000E+00   0.3448036284E-02  -0.2610516130E-01   0.1635933640E-02  -0.1187669739E-01   0.3140854272E-02   0.4828752363E-03
  -0.1390056905E+01   0.2112574026E+00   0.7996715636E+00   0.1237094781E-02  -0.1378353444E-02  -0.3284484218E-03   0.0000000000E+00   0.0000000000E+00   0.0000000000E+00   0.1572838152E-01  -0.1167538729E-01   0.7739799733E-03   0.3651971238E-02   0.2648578619E-02  -0.4493064084E-03
  -0.1431099412E+01   0.7687611110E-03   0.7996649378E+00   0.1201987718E-02  -0.1330132869E-02  -0.3350742030E-03   0.0000000000E+00   0.0000000000E+00   0.0000000000E+00   0.1543193663E-01  -0.8298687115E-02   0.5111743807E-03  -0.1323564562E-01   0.2425052442E-02   0.1561854089E-03
  -0.1555100420E+01   0.2124752906E+00   0.7996307700E+00   0.1198190377E-02  -0.1328149422E-02  -0.3692419551E-03   0.0000000000E+00   0.0000000000E+00   0.0000000000E+00   0.2800892899E-01  -0.3607897761E-04   0.8985014698E-03   0.2886137576E-02   0.1379095272E-02  -0.2140960170E-03
  -0.1597309472E+01   0.5665058527E-03   0.7996258774E+00   0.1164667676E-02  -0.1290193497E-02  -0.3741346137E-03   0.0000000000E+00   0.0000000000E+00   0.0000000000E+00   0.2787473045E-01   0.2274086651E-02   0.6612251869E-03  -0.1323517956E-01   0.1207863157E-02   0.3770031179E-04
  -0.1726613565E+01   0.2123541919E+00   0.7995992697E+00   0.1144245053E-02  -0.1283190140E-02  -0.4007423091E-03   0.0000000000E+00   0.0000000000E+00   0.0000000000E+00   0.3955903272E-01   0.6473735453E-02   0.5655628899E-03   0.1301018897E-02   0.5534437961E-03  -0.7205092091E-04
  -0.1767827589E+01   0.4123736803E-03   0.7995963578E+00   0.1112261282E-02  -0.1246173640E-02  -0.4036541762E-03   0.0000000000E+00   0.0000000000E+00   0.0000000000E+00   0.3968570235E-01   0.7720872111E-02   0.3580100512E-03  -0.1251300938E-01   0.4627504093E-03  -0.1321849001E-04
  -0.1901373541E+01   0.2115292007E+00   0.7995762664E+00   0.1074159471E-02  -0.1241440282E-02  -0.4237456259E-03   0.0000000000E+00   0.0000000000E+00   0.0000000000E+00   0.4957738661E-01   0.1011760576E-01   0.2476907621E-03  -0.8805066714E-04   0.8355980624E-04  -0.1673676305E-05
  -0.1940012436E+01   0.2942866783E-03   0.7995751189E+00   0.1043453844E-02  -0.1201951372E-02  -0.4248930615E-03   0.0000000000E+00   0.0000000000E+00   0.0000000000E+00   0.4967642845E-01   0.1043085620E-01   0.8761767278E-04  -0.1138520450E-01   0.5455103520E-04  -0.2485458741E-04
  -0.2077699750E+01   0.2103472621E+00   0.7995594246E+00   0.9893495597E-03  -0.1202883909E-02  -0.4405874258E-03   0.0000000000E+00   0.0000000000E+00   0.0000000000E+00   0.5808188788E-01   0.1215750379E-01   0.1323351990E-03  -0.9630804258E-03  -0.7515808597E-04   0.1449742109E-04
  -0.2112870551E+01   0.1769923488E-03   0.7995595784E+00   0.9602488439E-03  -0.1159875691E-02  -0.4404336036E-03   0.0000000000E+00   0.0000000000E+00   0.0000000000E+00   0.5800234778E-01   0.1196415327E-01  -0.9924948167E-05  -0.1009145868E-01  -0.7115111805E-04  -0.1165701379E-04
  -0.2254767607E+01   0.2089902245E+00   0.7995470324E+00   0.8917331448E-03  -0.1168063528E-02  -0.4529795596E-03   0.0000000000E+00   0.0000000000E+00   0.0000000000E+00   0.6505670563E-01   0.1324896528E-01   0.6036713050E-04  -0.1424545210E-02  -0.1138110379E-03   0.2415694113E-04
  -0.2286026247E+01   0.4848427134E-04   0.7995481562E+00   0.8645029030E-03  -0.1121361189E-02  -0.4518558497E-03   0.0000000000E+00   0.0000000000E+00   0.0000000000E+00   0.6483415516E-01   0.1263332276E-01  -0.6515811340E-04  -0.8730021538E-02  -0.1098205371E-03  -0.4468646635E-05
  -0.2431873446E+01   0.2076558140E+00   0.7995377831E+00   0.7835535796E-03  -0.1137259980E-02  -0.4622289496E-03   0.0000000000E+00   0.0000000000E+00   0.0000000000E+00   0.7073400838E-01   0.1370074005E-01   0.3706372052E-04  -0.1558230529E-02  -0.9684230817E-04   0.2158501627E-04
  -0.2459313553E+01  -0.8782784955E-04   0.7995395702E+00   0.7584871375E-03  -0.1087242911E-02  -0.4604418219E-03   0.0000000000E+00   0.0000000000E+00   0.0000000000E+00   0.7025132677E-01   0.1291370093E-01  -0.5850858330E-04  -0.7375579872E-02  -0.8485962499E-04   0.5104768147E-05
  -0.2607969343E+01   0.2066858517E+00   0.7995308932E+00   0.6672765288E-03  -0.1111228340E-02  -0.4691187592E-03   0.0000000000E+00   0.0000000000E+00   0.0000000000E+00   0.7523866263E-01   0.1381110792E-01   0.1658989817E-05  -0.1468185071E-02  -0.7355319916E-04   0.2696545317E-04
  -0.2627742885E+01   0.1450248375E-02   0.7995332582E+00   0.6474252426E-03  -0.1059200305E-02  -0.4667538190E-03   0.0000000000E+00   0.0000000000E+00   0.0000000000E+00   0.7451834760E-01   0.1293928566E-01  -0.3462027583E-04  -0.6027529416E-02  -0.6806407089E-04   0.1083483860E-04
  -0.2784189015E+01   0.2055616929E+00   0.7995257702E+00   0.5438045491E-03  -0.1089637131E-02  -0.4742417927E-03   0.0000000000E+00   0.0000000000E+00   0.0000000000E+00   0.7877516283E-01   0.1373219273E-01   0.1131081742E-05  -0.1266263568E-02  -0.5133141685E-04   0.2541456015E-04
  -0.2796867086E+01   0.2129559083E-02   0.7995284838E+00   0.5295739874E-03  -0.1035805187E-02  -0.4715282077E-03   0.0000000000E+00   0.0000000000E+00   0.0000000000E+00   0.7784975861E-01   0.1283725767E-01  -0.1678972383E-04  -0.4762330689E-02  -0.4674671214E-04   0.1619141871E-04
  -0.2961892375E+01   0.2041977090E+00   0.7995220541E+00   0.4136447473E-03  -0.1072625982E-02  -0.4779578814E-03   0.0000000000E+00   0.0000000000E+00   0.0000000000E+00   0.8143118856E-01   0.1356543830E-01  -0.7097516361E-05  -0.9937186136E-03  -0.3471403866E-04   0.2979689844E-04
  -0.2971100782E+01   0.1705443991E-02   0.7995249201E+00   0.4029478336E-03  -0.1016603279E-02  -0.4750918971E-03   0.0000000000E+00   0.0000000000E+00   0.0000000000E+00   0.8041024372E-01   0.1267787067E-01  -0.6885409241E-05  -0.3516800727E-02  -0.3169128991E-04   0.1621829706E-04
  -0.3140554043E+01   0.2029632266E+00   0.7995195325E+00   0.2786170712E-03  -0.1060239391E-02  -0.4804794571E-03   0.0000000000E+00   0.0000000000E+00   0.0000000000E+00   0.8330142869E-01   0.1339519692E-01  -0.1844797077E-05  -0.7068775667E-03  -0.1646217151E-04   0.2757342771E-04
  -0.3146775987E+01   0.1133143391E-02   0.7995224907E+00   0.2712926789E-03  -0.1002744349E-02  -0.4775213048E-03   0.0000000000E+00   0.0000000000E+00   0.0000000000E+00   0.8220673800E-01   0.1252278003E-01  -0.4963915388E-05  -0.2343724721E-02  -0.1545777571E-04   0.2030042845E-04
  -0.3319924746E+01   0.2021469876E+00   0.7995180719E+00   0.1402735446E-03  -0.1052831426E-02  -0.4819401279E-03   0.0000000000E+00   0.0000000000E+00   0.0000000000E+00   0.8440550720E-01   0.1326879082E-01  -0.5104627988E-05  -0.2752942969E-03  -0.2352764878E-04   0.3079062095E-04
  -0.3323104240E+01   0.7784941018E-03   0.7995210819E+00   0.1365197061E-03  -0.9943082182E-03  -0.4789301017E-03   0.0000000000E+00   0.0000000000E+00   0.0000000000E+00   0.8326260680E-01   0.1241473648E-01  -0.2616703057E-05  -0.1076645356E-02  -0.2276666877E-04   0.1803698536E-04
  -0.3500000000E+01   0.2015945476E+00   0.7995175965E+00   0.0000000000E+00  -0.1050202412E-02  -0.4824155406E-03   0.0000000000E+00   0.0000000000E+00   0.0000000000E+00   0.8477409704E-01   0.1322514581E-01  -0.1494120939E-05  -0.2750686616E-03   0.5159176978E-04   0.2760857190E-04
  -0.3500000000E+01   0.4419981218E-03   0.7995206212E+00   0.0000000000E+00  -0.9914836882E-03  -0.4793907863E-03   0.0000000000E+00   0.0000000000E+00   0.0000000000E+00   0.8361120252E-01   0.1237421916E-01  -0.3626764034E-05  -0.2870581276E-03   0.5031319933E-04   0.2130136591E-04
  -0.1175606537E+01   0.4120689849E+00   0.7996961267E+00   0.1462293047E-02  -0.1552977100E-02  -0.3038852725E-03   0.0000000000E+00   0.0000000000E+00   0.0000000000E+00   0.1952362712E-01  -0.3308256693E-01   0.6808715363E-03   0.1559615491E-01   0.2456279729E-02  -0.2246876117E-02
  -0.1331540385E+01   0.4180795203E+00   0.7996565634E+00   0.1411875171E-02  -0.1455758719E-02  -0.3434485503E-03   0.0000000000E+00   0.0000000000E+00   0.0000000000E+00   0.3024015509E-01  -0.1764456469E-01   0.3470604942E-03   0.1883438515E-01   0.2364127256E-02  -0.1194832480E-02
  -0.1500173998E+01   0.4203444305E+00   0.7996212003E+00   0.1345922177E-02  -0.1386683536E-02  -0.3788116682E-03   0.0000000000E+00   0.0000000000E+00   0.0000000000E+00   0.4018424340E-01  -0.6140083273E-02   0.8378170962E-03   0.1731636810E-01   0.1295213684E-02  -0.3989562973E-03
  -0.1675751272E+01   0.4203685165E+00   0.7995925662E+00   0.1267007915E-02  -0.1333212476E-02  -0.4074458486E-03   0.0000000000E+00   0.0000000000E+00   0.0000000000E+00   0.4873841486E-01   0.1623430786E-02   0.3881684474E-03   0.1380854640E-01   0.5521738158E-03  -0.6282523985E-04
  -0.1854997014E+01   0.4191537388E+00   0.7995708452E+00   0.1176385543E-02  -0.1288842226E-02  -0.4291667879E-03   0.0000000000E+00   0.0000000000E+00   0.0000000000E+00   0.5657740788E-01   0.6747268004E-02   0.2196157519E-03   0.1048177894E-01   0.1013640897E-03   0.6189002164E-04
  -0.2036120811E+01   0.4172954757E+00   0.7995545576E+00   0.1074869256E-02  -0.1250664298E-02  -0.4454543561E-03   0.0000000000E+00   0.0000000000E+00   0.0000000000E+00   0.6346293413E-01   0.9991760403E-02   0.5024919250E-04   0.7732748293E-02  -0.6325689322E-04   0.8965318434E-04
  -0.2218177674E+01   0.4151192551E+00   0.7995424017E+00   0.9633362258E-03  -0.1217340880E-02  -0.4576103292E-03   0.0000000000E+00   0.0000000000E+00   0.0000000000E+00   0.6944041294E-01   0.1188881089E-01  -0.1879188978E-05   0.5664449572E-02  -0.1095063113E-03   0.7926390794E-04
  -0.2400533021E+01   0.4128450893E+00   0.7995332666E+00   0.8429886947E-03  -0.1188830689E-02  -0.4667454438E-03   0.0000000000E+00   0.0000000000E+00   0.0000000000E+00   0.7448040023E-01   0.1292754512E-01  -0.2023493171E-04   0.4136372280E-02  -0.9537599850E-04   0.7067796694E-04
  -0.2582789557E+01   0.4106216715E+00   0.7995264284E+00   0.7151233661E-03  -0.1164765470E-02  -0.4735836220E-03   0.0000000000E+00   0.0000000000E+00   0.0000000000E+00   0.7864402836E-01   0.1337162650E-01  -0.8864115755E-05   0.3015507784E-02  -0.7356780704E-04   0.5528336208E-04
  -0.2765147021E+01   0.4084090409E+00   0.7995213625E+00   0.5807385620E-03  -0.1145262095E-02  -0.4786495088E-03   0.0000000000E+00   0.0000000000E+00   0.0000000000E+00   0.8195136554E-01   0.1349073984E-01  -0.6748095453E-05   0.2170869723E-02  -0.5039455719E-04   0.5093123361E-04
  -0.2948028395E+01   0.4062891301E+00   0.7995177204E+00   0.4407654558E-03  -0.1129955950E-02  -0.4822915898E-03   0.0000000000E+00   0.0000000000E+00   0.0000000000E+00   0.8447242391E-01   0.1342655892E-01  -0.1677907462E-05   0.1508207622E-02  -0.3472145997E-04   0.4209862124E-04
  -0.3131474164E+01   0.4045138853E+00   0.7995152666E+00   0.2964460852E-03  -0.1119087660E-02  -0.4847454158E-03   0.0000000000E+00   0.0000000000E+00   0.0000000000E+00   0.8624044809E-01   0.1330525018E-01  -0.4978763429E-05   0.9348937126E-03  -0.1657995681E-04   0.4290570883E-04
  -0.3315469899E+01   0.4033169223E+00   0.7995138498E+00   0.1490910899E-03  -0.1112453726E-02  -0.4861621634E-03   0.0000000000E+00   0.0000000000E+00   0.0000000000E+00   0.8729496196E-01   0.1320458271E-01  -0.9383472225E-06   0.5132329790E-03  -0.2264850124E-04   0.3818809591E-04
  -0.3500000000E+01   0.4026490128E+00   0.7995133919E+00   0.0000000000E+00  -0.1110228169E-02  -0.4866200535E-03   0.0000000000E+00   0.0000000000E+00   0.0000000000E+00   0.8764197488E-01   0.1316451403E-01  -0.3753191928E-05  -0.2001615500E-03   0.4897183240E-04   0.4114625661E-04
  -0.1090740918E+01   0.6167242705E+00   0.7996381861E+00   0.1826401826E-02  -0.1733344508E-02  -0.3618258510E-03   0.0000000000E+00   0.0000000000E+00   0.0000000000E+00   0.5154515711E-01  -0.2930531165E-01   0.4854865163E-03   0.2598637083E-01   0.9327247522E-03  -0.3285947101E-02
  -0.1259117954E+01   0.6217320914E+00   0.7996193693E+00   0.1720316234E-02  -0.1586640555E-02  -0.3806426809E-03   0.0000000000E+00   0.0000000000E+00   0.0000000000E+00   0.5987411322E-01  -0.2313097476E-01   0.8222045453E-03   0.2766426804E-01   0.1357582121E-02  -0.1439827231E-02
  -0.1436537129E+01   0.6239432325E+00   0.7995972759E+00   0.1598491399E-02  -0.1485205513E-02  -0.4027361264E-03   0.0000000000E+00   0.0000000000E+00   0.0000000000E+00   0.6310377276E-01  -0.1392560551E-01   0.4134252177E-03   0.2566831580E-01   0.9531903751E-03  -0.4596800608E-03
  -0.1618974806E+01   0.6239180139E+00   0.7995762598E+00   0.1472944001E-02  -0.1412196136E-02  -0.4237522157E-03   0.0000000000E+00   0.0000000000E+00   0.0000000000E+00   0.6643976414E-01  -0.4966642321E-02   0.5097605850E-03   0.2188572737E-01   0.4647945838E-03  -0.4268883058E-04
  -0.1804258682E+01   0.6225218462E+00   0.7995588166E+00   0.1344347995E-02  -0.1356692780E-02  -0.4411954127E-03   0.0000000000E+00   0.0000000000E+00   0.0000000000E+00   0.6996704926E-01   0.1501157623E-02   0.1141220595E-03   0.1786066300E-01   0.1050881106E-03   0.1154717535E-03
  -0.1991130541E+01   0.6203753316E+00   0.7995449553E+00   0.1212528576E-02  -0.1312557435E-02  -0.4550567013E-03   0.0000000000E+00   0.0000000000E+00   0.0000000000E+00   0.7392590904E-01   0.6153209796E-02   0.9162886890E-04   0.1431802752E-01  -0.4283221507E-04   0.1319453392E-03
  -0.2178851136E+01   0.6178460273E+00   0.7995342554E+00   0.1076213858E-02  -0.1276954685E-02  -0.4657565604E-03   0.0000000000E+00   0.0000000000E+00   0.0000000000E+00   0.7780956210E-01   0.9103108394E-02  -0.3089274850E-05   0.1133822810E-01  -0.8890204715E-04   0.1239508853E-03
  -0.2366948738E+01   0.6151540446E+00   0.7995260535E+00   0.9349416732E-03  -0.1247866399E-02  -0.4739585440E-03   0.0000000000E+00   0.0000000000E+00   0.0000000000E+00   0.8144533377E-01   0.1088539916E-01   0.6719956963E-06   0.8915085777E-02  -0.8017867148E-04   0.9532673145E-04
  -0.2555172031E+01   0.6124332268E+00   0.7995198610E+00   0.7886294162E-03  -0.1224605152E-02  -0.4801509952E-03   0.0000000000E+00   0.0000000000E+00   0.0000000000E+00   0.8462450904E-01   0.1182952682E-01  -0.1536307780E-04   0.6918886868E-02  -0.6205426440E-04   0.8255097109E-04
  -0.2743514973E+01   0.6097763228E+00   0.7995152668E+00   0.6375768862E-03  -0.1206155189E-02  -0.4847452404E-03   0.0000000000E+00   0.0000000000E+00   0.0000000000E+00   0.8728920651E-01   0.1225250419E-01  -0.6856203727E-05   0.5233814514E-02  -0.4278982372E-04   0.6436507553E-04
  -0.2932115803E+01   0.6073339224E+00   0.7995119811E+00   0.4823065512E-03  -0.1192307611E-02  -0.4880309052E-03   0.0000000000E+00   0.0000000000E+00   0.0000000000E+00   0.8937533706E-01   0.1237168894E-01  -0.7334221725E-05   0.3770297999E-02  -0.2975791900E-04   0.5978654982E-04
  -0.3121065536E+01   0.6053264896E+00   0.7995097803E+00   0.3236138185E-03  -0.1182480392E-02  -0.4902316585E-03   0.0000000000E+00   0.0000000000E+00   0.0000000000E+00   0.9087545673E-01   0.1235084208E-01  -0.3315188225E-05   0.2426255675E-02  -0.1428396260E-04   0.5017003511E-04
  -0.3310386310E+01   0.6039563380E+00   0.7995085194E+00   0.1624700204E-03  -0.1176719036E-02  -0.4914925792E-03   0.0000000000E+00   0.0000000000E+00   0.0000000000E+00   0.9177006065E-01   0.1229767043E-01  -0.3878860194E-05   0.1252790499E-02  -0.1982575565E-04   0.5094237869E-04
  -0.3500000000E+01   0.6032193729E+00   0.7995081155E+00   0.0000000000E+00  -0.1174646060E-02  -0.4918965411E-03   0.0000000000E+00   0.0000000000E+00   0.0000000000E+00   0.9206863531E-01   0.1227466475E-01  -0.3693318138E-05  -0.1959597609E-03   0.4276612735E-04   0.4642376895E-04
  -0.9964486035E+00   0.8146795258E+00   0.7995599595E+00   0.2315911491E-02  -0.1976825203E-02  -0.4400525052E-03   0.0000000000E+00   0.0000000000E+00   0.0000000000E+00   0.1041650382E+00  -0.2729343087E-01   0.2042475208E-02   0.2705419527E-01  -0.1327349022E-02  -0.1996574094E-02
  -0.1180330843E+01   0.8237110089E+00   0.7995679417E+00   0.2125766654E-02  -0.1781194135E-02  -0.4320703378E-03   0.0000000000E+00   0.0000000000E+00   0.0000000000E+00   0.9526476255E-01  -0.2778630827E-01  -0.3027788157E-03   0.2655596203E-01   0.4990893636E-03  -0.8681936187E-03
  -0.1370524176E+01   0.8248821363E+00   0.7995628359E+00   0.1927363629E-02  -0.1634014724E-02  -0.4371760841E-03   0.0000000000E+00   0.0000000000E+00   0.0000000000E+00   0.9213162912E-01  -0.1995660198E-01   0.8958142786E-03   0.2607236048E-01   0.5558777812E-03  -0.3434114266E-03
  -0.1561432225E+01   0.8243789555E+00   0.7995522844E+00   0.1739994501E-02  -0.1529466488E-02  -0.4477275941E-03   0.0000000000E+00   0.0000000000E+00   0.0000000000E+00   0.8856728998E-01  -0.1159400523E-01   0.2083413620E-03   0.2393888812E-01   0.3443739429E-03   0.3285872932E-04
  -0.1753449634E+01   0.8227681005E+00   0.7995409961E+00   0.1562756474E-02  -0.1452676537E-02  -0.4590159041E-03   0.0000000000E+00   0.0000000000E+00   0.0000000000E+00   0.8756004685E-01  -0.3902179603E-02   0.3017642570E-03   0.2104121351E-01   0.1040518319E-03   0.1310649655E-03
  -0.1947928335E+01   0.8202909142E+00   0.7995309219E+00   0.1389835306E-02  -0.1395114807E-02  -0.4690901331E-03   0.0000000000E+00   0.0000000000E+00   0.0000000000E+00   0.8779909430E-01   0.1785873847E-02   0.3682683009E-04   0.1783867772E-01  -0.2089793034E-04   0.1748232494E-03
  -0.2141597592E+01   0.8177024600E+00   0.7995226761E+00   0.1220857993E-02  -0.1351785988E-02  -0.4773359421E-03   0.0000000000E+00   0.0000000000E+00   0.0000000000E+00   0.8910759680E-01   0.5723487922E-02   0.4257914503E-04   0.1491900089E-01  -0.5899097567E-04   0.1389062754E-03
  -0.2335226718E+01   0.8150162978E+00   0.7995161890E+00   0.1052202360E-02  -0.1319142228E-02  -0.4838230174E-03   0.0000000000E+00   0.0000000000E+00   0.0000000000E+00   0.9086056514E-01   0.8160252199E-02  -0.5340692074E-05   0.1223822436E-01  -0.6071690557E-04   0.1222384302E-03
  -0.2528920205E+01   0.8123140917E+00   0.7995112326E+00   0.8821152855E-03  -0.1294316267E-02  -0.4887794262E-03   0.0000000000E+00   0.0000000000E+00   0.0000000000E+00   0.9271763697E-01   0.9585130475E-02   0.1410365350E-05   0.9824022104E-02  -0.4636558440E-04   0.9250820109E-04
  -0.2722710336E+01   0.8096998191E+00   0.7995075635E+00   0.7098035219E-03  -0.1275970949E-02  -0.4924485491E-03   0.0000000000E+00   0.0000000000E+00   0.0000000000E+00   0.9443078693E-01   0.1031194726E-01  -0.2179031741E-05   0.7619969366E-02  -0.3305323512E-04   0.8303267420E-04
  -0.2916670280E+01   0.8073216148E+00   0.7995049581E+00   0.5350499794E-03  -0.1262598227E-02  -0.4950539085E-03   0.0000000000E+00   0.0000000000E+00   0.0000000000E+00   0.9586029687E-01   0.1061813072E-01  -0.1563197970E-05   0.5585137705E-02  -0.2202768242E-04   0.6711828362E-04
  -0.3110875600E+01   0.8053639702E+00   0.7995032326E+00   0.3581096924E-03  -0.1253647815E-02  -0.4967793525E-03   0.0000000000E+00   0.0000000000E+00   0.0000000000E+00   0.9692412648E-01   0.1070764071E-01   0.2951723001E-06   0.3650491736E-02  -0.1096991935E-04   0.6460275144E-04
  -0.3305353919E+01   0.8040038555E+00   0.7995022551E+00   0.1794910519E-03  -0.1248338480E-02  -0.4977568870E-03   0.0000000000E+00   0.0000000000E+00   0.0000000000E+00   0.9757058348E-01   0.1070920397E-01  -0.1149313949E-05   0.1848001828E-02  -0.1491241634E-04   0.5664284626E-04
  -0.3500000000E+01   0.8032216020E+00   0.7995019481E+00   0.0000000000E+00  -0.1246552977E-02  -0.4980638701E-03   0.0000000000E+00   0.0000000000E+00   0.0000000000E+00   0.9778768288E-01   0.1070422052E-01   0.5585177649E-06  -0.1343068982E-03   0.3247821087E-04   0.5919100180E-04
  -0.9002593395E+00   0.1019383830E+01   0.7994871579E+00   0.2859747516E-02  -0.2290799529E-02  -0.5128540581E-03   0.0000000000E+00   0.0000000000E+00   0.0000000000E+00   0.1446089261E+00  -0.2628081686E-01  -0.1611906880E-02   0.1009384330E-01  -0.1894607355E-02  -0.4557715756E-03
  -0.1110134932E+01   0.1024056636E+01   0.7995169903E+00   0.2555278286E-02  -0.2021463737E-02  -0.4830217376E-03   0.0000000000E+00   0.0000000000E+00   0.0000000000E+00   0.1279657562E+00  -0.2730523104E-01   0.3857018416E-03   0.1699195916E-01   0.1073226816E-03  -0.5354332399E-03
  -0.1305520371E+01   0.1025642294E+01   0.7995249595E+00   0.2291128925E-02  -0.1832346126E-02  -0.4750524756E-03   0.0000000000E+00   0.0000000000E+00   0.0000000000E+00   0.1185470337E+00  -0.2269030683E-01   0.7337922110E-04   0.1879740024E-01   0.3209594244E-03  -0.1275237048E-03
  -0.1504185612E+01   0.1024308726E+01   0.7995242663E+00   0.2042957719E-02  -0.1686643961E-02  -0.4757456764E-03   0.0000000000E+00   0.0000000000E+00   0.0000000000E+00   0.1106247493E+00  -0.1502366783E-01   0.9421681012E-04   0.1980365737E-01   0.2260119830E-03   0.6197535610E-04
  -0.1702845488E+01   0.1022237697E+01   0.7995193188E+00   0.1814452204E-02  -0.1580912909E-02  -0.4806932412E-03   0.0000000000E+00   0.0000000000E+00   0.0000000000E+00   0.1057052344E+00  -0.7638237167E-02   0.5463573597E-04   0.1949084207E-01   0.1138019466E-03   0.1647658624E-03
  -0.1908139454E+01   0.1018870641E+01   0.7995135756E+00   0.1592525771E-02  -0.1500799246E-02  -0.4864364361E-03   0.0000000000E+00   0.0000000000E+00   0.0000000000E+00   0.1029559481E+00  -0.1656329956E-02  -0.1274199222E-04   0.1793082598E-01  -0.1580267376E-06   0.1575946157E-03
  -0.2106616855E+01   0.1016441704E+01   0.7995083413E+00   0.1388195032E-02  -0.1445765826E-02  -0.4916707296E-03   0.0000000000E+00   0.0000000000E+00   0.0000000000E+00   0.1018696525E+00   0.2624437910E-02   0.5483069292E-06   0.1601126969E-01  -0.2709415103E-04   0.1503388127E-03
  -0.2305250820E+01   0.1013931424E+01   0.7995041078E+00   0.1188580029E-02  -0.1405806239E-02  -0.4959041886E-03   0.0000000000E+00   0.0000000000E+00   0.0000000000E+00   0.1017729017E+00   0.5400082206E-02  -0.2381968022E-04   0.1372378430E-01  -0.3623308280E-04   0.1192655771E-03
  -0.2503965325E+01   0.1011418455E+01   0.7995008579E+00   0.9911547147E-03  -0.1377474801E-02  -0.4991541198E-03   0.0000000000E+00   0.0000000000E+00   0.0000000000E+00   0.1022020832E+00   0.7093128422E-02  -0.9119054885E-05   0.1139397948E-01  -0.2890255080E-04   0.1060366869E-03
  -0.2702754762E+01   0.1008982941E+01   0.7994985198E+00   0.7941481663E-03  -0.1357388508E-02  -0.5014921963E-03   0.0000000000E+00   0.0000000000E+00   0.0000000000E+00   0.1028263096E+00   0.7998416060E-02  -0.1372360613E-04   0.9043869079E-02  -0.2009837506E-04   0.8534829849E-04
  -0.2901658759E+01   0.1006739461E+01   0.7994969088E+00   0.5967808729E-03  -0.1343759053E-02  -0.5031032143E-03   0.0000000000E+00   0.0000000000E+00   0.0000000000E+00   0.1034630220E+00   0.8437476321E-02  -0.3434759143E-06   0.6736179625E-02  -0.1367869942E-04   0.7941547920E-04
  -0.3100754519E+01   0.1004842511E+01   0.7994958885E+00   0.3986210903E-03  -0.1334799058E-02  -0.5041234543E-03   0.0000000000E+00   0.0000000000E+00   0.0000000000E+00   0.1039725946E+00   0.8597479337E-02  -0.6152496323E-05   0.4448802594E-02  -0.6240009150E-05   0.6806735935E-04
  -0.3300150997E+01   0.1003460031E+01   0.7994953274E+00   0.1996727254E-03  -0.1329799366E-02  -0.5046846349E-03   0.0000000000E+00   0.0000000000E+00   0.0000000000E+00   0.1043020764E+00   0.8648797737E-02   0.4613875754E-05   0.2262103270E-02  -0.8529284533E-05   0.6759599035E-04
  -0.3500000000E+01   0.1002732854E+01   0.7994951598E+00   0.0000000000E+00  -0.1328005735E-02  -0.5048522057E-03   0.0000000000E+00   0.0000000000E+00   0.0000000000E+00   0.1044083489E+00   0.8651392070E-02  -0.3845265249E-05  -0.1503456670E-03   0.1777778827E-04   0.6267244807E-04
  -0.3297154981E+01   0.1202538614E+01   0.7994880361E+00   0.2195089269E-03  -0.1422286322E-02  -0.5119758699E-03   0.0000000000E+00   0.0000000000E+00   0.0000000000E+00   0.1115288526E+00   0.6349999587E-02   0.1389130698E-06   0.2419449384E-02  -0.1742655534E-05   0.7872840994E-04
  -0.3500000000E+01   0.1201948144E+01   0.7994880471E+00   0.0000000000E+00  -0.1420636425E-02  -0.5119649343E-03   0.0000000000E+00   0.0000000000E+00   0.0000000000E+00   0.1115198736E+00   0.6369540475E-02   0.1288480011E-04  -0.1153465759E-03   0.8937446383E-06   0.8048697802E-04
  -0.3295776347E+01   0.1401464324E+01   0.7994807939E+00   0.2379633693E-03  -0.1526615835E-02  -0.5192180881E-03   0.0000000000E+00   0.0000000000E+00   0.0000000000E+00   0.1187862722E+00   0.4068941409E-02   0.3504240875E-04   0.2296818980E-02   0.4034350990E-05   0.9805226224E-04
  -0.3500000000E+01   0.1401038145E+01   0.7994810232E+00   0.0000000000E+00  -0.1524834740E-02  -0.5189887678E-03   0.0000000000E+00   0.0000000000E+00   0.0000000000E+00   0.1186232777E+00   0.4069602728E-02   0.1704132288E-04  -0.1483945754E-03  -0.2091722873E-04   0.9556411122E-04
  -0.3295412501E+01   0.1600361959E+01   0.7994739554E+00   0.2539589737E-03  -0.1642091138E-02  -0.5260566164E-03   0.0000000000E+00   0.0000000000E+00   0.0000000000E+00   0.1254618449E+00   0.2067571237E-02  -0.8256455790E-05   0.1895813579E-02   0.4896407147E-05   0.1434778638E-03
  -0.3500000000E+01   0.1600092033E+01   0.7994744233E+00   0.0000000000E+00  -0.1640216739E-02  -0.5255886979E-03   0.0000000000E+00   0.0000000000E+00   0.0000000000E+00   0.1251706538E+00   0.2084527569E-02   0.1624967800E-04  -0.1501110262E-03  -0.4323305690E-04   0.1452073818E-03
  -0.3295449491E+01   0.1799251531E+01   0.7994679842E+00   0.2665585722E-03  -0.1767178556E-02  -0.5320277860E-03   0.0000000000E+00   0.0000000000E+00   0.0000000000E+00   0.1311698318E+00   0.6867791805E-03   0.1130190137E-03   0.1051612663E-02  -0.7183160324E-05   0.1790301451E-03
  -0.3500000000E+01   0.1799123215E+01   0.7994687003E+00   0.0000000000E+00  -0.1764964970E-02  -0.5313117474E-03   0.0000000000E+00   0.0000000000E+00   0.0000000000E+00   0.1306792782E+00   0.6692472776E-03   0.8318325350E-04  -0.1979047149E-03  -0.6765452042E-04   0.1758616208E-03
  -0.3295549378E+01   0.1998101070E+01   0.7994624875E+00   0.2744321348E-03  -0.1898929771E-02  -0.5375244871E-03   0.0000000000E+00   0.0000000000E+00   0.0000000000E+00   0.1344581500E+00  -0.1304448042E-04  -0.3546166701E-03   0.3462572396E-03  -0.8664523839E-04   0.6099624571E-04
  -0.3500000000E+01   0.1998103725E+01   0.7994634406E+00   0.0000000000E+00  -0.1896274671E-02  -0.5365713934E-03   0.0000000000E+00   0.0000000000E+00   0.0000000000E+00   0.1338471727E+00   0.1309161902E-05  -0.3184258657E-03  -0.2407381792E-03  -0.8929653977E-04   0.5803220791E-04
  -0.3094791849E+01   0.1203631934E+01   0.7994880433E+00   0.4387309928E-03  -0.1427355944E-02  -0.5119686985E-03   0.0000000000E+00   0.0000000000E+00   0.0000000000E+00   0.1115850942E+00   0.6297898405E-02   0.1103864014E-04   0.4763832616E-02  -0.4366983328E-05   0.8503788469E-04
  -0.3091915753E+01   0.1402249084E+01   0.7994801511E+00   0.4762168074E-03  -0.1531856281E-02  -0.5198608512E-03   0.0000000000E+00   0.0000000000E+00   0.0000000000E+00   0.1192391054E+00   0.4011896665E-02   0.1582874816E-04   0.4484727344E-02  -0.4308294559E-05   0.9563891691E-04
  -0.3091018461E+01   0.1600858880E+01   0.7994725719E+00   0.5089990941E-03  -0.1648000456E-02  -0.5274400777E-03   0.0000000000E+00   0.0000000000E+00   0.0000000000E+00   0.1263719436E+00   0.2054920144E-02   0.8983818115E-06   0.3684314763E-02  -0.2025416795E-04   0.1439905346E-03
  -0.3090953169E+01   0.1799486913E+01   0.7994658587E+00   0.5349513738E-03  -0.1774037209E-02  -0.5341533492E-03   0.0000000000E+00   0.0000000000E+00   0.0000000000E+00   0.1325911392E+00   0.6790291252E-03   0.1113919517E-03   0.1971923448E-02  -0.5776465333E-04   0.1851795026E-03
  -0.3091053831E+01   0.1998092647E+01   0.7994596193E+00   0.5515885491E-03  -0.1907353278E-02  -0.5403927096E-03   0.0000000000E+00   0.0000000000E+00   0.0000000000E+00   0.1363575300E+00  -0.2376328831E-04  -0.3495588203E-03   0.5619921431E-03  -0.2358522692E-03   0.6949893353E-04
  -0.2892723543E+01   0.1205111085E+01   0.7994881454E+00   0.6580567540E-03  -0.1436415325E-02  -0.5118666421E-03   0.0000000000E+00   0.0000000000E+00   0.0000000000E+00   0.1116838293E+00   0.6110388228E-02  -0.6747590603E-05   0.7143452241E-02  -0.6789109023E-05   0.8693387128E-04
  -0.2888280879E+01   0.1403306881E+01   0.7994791534E+00   0.7157208507E-03  -0.1541698581E-02  -0.5208585565E-03   0.0000000000E+00   0.0000000000E+00   0.0000000000E+00   0.1200262457E+00   0.3879776998E-02   0.3364908057E-04   0.6691873736E-02  -0.8498355167E-05   0.9691939101E-04
  -0.2886754146E+01   0.1601528871E+01   0.7994703352E+00   0.7664040468E-03  -0.1658929157E-02  -0.5296768227E-03   0.0000000000E+00   0.0000000000E+00   0.0000000000E+00   0.1278431539E+00   0.1964156350E-02  -0.4504814545E-04   0.5486598695E-02  -0.2802240806E-04   0.1378495281E-03
  -0.2886505718E+01   0.1799803805E+01   0.7994623566E+00   0.8071723784E-03  -0.1786754911E-02  -0.5376553892E-03   0.0000000000E+00   0.0000000000E+00   0.0000000000E+00   0.1349723982E+00   0.6966885594E-03   0.1776000967E-03   0.2962908356E-02  -0.8943538509E-04   0.1960265665E-03
  -0.2886546624E+01   0.1998077370E+01   0.7994548729E+00   0.8339761489E-03  -0.1922630132E-02  -0.5451391338E-03   0.0000000000E+00   0.0000000000E+00   0.0000000000E+00   0.1394732843E+00  -0.6780728104E-04  -0.4180572025E-03   0.8420255668E-03  -0.3540563450E-03   0.8460226996E-04
  -0.2690829982E+01   0.1206851640E+01   0.7994884447E+00   0.8781082024E-03  -0.1451100223E-02  -0.5115672646E-03   0.0000000000E+00   0.0000000000E+00   0.0000000000E+00   0.1119200790E+00   0.5679263617E-02   0.1819066870E-05   0.9464359299E-02  -0.1395987825E-04   0.9723391158E-04
  -0.2684781240E+01   0.1404551139E+01   0.7994779143E+00   0.9573202245E-03  -0.1557720589E-02  -0.5220976678E-03   0.0000000000E+00   0.0000000000E+00   0.0000000000E+00   0.1211380163E+00   0.3531307457E-02   0.1015751928E-04   0.8770311491E-02  -0.1375987256E-04   0.8941892228E-04
  -0.2682570867E+01   0.1602317396E+01   0.7994673417E+00   0.1027652784E-02  -0.1676973987E-02  -0.5326703342E-03   0.0000000000E+00   0.0000000000E+00   0.0000000000E+00   0.1299049123E+00   0.1787355104E-02  -0.5217594448E-04   0.7158179056E-02  -0.5113236600E-04   0.1292551733E-03
  -0.2682093713E+01   0.1800175354E+01   0.7994575830E+00   0.1084946889E-02  -0.1807285905E-02  -0.5424290121E-03   0.0000000000E+00   0.0000000000E+00   0.0000000000E+00   0.1382165982E+00   0.6560950522E-03   0.2101911673E-03   0.3854983238E-02  -0.1322203454E-03   0.2057772692E-03
  -0.2682039059E+01   0.1998053126E+01   0.7994483235E+00   0.1124340947E-02  -0.1946874031E-02  -0.5516884879E-03   0.0000000000E+00   0.0000000000E+00   0.0000000000E+00   0.1438469298E+00  -0.1115419143E-03  -0.4211753311E-03   0.1132418737E-02  -0.4969829265E-03   0.1067260523E-03
  -0.2489036789E+01   0.1208744883E+01   0.7994890883E+00   0.1099590552E-02  -0.1473307284E-02  -0.5109236856E-03   0.0000000000E+00   0.0000000000E+00   0.0000000000E+00   0.1123722822E+00   0.4781479227E-02  -0.2012562445E-04   0.1166605517E-01  -0.1796840789E-04   0.1006950757E-03
  -0.2481357879E+01   0.1405906839E+01   0.7994765756E+00   0.1202280647E-02  -0.1582821265E-02  -0.5234364372E-03   0.0000000000E+00   0.0000000000E+00   0.0000000000E+00   0.1226716236E+00   0.2853604402E-02   0.3096713847E-04   0.1062875787E-01  -0.2650921584E-04   0.8283106435E-04
  -0.2478435270E+01   0.1603176793E+01   0.7994637694E+00   0.1293910193E-02  -0.1704966744E-02  -0.5362425989E-03   0.0000000000E+00   0.0000000000E+00   0.0000000000E+00   0.1324677823E+00   0.1379115491E-02  -0.1296882030E-03   0.8584328270E-02  -0.7114703073E-04   0.1052023274E-03
  -0.2477703301E+01   0.1800577207E+01   0.7994517260E+00   0.1370218960E-02  -0.1838762754E-02  -0.5482859935E-03   0.0000000000E+00   0.0000000000E+00   0.0000000000E+00   0.1422852423E+00   0.6041620975E-03   0.3370629200E-03   0.4633664774E-02  -0.1859978194E-03   0.2151507988E-03
  -0.2477531046E+01   0.1998017027E+01   0.7994402085E+00   0.1424933688E-02  -0.1982973382E-02  -0.5598034810E-03   0.0000000000E+00   0.0000000000E+00   0.0000000000E+00   0.1492860693E+00  -0.2039736028E-03  -0.4986392045E-03   0.1314418889E-02  -0.6273210133E-03   0.1363611439E-03
  -0.2287303206E+01   0.1210708775E+01   0.7994902042E+00   0.1323943767E-02  -0.1506415169E-02  -0.5098077966E-03   0.0000000000E+00   0.0000000000E+00   0.0000000000E+00   0.1132598092E+00   0.3179671488E-02  -0.1279895641E-04   0.1362216389E-01  -0.2578006156E-04   0.1129110699E-03
  -0.2277978357E+01   0.1407316702E+01   0.7994753164E+00   0.1451793416E-02  -0.1620518256E-02  -0.5246956339E-03   0.0000000000E+00   0.0000000000E+00   0.0000000000E+00   0.1246646546E+00   0.1615074723E-02   0.4153713586E-05   0.1205975042E-01  -0.3060176128E-04   0.6020818375E-04
  -0.2274325005E+01   0.1604069349E+01   0.7994598656E+00   0.1566774579E-02  -0.1747251495E-02  -0.5401464265E-03   0.0000000000E+00   0.0000000000E+00   0.0000000000E+00   0.1355387441E+00   0.6888492942E-03  -0.1506398842E-03   0.9566012777E-02  -0.1010270212E-03   0.7093744810E-04
  -0.2273323996E+01   0.1800989036E+01   0.7994451494E+00   0.1664174039E-02  -0.1885293860E-02  -0.5548625963E-03   0.0000000000E+00   0.0000000000E+00   0.0000000000E+00   0.1469201154E+00   0.4144510777E-03   0.4187058672E-03   0.5119650749E-02  -0.2282456454E-03   0.2146043756E-03
  -0.2273018955E+01   0.1997964890E+01   0.7994309739E+00   0.1738194922E-02  -0.2035110108E-02  -0.5690380885E-03   0.0000000000E+00   0.0000000000E+00   0.0000000000E+00   0.1556558382E+00  -0.2976895839E-03  -0.4437652006E-03   0.1521007560E-02  -0.7363960952E-03   0.1743414291E-03
  -0.2085620946E+01   0.1212683758E+01   0.7994918739E+00   0.1552994294E-02  -0.1554171756E-02  -0.5081381074E-03   0.0000000000E+00   0.0000000000E+00   0.0000000000E+00   0.1148244308E+00   0.5594997004E-03  -0.2259391961E-04   0.1512413319E-01  -0.1507838648E-04   0.1116889782E-03
  -0.2074628469E+01   0.1408737351E+01   0.7994742848E+00   0.1707911033E-02  -0.1676149156E-02  -0.5257272006E-03   0.0000000000E+00   0.0000000000E+00   0.0000000000E+00   0.1273076511E+00  -0.3684379993E-03   0.3774563389E-04   0.1279464421E-01  -0.3864229328E-04   0.3494778755E-04
  -0.2070230286E+01   0.1604965510E+01   0.7994559747E+00   0.1847223653E-02  -0.1809059729E-02  -0.5440372914E-03   0.0000000000E+00   0.0000000000E+00   0.0000000000E+00   0.1389567314E+00  -0.4873322318E-03  -0.2661751797E-03   0.9784165879E-02  -0.1107085802E-03   0.9393223904E-05
  -0.2068948476E+01   0.1801393453E+01   0.7994384159E+00   0.1968174113E-02  -0.1952467317E-02  -0.5615960799E-03   0.0000000000E+00   0.0000000000E+00   0.0000000000E+00   0.1518868475E+00   0.1548536710E-03   0.6427938225E-03   0.5186122466E-02  -0.2614631460E-03   0.2059458179E-03
  -0.2068499405E+01   0.1997891753E+01   0.7994214649E+00   0.2065104922E-02  -0.2108247309E-02  -0.5785470744E-03   0.0000000000E+00   0.0000000000E+00   0.0000000000E+00   0.1623610990E+00  -0.4598129781E-03  -0.4632212523E-03   0.1451779760E-02  -0.7490108579E-03   0.2170077484E-03
  -0.1884026535E+01   0.1214617240E+01   0.7994939662E+00   0.1789804736E-02  -0.1622450001E-02  -0.5060458387E-03   0.0000000000E+00   0.0000000000E+00   0.0000000000E+00   0.1174804766E+00  -0.3307787531E-02  -0.5019589468E-05   0.1586783368E-01   0.3639152569E-05   0.1092184019E-03
  -0.1871324845E+01   0.1410140255E+01   0.7994735023E+00   0.1972604907E-02  -0.1755615318E-02  -0.5265096670E-03   0.0000000000E+00   0.0000000000E+00   0.0000000000E+00   0.1307263917E+00  -0.3289520293E-02   0.1400053896E-04   0.1242788409E-01  -0.1758685568E-04  -0.1658160610E-04
  -0.1866155824E+01   0.1605853485E+01   0.7994524708E+00   0.2136865514E-02  -0.1897405144E-02  -0.5475412326E-03   0.0000000000E+00   0.0000000000E+00   0.0000000000E+00   0.1426905620E+00  -0.2139509530E-02  -0.2684965632E-03   0.8875370145E-02  -0.1098380571E-03  -0.6275728263E-04
  -0.1864578476E+01   0.1801790122E+01   0.7994323592E+00   0.2281914011E-02  -0.2046697632E-02  -0.5676528472E-03   0.0000000000E+00   0.0000000000E+00   0.0000000000E+00   0.1565732114E+00  -0.3625562314E-03   0.7602820732E-03   0.4509973044E-02  -0.2304731232E-03   0.1740917783E-03
  -0.1863971056E+01   0.1997791419E+01   0.7994129559E+00   0.2406293924E-02  -0.2208580690E-02  -0.5870560678E-03   0.0000000000E+00   0.0000000000E+00   0.0000000000E+00   0.1687876193E+00  -0.6041924526E-03  -0.2228934999E-03   0.1347905573E-02  -0.6194362331E-03   0.2626241963E-03
  -0.1680810702E+01   0.1216748735E+01   0.7994958831E+00   0.2040608095E-02  -0.1718505274E-02  -0.5041289131E-03   0.0000000000E+00   0.0000000000E+00   0.0000000000E+00   0.1217576477E+00  -0.8578885953E-02   0.6442554697E-04   0.1555047286E-01   0.7911518632E-04   0.6021807358E-04
  -0.1667644055E+01   0.1411623997E+01   0.7994726802E+00   0.2249685455E-02  -0.1867252555E-02  -0.5273318390E-03   0.0000000000E+00   0.0000000000E+00   0.0000000000E+00   0.1351952250E+00  -0.7107295765E-02   0.9496227615E-04   0.1056127606E-01   0.1245348547E-04  -0.6819513286E-04
  -0.1661987852E+01   0.1606825443E+01   0.7994496496E+00   0.2436327815E-02  -0.2019557022E-02  -0.5503624174E-03   0.0000000000E+00   0.0000000000E+00   0.0000000000E+00   0.1464590764E+00  -0.4416017026E-02  -0.4300383388E-03   0.6399248940E-02  -0.5485976508E-04  -0.1678062626E-03
  -0.1660171739E+01   0.1802242960E+01   0.7994279803E+00   0.2605210870E-02  -0.2175480007E-02  -0.5720316572E-03   0.0000000000E+00   0.0000000000E+00   0.0000000000E+00   0.1604335991E+00  -0.9535232485E-03   0.1068219986E-02   0.2912807428E-02  -0.1420648762E-03   0.1298588372E-03
  -0.1659429548E+01   0.1997657954E+01   0.7994072739E+00   0.2758982107E-02  -0.2342045874E-02  -0.5927381312E-03   0.0000000000E+00   0.0000000000E+00   0.0000000000E+00   0.1735049101E+00  -0.8053882824E-03  -0.1045673105E-03   0.6980677599E-03  -0.2182539869E-03   0.2970357345E-03
  -0.1478716400E+01   0.1218670614E+01   0.7994962982E+00   0.2306669799E-02  -0.1850116196E-02  -0.5037138349E-03   0.0000000000E+00   0.0000000000E+00   0.0000000000E+00   0.1281803288E+00  -0.1478026054E-01   0.1480818532E-03   0.1346445449E-01   0.1389230809E-03  -0.3437866821E-04
  -0.1463993257E+01   0.1413322564E+01   0.7994708709E+00   0.2541352830E-02  -0.2018216168E-02  -0.5291411482E-03   0.0000000000E+00   0.0000000000E+00   0.0000000000E+00   0.1407602993E+00  -0.1151004221E-01  -0.3214915492E-04   0.6738176449E-02   0.6776657933E-04  -0.1678648333E-03
  -0.1457682332E+01   0.1608133945E+01   0.7994474676E+00   0.2747097503E-02  -0.2183764646E-02  -0.5525444292E-03   0.0000000000E+00   0.0000000000E+00   0.0000000000E+00   0.1502541063E+00  -0.6802999361E-02  -0.3112733388E-03   0.2021094335E-02   0.1112710480E-04  -0.2514983839E-03
  -0.1455681973E+01   0.1802920660E+01   0.7994263485E+00   0.2934877339E-02  -0.2345240032E-02  -0.5736635347E-03   0.0000000000E+00   0.0000000000E+00   0.0000000000E+00   0.1623529522E+00  -0.1796934604E-02   0.1048123140E-02   0.7114341427E-04   0.7643847070E-04   0.6290311866E-04
  -0.1454880166E+01   0.1997485885E+01   0.7994065301E+00   0.3119064223E-02  -0.2514115400E-02  -0.5934818763E-03   0.0000000000E+00   0.0000000000E+00   0.0000000000E+00   0.1752177336E+00  -0.9062782000E-03   0.3844270659E-03  -0.6557904731E-05   0.4661404511E-03   0.3143317675E-03
  -0.1270742646E+01   0.1220586468E+01   0.7994920238E+00   0.2602823513E-02  -0.2031162109E-02  -0.5079882387E-03   0.0000000000E+00   0.0000000000E+00   0.0000000000E+00   0.1370266094E+00  -0.2066330262E-01   0.4016578026E-04   0.9395449464E-02   0.1573672912E-03  -0.1819518568E-03
  -0.1258122700E+01   0.1415771172E+01   0.7994661213E+00   0.2854810250E-02  -0.2219628264E-02  -0.5338907203E-03   0.0000000000E+00   0.0000000000E+00   0.0000000000E+00   0.1477778906E+00  -0.1527346640E-01   0.1934203093E-03   0.8240553573E-03   0.6124114332E-04  -0.2524658131E-03
  -0.1252418839E+01   0.1610325906E+01   0.7994453755E+00   0.3069200944E-02  -0.2395774406E-02  -0.5546364930E-03   0.0000000000E+00   0.0000000000E+00   0.0000000000E+00   0.1533733710E+00  -0.8849884722E-02  -0.5069578865E-03  -0.4232740217E-02   0.1178012339E-03  -0.3117250975E-03
  -0.1250925669E+01   0.1804146592E+01   0.7994282943E+00   0.3268350722E-02  -0.2560427510E-02  -0.5717177261E-03   0.0000000000E+00   0.0000000000E+00   0.0000000000E+00   0.1616804607E+00  -0.2380874744E-02   0.1189341998E-02  -0.3782070290E-02   0.3648610168E-03   0.1340031672E-04
  -0.1250463225E+01   0.1997273965E+01   0.7994128169E+00   0.3476285042E-02  -0.2726034867E-02  -0.5871950916E-03   0.0000000000E+00   0.0000000000E+00   0.0000000000E+00   0.1717416194E+00  -0.9217348295E-03   0.5445041097E-03  -0.1457568209E-02   0.1506662611E-02   0.2831812516E-03
  -0.1066203401E+01   0.1223239513E+01   0.7994780586E+00   0.2921539446E-02  -0.2265596617E-02  -0.5219533835E-03   0.0000000000E+00   0.0000000000E+00   0.0000000000E+00   0.1485381975E+00  -0.2362591835E-01  -0.2808329299E-04   0.3118967883E-02  -0.1699236120E-03  -0.4167524304E-03
  -0.1051125664E+01   0.1419485281E+01   0.7994553581E+00   0.3188946429E-02  -0.2473518804E-02  -0.5446539339E-03   0.0000000000E+00   0.0000000000E+00   0.0000000000E+00   0.1554636694E+00  -0.1663053445E-01  -0.2393149311E-03  -0.6751309351E-02  -0.1431494951E-03  -0.2622357888E-03
  -0.1046081105E+01   0.1613506977E+01   0.7994424904E+00   0.3401714778E-02  -0.2656752994E-02  -0.5575216061E-03   0.0000000000E+00   0.0000000000E+00   0.0000000000E+00   0.1557275231E+00  -0.9110595769E-02  -0.1839870289E-03  -0.1171222468E-01   0.2072157252E-03  -0.1877100825E-03
  -0.1045815070E+01   0.1805613554E+01   0.7994343230E+00   0.3597420160E-02  -0.2817716000E-02  -0.5656890238E-03   0.0000000000E+00   0.0000000000E+00   0.0000000000E+00   0.1571258520E+00  -0.2624654978E-02   0.7019936900E-03  -0.8326939365E-02   0.7836431384E-03  -0.2159036850E-04
  -0.1046699967E+01   0.1997026823E+01   0.7994273753E+00   0.3819262707E-02  -0.2973176555E-02  -0.5726367112E-03   0.0000000000E+00   0.0000000000E+00   0.0000000000E+00   0.1622926710E+00  -0.7017165145E-03   0.9502318104E-03  -0.2542694459E-02   0.2677563492E-02   0.1933079652E-03
  -0.8568598780E+00   0.1225222821E+01   0.7994467924E+00   0.3273769980E-02  -0.2557758821E-02  -0.5532195796E-03   0.0000000000E+00   0.0000000000E+00   0.0000000000E+00   0.1631920876E+00  -0.1891002271E-01  -0.2288823009E-03  -0.1364863724E-02  -0.1165395079E-02  -0.3325887634E-03
  -0.8406685345E+00   0.1423432427E+01   0.7994356308E+00   0.3546024530E-02  -0.2777852544E-02  -0.5643811670E-03   0.0000000000E+00   0.0000000000E+00   0.0000000000E+00   0.1642869779E+00  -0.1284533490E-01   0.5046100663E-04  -0.1484407101E-01  -0.3841456111E-03   0.2142552963E-03
  -0.8373380910E+00   0.1616354203E+01   0.7994383619E+00   0.3737806034E-02  -0.2955456839E-02  -0.5616501346E-03   0.0000000000E+00   0.0000000000E+00   0.0000000000E+00   0.1557388865E+00  -0.6755499932E-02  -0.3900022235E-03  -0.1847499813E-01   0.4022462706E-03   0.1419232204E-03
  -0.8390573574E+00   0.1806817972E+01   0.7994441428E+00   0.3917424564E-02  -0.3106157881E-02  -0.5558691756E-03   0.0000000000E+00   0.0000000000E+00   0.0000000000E+00   0.1489390386E+00  -0.2168152487E-02   0.1775266537E-03  -0.1219023146E-01   0.1141067397E-02  -0.8198335654E-04
  -0.8445669906E+00   0.1996759404E+01   0.7994496964E+00   0.4131148369E-02  -0.3240596303E-02  -0.5503156389E-03   0.0000000000E+00   0.0000000000E+00   0.0000000000E+00   0.1461118506E+00  -0.2667999126E-03   0.8118658557E-03  -0.4119549905E-02   0.3774708385E-02   0.8538552319E-04
   0.6337146290E+00  -0.1762222436E+01   0.7993615549E+00   0.5934430050E-02  -0.1305560977E-03  -0.6384571239E-03   0.0000000000E+00   0.0000000000E+00   0.0000000000E+00   0.1709751594E+00   0.2928545911E-01  -0.6950029668E-03   0.9203261968E-03  -0.1370394155E-03  -0.1656694076E-03
   0.4249575078E+00  -0.1769890563E+01   0.7993389760E+00   0.5613827823E-02  -0.9526258585E-04  -0.6610360489E-03   0.0000000000E+00   0.0000000000E+00   0.0000000000E+00   0.1722707291E+00   0.4340109486E-01  -0.2291656107E-03  -0.1001167439E-03  -0.1275373539E-03  -0.1626068164E-03
   0.4157728005E+00  -0.2000000000E+01   0.7993438168E+00   0.5584513544E-02   0.0000000000E+00  -0.6561951553E-03   0.0000000000E+00   0.0000000000E+00   0.0000000000E+00   0.1689962167E+00   0.4390757210E-01  -0.3338403275E-03   0.1220058945E-02  -0.1330373376E-03  -0.5668044117E-03
   0.6236411788E+00  -0.2000000000E+01   0.7993636301E+00   0.5896434829E-02   0.0000000000E+00  -0.6363819312E-03   0.0000000000E+00   0.0000000000E+00   0.0000000000E+00   0.1691899714E+00   0.3091084089E-01   0.1182915938E-03   0.1595264831E-02  -0.2871455822E-03  -0.2999596167E-03
   0.2161175519E+00  -0.1777869167E+01   0.7993236066E+00   0.5304535857E-02  -0.6991689318E-04  -0.6764054449E-03   0.0000000000E+00   0.0000000000E+00   0.0000000000E+00   0.1722859150E+00   0.5333126706E-01  -0.4538637372E-03  -0.3665127136E-03  -0.3136973004E-04  -0.2602061540E-03
   0.2069598013E+00  -0.2000000000E+01   0.7993301613E+00   0.5283835331E-02   0.0000000000E+00  -0.6698507176E-03   0.0000000000E+00   0.0000000000E+00   0.0000000000E+00   0.1687174697E+00   0.5358601812E-01  -0.1584347490E-03   0.6338952659E-03  -0.1015310323E-03  -0.6496742295E-03
   0.6254149013E-02  -0.1782714012E+01   0.7993180474E+00   0.5001837263E-02  -0.6020172368E-04  -0.6819645704E-03   0.0000000000E+00   0.0000000000E+00   0.0000000000E+00   0.1719555528E+00   0.5720971257E-01  -0.5376632123E-03   0.7175626347E-05  -0.7106376560E-05  -0.3273281114E-03
  -0.5394042711E-02  -0.2000000000E+01   0.7993256968E+00   0.4985291289E-02   0.0000000000E+00  -0.6743151908E-03   0.0000000000E+00   0.0000000000E+00   0.0000000000E+00   0.1685927053E+00   0.5690351871E-01  -0.1707126455E-03   0.6151341720E-05  -0.1113620629E-04  -0.7428284945E-03
  -0.2014700141E+00  -0.1784596082E+01   0.7993238388E+00   0.4702675883E-02  -0.6735215597E-04  -0.6761732399E-03   0.0000000000E+00   0.0000000000E+00   0.0000000000E+00   0.1720266510E+00   0.5356309056E-01  -0.4553886990E-03   0.4362212997E-03  -0.3147443854E-05  -0.2467743360E-03
  -0.2151671353E+00  -0.2000000000E+01   0.7993311536E+00   0.4690125650E-02   0.0000000000E+00  -0.6688583783E-03   0.0000000000E+00   0.0000000000E+00   0.0000000000E+00   0.1687070647E+00   0.5323108908E-01  -0.1569805555E-03  -0.6464413750E-03   0.9227799760E-04  -0.6341141934E-03
  -0.4109634496E+00  -0.1783990313E+01   0.7993392352E+00   0.4394080429E-02  -0.8862320306E-04  -0.6607767928E-03   0.0000000000E+00   0.0000000000E+00   0.0000000000E+00   0.1718441504E+00   0.4384641446E-01  -0.2812757756E-03   0.1737007577E-03   0.1559434197E-03  -0.1388831486E-03
  -0.4215162725E+00  -0.2000000000E+01   0.7993453267E+00   0.4392084481E-02   0.0000000000E+00  -0.6546853140E-03   0.0000000000E+00   0.0000000000E+00   0.0000000000E+00   0.1689631322E+00   0.4345045297E-01  -0.2575151332E-03  -0.1157838673E-02   0.1285309393E-03  -0.5725728100E-03
   0.6503374514E+00  -0.1523337841E+01   0.7993558675E+00   0.6040447415E-02  -0.2750114590E-03  -0.6441445378E-03   0.0000000000E+00   0.0000000000E+00   0.0000000000E+00   0.1771125399E+00   0.2616959212E-01   0.2967291243E-03   0.5986214392E-02  -0.1053688724E-04  -0.7110220684E-03
   0.4394431060E+00  -0.1542182068E+01   0.7993254961E+00   0.5690659042E-02  -0.2031082775E-03  -0.6745159008E-03   0.0000000000E+00   0.0000000000E+00   0.0000000000E+00   0.1812387291E+00   0.4033269875E-01  -0.5027466050E-03   0.3134233646E-02   0.2577914458E-03  -0.1192710055E-02
   0.2297754468E+00  -0.1559701250E+01   0.7993037702E+00   0.5352648820E-02  -0.1496499153E-03  -0.6962417606E-03   0.0000000000E+00   0.0000000000E+00   0.0000000000E+00   0.1836017274E+00   0.5163252047E-01  -0.5059990707E-03   0.1420169554E-02   0.2764829590E-03  -0.1622086632E-02
   0.2167394149E-01  -0.1569962922E+01   0.7992957486E+00   0.5026099692E-02  -0.1275019740E-03  -0.7042633698E-03   0.0000000000E+00   0.0000000000E+00   0.0000000000E+00   0.1846320335E+00   0.5622306723E-01  -0.1080741533E-03   0.1193691015E-03   0.1974800816E-04  -0.1762634657E-02
  -0.1858742817E+00  -0.1572695027E+01   0.7993029487E+00   0.4703165296E-02  -0.1393667379E-03  -0.6970632611E-03   0.0000000000E+00   0.0000000000E+00   0.0000000000E+00   0.1830150419E+00   0.5296185918E-01  -0.4410308684E-03  -0.1013992462E-02  -0.2569252688E-03  -0.1633262479E-02
  -0.3945148882E+00  -0.1568869242E+01   0.7993235617E+00   0.4374206832E-02  -0.1808523829E-03  -0.6764502990E-03   0.0000000000E+00   0.0000000000E+00   0.0000000000E+00   0.1804283537E+00   0.4275972798E-01  -0.3575523115E-03  -0.2286256777E-02  -0.2480965703E-03  -0.1166045598E-02
   0.6756464924E+00  -0.1279968435E+01   0.7993511416E+00   0.6253787433E-02  -0.4484050427E-03  -0.6488704474E-03   0.0000000000E+00   0.0000000000E+00   0.0000000000E+00   0.1825378236E+00   0.1888631554E-01  -0.2511964604E-02   0.1789138228E-01   0.9192816515E-03  -0.1157749071E-02
   0.4549809616E+00  -0.1319023783E+01   0.7993022841E+00   0.5837641589E-02  -0.3299028459E-03  -0.6977279428E-03   0.0000000000E+00   0.0000000000E+00   0.0000000000E+00   0.1941896544E+00   0.3689150338E-01  -0.2525732408E-02   0.1319165286E-01   0.1314881471E-02  -0.1946129999E-02
   0.2421073453E+00  -0.1350483611E+01   0.7992688569E+00   0.5438922272E-02  -0.2489806569E-03  -0.7311550644E-03   0.0000000000E+00   0.0000000000E+00   0.0000000000E+00   0.2049696861E+00   0.4830838225E-01  -0.2007978432E-02   0.7727620775E-02   0.8150645491E-03  -0.2780389807E-02
   0.3418937454E-01  -0.1366996711E+01   0.7992562090E+00   0.5053780441E-02  -0.2161912793E-03  -0.7438029549E-03   0.0000000000E+00   0.0000000000E+00   0.0000000000E+00   0.2083642693E+00   0.5189779222E-01  -0.2728369386E-02   0.6902292782E-03   0.1290784433E-03  -0.3023962619E-02
  -0.1743722459E+00  -0.1367791504E+01   0.7992652726E+00   0.4673014118E-02  -0.2282541436E-03  -0.7347393647E-03   0.0000000000E+00   0.0000000000E+00   0.0000000000E+00   0.2044912159E+00   0.5075530869E-01  -0.2181216887E-02  -0.5918052445E-02  -0.5273840318E-03  -0.2934973396E-02
  -0.3837472345E+00  -0.1355288970E+01   0.7992941419E+00   0.4296467501E-02  -0.2863304713E-03  -0.7058700835E-03   0.0000000000E+00   0.0000000000E+00   0.0000000000E+00   0.1939387732E+00   0.4110110838E-01  -0.3305427118E-02  -0.9970256998E-02  -0.1121866047E-02  -0.2358182031E-02
   0.7083403115E+00  -0.1013750982E+01   0.7993666440E+00   0.6682897505E-02  -0.6405818900E-03  -0.6333679659E-03   0.0000000000E+00   0.0000000000E+00   0.0000000000E+00   0.1682510194E+00   0.2881519215E-01   0.2114492979E-02   0.4799424588E-01   0.1926291786E-02   0.3682688269E-04
   0.4624393176E+00  -0.1104351555E+01   0.7992818465E+00   0.6103743550E-02  -0.4709153355E-03  -0.7181654800E-03   0.0000000000E+00   0.0000000000E+00   0.0000000000E+00   0.2159077209E+00   0.4057473069E-01   0.5908272078E-02   0.4500713128E-01   0.2598379988E-02  -0.1155760198E-02
   0.2470439249E+00  -0.1157498689E+01   0.7992307303E+00   0.5580859883E-02  -0.3822793480E-03  -0.7692816739E-03   0.0000000000E+00   0.0000000000E+00   0.0000000000E+00   0.2517859300E+00   0.3868032204E-01   0.5739070371E-02   0.2989679565E-01   0.1537299889E-02  -0.1436642500E-02
   0.4221111952E-01  -0.1180227976E+01   0.7992117054E+00   0.5089160519E-02  -0.3458059268E-03  -0.7883065898E-03   0.0000000000E+00   0.0000000000E+00   0.0000000000E+00   0.2640351445E+00   0.3734670585E-01   0.5855881668E-02   0.5301600747E-02   0.2213255400E-03  -0.1786130988E-02
  -0.1620895157E+00  -0.1176269866E+01   0.7992218542E+00   0.4605930306E-02  -0.3560559907E-03  -0.7781578387E-03   0.0000000000E+00   0.0000000000E+00   0.0000000000E+00   0.2572903951E+00   0.3846264212E-01   0.6022343674E-02  -0.1993449100E-01  -0.1021258362E-02  -0.1659773056E-02
  -0.3746938198E+00  -0.1145725781E+01   0.7992618669E+00   0.4113695217E-02  -0.4146614712E-03  -0.7381451414E-03   0.0000000000E+00   0.0000000000E+00   0.0000000000E+00   0.2274092912E+00   0.4061192171E-01   0.6564082859E-02  -0.3666150048E-01  -0.2039023951E-02  -0.1482701597E-02
  -0.1295251932E+00  -0.9915645958E+00   0.7991781781E+00   0.4532656830E-02  -0.5910638493E-03  -0.8218338567E-03   0.0000000000E+00   0.0000000000E+00   0.0000000000E+00   0.3305700607E+00   0.1253110645E-01   0.1245414109E-02  -0.4129037582E-01  -0.2154591455E-02   0.9940522817E-03
  -0.3065116523E+00  -0.9511981326E+00   0.7992203858E+00   0.3917205666E-02  -0.6015015751E-03  -0.7796262039E-03   0.0000000000E+00   0.0000000000E+00   0.0000000000E+00   0.2787432684E+00   0.3075066811E-01   0.4576288751E-03  -0.8039432992E-01  -0.4596481192E-02   0.2513949628E-02
   0.4576555450E-01  -0.9997639970E+00   0.7991692838E+00   0.5144832597E-02  -0.5893429566E-03  -0.8307281943E-03   0.0000000000E+00   0.0000000000E+00   0.0000000000E+00   0.3421963236E+00   0.7555814930E-02   0.1987851905E-02   0.1124417914E-01   0.5239984403E-03   0.7324382597E-03
   0.2220610049E+00  -0.9769220103E+00   0.7991925781E+00   0.5760993922E-02  -0.5950683330E-03  -0.8074338940E-03   0.0000000000E+00   0.0000000000E+00   0.0000000000E+00   0.3149362696E+00   0.1872193740E-01   0.1845617557E-02   0.6131649996E-01   0.3234286249E-02   0.1256578124E-02
   0.4014864661E+00  -0.9192515138E+00   0.7992508011E+00   0.6386409111E-02  -0.6134038123E-03  -0.7492109142E-03   0.0000000000E+00   0.0000000000E+00   0.0000000000E+00   0.2477483862E+00   0.4068057101E-01   0.1194174216E-02   0.9200491304E-01   0.5520883407E-02   0.3060518243E-02
   0.5805610881E+00  -0.8198276367E+00   0.7993477147E+00   0.7010566064E-02  -0.6574596558E-03  -0.6522973349E-03   0.0000000000E+00   0.0000000000E+00   0.0000000000E+00   0.1691361837E+00   0.5872042498E-01   0.2829203525E-03   0.9573876746E-01   0.7132858711E-02   0.5526083117E-02
   0.8643931083E+00  -0.7844715989E+00   0.7994674601E+00   0.7405870278E-02  -0.8544009289E-03  -0.5325519032E-03   0.0000000000E+00   0.0000000000E+00   0.0000000000E+00   0.1023802540E+00   0.2850998933E-01   0.3450679707E-02   0.5521199691E-01   0.1664956213E-02   0.3462261058E-02
   0.7403151860E+00  -0.6812702765E+00   0.7994667175E+00   0.7606255035E-02  -0.7281654988E-03  -0.5332945374E-03   0.0000000000E+00   0.0000000000E+00   0.0000000000E+00   0.8334446106E-01   0.5808329786E-01  -0.1254369560E-02   0.6396241990E-01   0.6739934660E-02   0.7092946463E-02
   0.9854636542E+00  -0.5799732452E+00   0.7995774276E+00   0.7970725225E-02  -0.1011873238E-02  -0.4225843824E-03   0.0000000000E+00   0.0000000000E+00   0.0000000000E+00   0.4888190286E-01   0.4579221500E-02  -0.3521149964E-02   0.3690550394E-01   0.1521224639E-02   0.5002611114E-02
   0.8628927389E+00  -0.5197620224E+00   0.7995888602E+00   0.8067420906E-02  -0.8461304109E-03  -0.4111517830E-03   0.0000000000E+00   0.0000000000E+00   0.0000000000E+00   0.2342056930E-01   0.2205744707E-01  -0.2926109207E-02   0.2430333696E-01   0.5646400223E-02   0.9416515804E-02
   0.1071607047E+01  -0.3839715147E+00   0.7996684655E+00   0.8372716772E-02  -0.1149149691E-02  -0.3315465353E-03   0.0000000000E+00   0.0000000000E+00   0.0000000000E+00   0.1787767836E-01  -0.2541477810E-01  -0.4155370253E-02   0.2026946207E-01   0.1033389139E-03   0.4515511525E-02
   0.9460932164E+00  -0.3484326105E+00   0.7996937923E+00   0.8390560385E-02  -0.9938575037E-03  -0.3062196757E-03   0.0000000000E+00   0.0000000000E+00   0.0000000000E+00   0.3556397071E-02  -0.3535094972E-01  -0.5239857911E-02  -0.4565317758E-02   0.3460142285E-02   0.8491348662E-02
   0.1120738876E+01  -0.1928415033E+00   0.7997302507E+00   0.8625515666E-02  -0.1263517315E-02  -0.2697613330E-03   0.0000000000E+00   0.0000000000E+00   0.0000000000E+00   0.1929863435E-02  -0.5175834505E-01  -0.6121260997E-02   0.1105741197E-01  -0.1073168233E-02   0.3135973002E-02
   0.9933000023E+00  -0.1753608789E+00   0.7997676477E+00   0.8588474289E-02  -0.1167928941E-02  -0.2323643157E-03   0.0000000000E+00   0.0000000000E+00   0.0000000000E+00   0.6054704585E-03  -0.8712602309E-01  -0.6135309303E-02  -0.8937015090E-02   0.1550691981E-02   0.6085015790E-02
   0.1256427060E+01  -0.1990288435E+00   0.7996928959E+00   0.8655439971E-02  -0.1302176486E-02  -0.3071161108E-03   0.0000000000E+00   0.0000000000E+00   0.0000000000E+00   0.1374228249E-01  -0.2365857759E-01   0.1292696771E-02   0.2633678533E-01  -0.2546163393E-02   0.1776589520E-02
   0.1411396580E+01  -0.2033915962E+00   0.7996527511E+00   0.8693529770E-02  -0.1297950228E-02  -0.3472609455E-03   0.0000000000E+00   0.0000000000E+00   0.0000000000E+00   0.2489489904E-01  -0.9464040233E-02   0.6922738339E-03   0.2933234002E-01  -0.2155175778E-02   0.7863312383E-03
   0.1580465241E+01  -0.2067481927E+00   0.7996182545E+00   0.8745471447E-02  -0.1266335735E-02  -0.3817575155E-03   0.0000000000E+00   0.0000000000E+00   0.0000000000E+00   0.3593115067E-01  -0.2566433126E-03   0.8276484792E-03   0.2861743208E-01  -0.1128470823E-02   0.2958795923E-03
   0.1754377413E+01  -0.2092015122E+00   0.7995916975E+00   0.8812713421E-02  -0.1220909237E-02  -0.4083145459E-03   0.0000000000E+00   0.0000000000E+00   0.0000000000E+00   0.4616685473E-01   0.4608654199E-02   0.5346952035E-03   0.2579277679E-01  -0.4501047805E-03   0.6624985947E-04
   0.1928618026E+01  -0.2109256848E+00   0.7995725166E+00   0.8894035593E-02  -0.1171753809E-02  -0.4274953529E-03   0.0000000000E+00   0.0000000000E+00   0.0000000000E+00   0.5484109359E-01   0.7394959750E-02   0.2407754174E-03   0.2251913177E-01  -0.5356389041E-04  -0.5319511135E-05
   0.2111188957E+01  -0.2135751060E+00   0.7995578644E+00   0.8992267122E-02  -0.1121173968E-02  -0.4421476214E-03   0.0000000000E+00   0.0000000000E+00   0.0000000000E+00   0.6232645456E-01   0.8985317343E-02   0.9692133025E-04   0.1914604229E-01   0.6969160160E-04  -0.6865716392E-05
   0.2294972005E+01  -0.2158993766E+00   0.7995471226E+00   0.9102885443E-02  -0.1074252597E-02  -0.4528893614E-03   0.0000000000E+00   0.0000000000E+00   0.0000000000E+00   0.6824144431E-01   0.9900936135E-02  -0.5194195758E-05   0.1599417206E-01   0.8323989826E-04  -0.2359447451E-05
   0.2457703918E+01  -0.2152976861E+00   0.7995399641E+00   0.9209487750E-02  -0.1037838055E-02  -0.4600479461E-03   0.0000000000E+00   0.0000000000E+00   0.0000000000E+00   0.7276414196E-01   0.1029601463E-01  -0.1631737406E-05   0.1328717772E-01   0.9170197810E-04   0.2980896521E-05
   0.2628075009E+01  -0.2157894962E+00   0.7995341996E+00   0.9327299183E-02  -0.1004367220E-02  -0.4658124171E-03   0.0000000000E+00   0.0000000000E+00   0.0000000000E+00   0.7632399240E-01   0.1051327675E-01  -0.1508376034E-04   0.1073462159E-01   0.5998922076E-04   0.4243332013E-05
   0.2802937626E+01  -0.2169829889E+00   0.7995297371E+00   0.9453895582E-02  -0.9758759406E-03  -0.4702749202E-03   0.0000000000E+00   0.0000000000E+00   0.0000000000E+00   0.7930372762E-01   0.1055998503E-01  -0.4421910989E-05   0.8341577072E-02   0.4052183452E-04   0.6953530193E-05
   0.2978608121E+01  -0.2182291115E+00   0.7995264844E+00   0.9585611356E-02  -0.9532235281E-03  -0.4735276351E-03   0.0000000000E+00   0.0000000000E+00   0.0000000000E+00   0.8152093127E-01   0.1054050318E-01  -0.7959860266E-06   0.6100958790E-02   0.2833138946E-04   0.7357323572E-05
   0.3155232142E+01  -0.2194753781E+00   0.7995242662E+00   0.9721472258E-02  -0.9369601063E-03  -0.4757458019E-03   0.0000000000E+00   0.0000000000E+00   0.0000000000E+00   0.8306641949E-01   0.1047637316E-01  -0.5662645018E-05   0.4027465305E-02   0.1325540418E-04   0.1081062308E-04
   0.3332348270E+01  -0.2203501747E+00   0.7995229776E+00   0.9859959549E-02  -0.9269697416E-03  -0.4770343925E-03   0.0000000000E+00   0.0000000000E+00   0.0000000000E+00   0.8398041463E-01   0.1043490499E-01  -0.3881661389E-06   0.1896407615E-02   0.2009612515E-04   0.9974895870E-05
   0.3510000000E+01  -0.2211481569E+00   0.7995225556E+00   0.1000000000E-01  -0.9235829175E-03  -0.4774564330E-03   0.0000000000E+00   0.0000000000E+00   0.0000000000E+00   0.8428153880E-01   0.1041150150E-01  -0.2816619007E-05   0.3211552383E-03  -0.4622292216E-04   0.1183698876E-04
   0.1210713597E+01  -0.3971458393E+00   0.7996469784E+00   0.8407566639E-02  -0.1225026348E-02  -0.3530336218E-03   0.0000000000E+00   0.0000000000E+00   0.0000000000E+00   0.3662526963E-01  -0.1844807217E-01   0.8501802507E-03   0.3820043738E-01  -0.1519348464E-02   0.2600499685E-02
   0.1373620923E+01  -0.4070865221E+00   0.7996206338E+00   0.8473333157E-02  -0.1243592115E-02  -0.3793781667E-03   0.0000000000E+00   0.0000000000E+00   0.0000000000E+00   0.4598847570E-01  -0.1162858034E-01   0.2045793818E-03   0.4154895093E-01  -0.1515784220E-02   0.1269045817E-02
   0.1544061330E+01  -0.4130243197E+00   0.7995975486E+00   0.8558899646E-02  -0.1221580683E-02  -0.4024634450E-03   0.0000000000E+00   0.0000000000E+00   0.0000000000E+00   0.5402296899E-01  -0.5821138029E-02   0.5887923661E-03   0.4012072957E-01  -0.8099625556E-03   0.4349947586E-03
   0.1719280752E+01  -0.4171709795E+00   0.7995785763E+00   0.8657722196E-02  -0.1178898454E-02  -0.4214357347E-03   0.0000000000E+00   0.0000000000E+00   0.0000000000E+00   0.6018221812E-01  -0.1354435543E-02   0.1697139198E-03   0.3584968156E-01  -0.3533795331E-03   0.7899208274E-04
   0.1896832153E+01  -0.4204950681E+00   0.7995639485E+00   0.8766572640E-02  -0.1127844051E-02  -0.4360635281E-03   0.0000000000E+00   0.0000000000E+00   0.0000000000E+00   0.6580652141E-01   0.1844446123E-02   0.1368300325E-03   0.3108784169E-01  -0.5909380397E-04  -0.3810269806E-04
   0.2074554162E+01  -0.4234176014E+00   0.7995528553E+00   0.8883192477E-02  -0.1075599406E-02  -0.4471567030E-03   0.0000000000E+00   0.0000000000E+00   0.0000000000E+00   0.7059617659E-01   0.3968034702E-02   0.8338870974E-05   0.2636639536E-01   0.5102428076E-04  -0.6293126509E-04
   0.2255440250E+01  -0.4264318317E+00   0.7995442787E+00   0.9008900499E-02  -0.1025196697E-02  -0.4557332899E-03   0.0000000000E+00   0.0000000000E+00   0.0000000000E+00   0.7474556985E-01   0.5335005721E-02   0.2588540392E-04   0.2200003522E-01   0.7130822072E-04  -0.4592386494E-04
   0.2432004775E+01  -0.4287418169E+00   0.7995378811E+00   0.9137474711E-02  -0.9807388801E-03  -0.4621308884E-03   0.0000000000E+00   0.0000000000E+00   0.0000000000E+00   0.7817904140E-01   0.6289291264E-02   0.2668857061E-04   0.1808329300E-01   0.7193701333E-04  -0.3069183685E-04
   0.2609425613E+01  -0.4311308739E+00   0.7995330014E+00   0.9271932544E-02  -0.9421589170E-03  -0.4670105506E-03   0.0000000000E+00   0.0000000000E+00   0.0000000000E+00   0.8088480958E-01   0.6786561592E-02  -0.2090697030E-04   0.1453492139E-01   0.5920469534E-04  -0.1179374161E-04
   0.2788304987E+01  -0.4337142908E+00   0.7995292805E+00   0.9411517339E-02  -0.9094078394E-03  -0.4707314854E-03   0.0000000000E+00   0.0000000000E+00   0.0000000000E+00   0.8303211444E-01   0.7169668346E-02  -0.2306397923E-05   0.1127124644E-01   0.3790438964E-04  -0.7716107722E-05
   0.2967877049E+01  -0.4362781383E+00   0.7995265435E+00   0.9554998901E-02  -0.8836122829E-03  -0.4734685195E-03   0.0000000000E+00   0.0000000000E+00   0.0000000000E+00   0.8467071719E-01   0.7369467231E-02  -0.9363300143E-05   0.8226671852E-02   0.2545509049E-04  -0.1787446177E-05
   0.3148031416E+01  -0.4385461628E+00   0.7995246745E+00   0.9701436323E-02  -0.8647258327E-03  -0.4753375042E-03   0.0000000000E+00   0.0000000000E+00   0.0000000000E+00   0.8581761718E-01   0.7493487413E-02   0.2325888676E-05   0.5420965653E-02   0.1228118203E-04  -0.9806775281E-06
   0.3328708655E+01  -0.4400993741E+00   0.7995235837E+00   0.9850035245E-02  -0.8534051110E-03  -0.4764282715E-03   0.0000000000E+00   0.0000000000E+00   0.0000000000E+00   0.8649650184E-01   0.7541390528E-02  -0.6972243091E-05   0.2555441387E-02   0.1712342151E-04   0.2215289918E-05
   0.3510000000E+01  -0.4413148474E+00   0.7995232259E+00   0.1000000000E-01  -0.8492483726E-03  -0.4767861254E-03   0.0000000000E+00   0.0000000000E+00   0.0000000000E+00   0.8672531096E-01   0.7557802996E-02   0.3993465573E-05   0.4145440345E-03  -0.3768381358E-04   0.8849512918E-06
   0.1137118722E+01  -0.5982746099E+00   0.7995801778E+00   0.8032231527E-02  -0.1115104917E-02  -0.4198342500E-03   0.0000000000E+00   0.0000000000E+00   0.0000000000E+00   0.7041756405E-01  -0.1094188526E-01   0.4116490697E-03   0.4638922219E-01  -0.6124381617E-04   0.2772651425E-02
   0.1306452797E+01  -0.6104902474E+00   0.7995760572E+00   0.8145376953E-02  -0.1152977409E-02  -0.4239547672E-03   0.0000000000E+00   0.0000000000E+00   0.0000000000E+00   0.7662559059E-01  -0.1360468278E-01   0.7927251620E-03   0.4743764432E-01  -0.5556793127E-03   0.1041797507E-02
   0.1483414591E+01  -0.6185573268E+00   0.7995681710E+00   0.8282840731E-02  -0.1144759839E-02  -0.4318410076E-03   0.0000000000E+00   0.0000000000E+00   0.0000000000E+00   0.7871540340E-01  -0.1188563273E-01   0.2720627406E-03   0.4521149680E-01  -0.4583531876E-03   0.2909305615E-03
   0.1664279721E+01  -0.6244923010E+00   0.7995590982E+00   0.8427880568E-02  -0.1110089990E-02  -0.4409137873E-03   0.0000000000E+00   0.0000000000E+00   0.0000000000E+00   0.8009923014E-01  -0.8156208349E-02   0.3976312723E-03   0.4102857028E-01  -0.2473511378E-03  -0.4454845627E-05
   0.1847186480E+01  -0.6294225448E+00   0.7995507950E+00   0.8576549922E-02  -0.1061676794E-02  -0.4492169883E-03   0.0000000000E+00   0.0000000000E+00   0.0000000000E+00   0.8146189077E-01  -0.4982075271E-02   0.1021368377E-03   0.3601246353E-01  -0.6293579615E-04  -0.9959826374E-04
   0.2031043726E+01  -0.6339020835E+00   0.7995437904E+00   0.8727266349E-02  -0.1008998512E-02  -0.4562216197E-03   0.0000000000E+00   0.0000000000E+00   0.0000000000E+00   0.8307211006E-01  -0.2293813540E-02   0.9849982023E-04   0.3085525504E-01   0.2272696727E-04  -0.9737945361E-04
   0.2215872424E+01  -0.6382129124E+00   0.7995381115E+00   0.8880514343E-02  -0.9567073714E-03  -0.4619004524E-03   0.0000000000E+00   0.0000000000E+00   0.0000000000E+00   0.8462970888E-01  -0.3351226386E-03  -0.2416432055E-04   0.2590304434E-01   0.4965119491E-04  -0.8175786003E-04
   0.2399895425E+01  -0.6422828881E+00   0.7995335951E+00   0.9035104948E-02  -0.9087771482E-03  -0.4664169257E-03   0.0000000000E+00   0.0000000000E+00   0.0000000000E+00   0.8613932267E-01   0.1169610718E-02  -0.3230579446E-05   0.2130516565E-01   0.4674920565E-04  -0.5707941043E-04
   0.2583950003E+01  -0.6462941414E+00   0.7995300570E+00   0.9191472800E-02  -0.8663783506E-03  -0.4699550387E-03   0.0000000000E+00   0.0000000000E+00   0.0000000000E+00   0.8748237649E-01   0.2243600350E-02   0.1691997588E-04   0.1708694861E-01   0.4086973535E-04  -0.3849479808E-04
   0.2768421463E+01  -0.6502920800E+00   0.7995273419E+00   0.9350113298E-02  -0.8308700131E-03  -0.4726700704E-03   0.0000000000E+00   0.0000000000E+00   0.0000000000E+00   0.8856178806E-01   0.2964793282E-02  -0.9311201145E-05   0.1323418429E-01   0.3017817107E-04  -0.2046109443E-04
   0.2953245656E+01  -0.6541016758E+00   0.7995253322E+00   0.9510535502E-02  -0.8024037707E-03  -0.4746797985E-03   0.0000000000E+00   0.0000000000E+00   0.0000000000E+00   0.8940358811E-01   0.3502517468E-02   0.6422911902E-05   0.9660727969E-02   0.2034795843E-04  -0.1470178596E-04
   0.3138428390E+01  -0.6573666479E+00   0.7995239450E+00   0.9672579841E-02  -0.7818488861E-03  -0.4760670250E-03   0.0000000000E+00   0.0000000000E+00   0.0000000000E+00   0.8999381057E-01   0.3835065195E-02  -0.6070239646E-05   0.6347822538E-02   0.9784606337E-05  -0.8077888976E-05
   0.3324001680E+01  -0.6596254627E+00   0.7995231342E+00   0.9835850482E-02  -0.7691896626E-03  -0.4768777626E-03   0.0000000000E+00   0.0000000000E+00   0.0000000000E+00   0.9035879558E-01   0.4032631704E-02   0.3027005188E-05   0.3023107574E-02   0.1296409603E-04  -0.7332164294E-05
   0.3510000000E+01  -0.6611747243E+00   0.7995228629E+00   0.1000000000E-01  -0.7647372987E-03  -0.4771491099E-03   0.0000000000E+00   0.0000000000E+00   0.0000000000E+00   0.9047581063E-01   0.4079559180E-02  -0.4668839354E-05   0.3779713423E-03  -0.2756803232E-04  -0.4732544662E-05
   0.1045907729E+01  -0.8085883510E+00   0.7995018742E+00   0.7545229062E-02  -0.9597190456E-03  -0.4981377558E-03   0.0000000000E+00   0.0000000000E+00   0.0000000000E+00   0.1176241190E+00  -0.5888452273E-02   0.1147822569E-02   0.4680793663E-01   0.1420073061E-02   0.1033060720E-02
   0.1232347392E+01  -0.8217193340E+00   0.7995233119E+00   0.7743382242E-02  -0.1012013039E-02  -0.4767000811E-03   0.0000000000E+00   0.0000000000E+00   0.0000000000E+00   0.1099156285E+00  -0.1498081708E-01  -0.2573680543E-03   0.4467303895E-01   0.1423353684E-03   0.3305359681E-03
   0.1419688206E+01  -0.8301310034E+00   0.7995318894E+00   0.7948616417E-02  -0.1021573365E-02  -0.4681225579E-03   0.0000000000E+00   0.0000000000E+00   0.0000000000E+00   0.1064691220E+00  -0.1604957771E-01   0.3949496063E-03   0.4346901701E-01  -0.2060400236E-03   0.1055723644E-03
   0.1607878461E+01  -0.8366358076E+00   0.7995341578E+00   0.8151311093E-02  -0.9996085758E-03  -0.4658542202E-03   0.0000000000E+00   0.0000000000E+00   0.0000000000E+00   0.1022471367E+00  -0.1429727919E-01   0.1381576550E-04   0.4045305382E-01  -0.1620052511E-03  -0.9473968388E-04
   0.1796925288E+01  -0.8423794445E+00   0.7995333549E+00   0.8348088413E-02  -0.9603435223E-03  -0.4666570604E-03   0.0000000000E+00   0.0000000000E+00   0.0000000000E+00   0.9951994116E-01  -0.1135958652E-01   0.1098254160E-03   0.3637696302E-01  -0.8313071225E-04  -0.1143791282E-03
   0.1986614129E+01  -0.8477942289E+00   0.7995315441E+00   0.8539818968E-02  -0.9121838628E-03  -0.4684679350E-03   0.0000000000E+00   0.0000000000E+00   0.0000000000E+00   0.9761444835E-01  -0.8649910022E-02  -0.1358484305E-04   0.3173109057E-01  -0.7957471012E-05  -0.1234273608E-03
   0.2176745078E+01  -0.8530494572E+00   0.7995294478E+00   0.8727687856E-02  -0.8624202203E-03  -0.4705642202E-03   0.0000000000E+00   0.0000000000E+00   0.0000000000E+00   0.9649736944E-01  -0.6228314084E-02   0.2142051771E-04   0.2697360753E-01   0.1503523039E-04  -0.8587082341E-04
   0.2366801071E+01  -0.8581797619E+00   0.7995274731E+00   0.8912371212E-02  -0.8147499178E-03  -0.4725388509E-03   0.0000000000E+00   0.0000000000E+00   0.0000000000E+00   0.9580466916E-01  -0.4295301177E-02  -0.1108032658E-04   0.2237337140E-01   0.2363082002E-04  -0.6793505039E-04
   0.2556860394E+01  -0.8632302499E+00   0.7995257300E+00   0.9095143743E-02  -0.7721399463E-03  -0.4742819735E-03   0.0000000000E+00   0.0000000000E+00   0.0000000000E+00   0.9540787466E-01  -0.2753065930E-02  -0.1859011646E-04   0.1802410379E-01   0.1910077260E-04  -0.4447518170E-04
   0.2747052640E+01  -0.8681632338E+00   0.7995243011E+00   0.9276599761E-02  -0.7356458470E-03  -0.4757109354E-03   0.0000000000E+00   0.0000000000E+00   0.0000000000E+00   0.9520831410E-01  -0.1564385707E-02   0.5309058302E-05   0.1397750006E-01   0.1711913753E-04  -0.3326827361E-04
   0.2937422225E+01  -0.8727832269E+00   0.7995231933E+00   0.9457535217E-02  -0.7065959098E-03  -0.4768186860E-03   0.0000000000E+00   0.0000000000E+00   0.0000000000E+00   0.9508644735E-01  -0.7142082028E-03  -0.1289568667E-04   0.1020202007E-01   0.1204790422E-04  -0.1997591496E-04
   0.3128017797E+01  -0.8767271431E+00   0.7995224115E+00   0.9638207095E-02  -0.6851941491E-03  -0.4776005364E-03   0.0000000000E+00   0.0000000000E+00   0.0000000000E+00   0.9503081747E-01  -0.1089581487E-03   0.7676983304E-05   0.6705165413E-02   0.6661408420E-05  -0.1643487329E-04
   0.3318883397E+01  -0.8795403139E+00   0.7995219421E+00   0.9819006710E-02  -0.6722109277E-03  -0.4780698859E-03   0.0000000000E+00   0.0000000000E+00   0.0000000000E+00   0.9500267199E-01   0.2212249907E-03  -0.1010163220E-04   0.3183996348E-02   0.7151621985E-05  -0.1124456736E-04
   0.3510000000E+01  -0.8813336225E+00   0.7995217822E+00   0.1000000000E-01  -0.6673665039E-03  -0.4782298419E-03   0.0000000000E+00   0.0000000000E+00   0.0000000000E+00   0.9500586345E-01   0.3361601446E-03   0.1048336025E-04   0.4191086742E-03  -0.1476829570E-04  -0.1205796001E-04
   0.9516271818E+00  -0.1032664446E+01   0.7994368185E+00   0.7033155752E-02  -0.7562957714E-03  -0.5631935325E-03   0.0000000000E+00   0.0000000000E+00   0.0000000000E+00   0.1524443569E+00  -0.2346656397E-02  -0.1288406136E-02   0.3229720074E-01   0.1482411477E-02  -0.5335566446E-03
   0.1159328087E+01  -0.1040577531E+01   0.7994752736E+00   0.7330167072E-02  -0.8285014201E-03  -0.5247384221E-03   0.0000000000E+00   0.0000000000E+00   0.0000000000E+00   0.1383213519E+00  -0.1237560956E-01   0.1192820296E-03   0.3555810101E-01   0.1608534828E-03  -0.4497469411E-04
   0.1356949497E+01  -0.1046429778E+01   0.7994963348E+00   0.7603936974E-02  -0.8545183410E-03  -0.5036772400E-03   0.0000000000E+00   0.0000000000E+00   0.0000000000E+00   0.1305878685E+00  -0.1723473637E-01   0.8482322294E-04   0.3549673234E-01  -0.1093102442E-03  -0.1350016216E-03
   0.1552165165E+01  -0.1052164113E+01   0.7995082169E+00   0.7861985013E-02  -0.8497629352E-03  -0.4917950752E-03   0.0000000000E+00   0.0000000000E+00   0.0000000000E+00   0.1228137538E+00  -0.1764145462E-01   0.8670346965E-04   0.3472408566E-01  -0.1482229737E-03  -0.1298187501E-03
   0.1747315912E+01  -0.1058049315E+01   0.7995145074E+00   0.8106621838E-02  -0.8225348333E-03  -0.4855046063E-03   0.0000000000E+00   0.0000000000E+00   0.0000000000E+00   0.1169298326E+00  -0.1612561829E-01   0.1020078124E-03   0.3239207183E-01  -0.1096843426E-03  -0.1502707190E-03
   0.1942784121E+01  -0.1063957291E+01   0.7995179068E+00   0.8340411270E-02  -0.7840007970E-03  -0.4821052085E-03   0.0000000000E+00   0.0000000000E+00   0.0000000000E+00   0.1121669727E+00  -0.1392856497E-01   0.3851956441E-04   0.2902512437E-01  -0.4976005876E-04  -0.1201107086E-03
   0.2138446285E+01  -0.1069811577E+01   0.7995195892E+00   0.8564664918E-02  -0.7402869947E-03  -0.4804228309E-03   0.0000000000E+00   0.0000000000E+00   0.0000000000E+00   0.1085597647E+00  -0.1157643264E-01   0.3388696873E-04   0.2516565505E-01  -0.2079540843E-04  -0.1002608718E-03
   0.2334131733E+01  -0.1075605601E+01   0.7995203837E+00   0.8781452611E-02  -0.6971111348E-03  -0.4796283483E-03   0.0000000000E+00   0.0000000000E+00   0.0000000000E+00   0.1057904582E+00  -0.9429354170E-02   0.6048468876E-05   0.2111783577E-01  -0.3723290692E-05  -0.6887000531E-04
   0.2529845810E+01  -0.1081336506E+01   0.7995206502E+00   0.8992049754E-02  -0.6570862879E-03  -0.4793617751E-03   0.0000000000E+00   0.0000000000E+00   0.0000000000E+00   0.1037234787E+00  -0.7547056749E-02   0.2365785050E-04   0.1715179287E-01   0.9018391397E-06  -0.5233181700E-04
   0.2725592636E+01  -0.1086935169E+01   0.7995206640E+00   0.9198215892E-02  -0.6226391818E-03  -0.4793479697E-03   0.0000000000E+00   0.0000000000E+00   0.0000000000E+00   0.1021566732E+00  -0.6030808278E-02  -0.7618173783E-05   0.1335424270E-01   0.2024679124E-05  -0.3491884162E-04
   0.2921406828E+01  -0.1092229314E+01   0.7995205614E+00   0.9400928212E-02  -0.5945640216E-03  -0.4794506262E-03   0.0000000000E+00   0.0000000000E+00   0.0000000000E+00   0.1010507186E+00  -0.4829120360E-02   0.1751871156E-04   0.9766143043E-02   0.2897037289E-05  -0.2694990411E-04
   0.3117350987E+01  -0.1096896007E+01   0.7995204421E+00   0.9601526696E-02  -0.5739468657E-03  -0.4795699290E-03   0.0000000000E+00   0.0000000000E+00   0.0000000000E+00   0.1002825638E+00  -0.4006753343E-02  -0.8893075497E-05   0.6412943760E-02   0.1789320749E-05  -0.1803202148E-04
   0.3313513015E+01  -0.1100468743E+01   0.7995203494E+00   0.9800884725E-02  -0.5609831717E-03  -0.4796626113E-03   0.0000000000E+00   0.0000000000E+00   0.0000000000E+00   0.9986351224E-01  -0.3499383934E-02   0.1086726530E-04   0.3064207356E-02   0.1480731347E-05  -0.1606473466E-04
   0.3510000000E+01  -0.1102437234E+01   0.7995203109E+00   0.1000000000E-01  -0.5563240170E-03  -0.4797011146E-03   0.0000000000E+00   0.0000000000E+00   0.0000000000E+00   0.9971640046E-01  -0.3355337818E-02  -0.7717616372E-05   0.3409901262E-03  -0.2431626895E-05  -0.1330162101E-04
   0.3309296335E+01  -0.1323137054E+01   0.7995186849E+00   0.9784425391E-02  -0.4358341979E-03  -0.4813271280E-03   0.0000000000E+00   0.0000000000E+00   0.0000000000E+00   0.1043456773E+00  -0.6837501014E-02  -0.1249210750E-04   0.2606413262E-02  -0.4494261371E-05  -0.1536316575E-04
   0.3510000000E+01  -0.1324967458E+01   0.7995187691E+00   0.1000000000E-01  -0.4316082810E-03  -0.4812429354E-03   0.0000000000E+00   0.0000000000E+00   0.0000000000E+00   0.1040867081E+00  -0.6614091064E-02   0.1517622212E-04   0.3132115036E-03   0.8989235228E-05  -0.1534915384E-04
   0.3306328948E+01  -0.1547645866E+01   0.7995172461E+00   0.9771287906E-02  -0.2982064155E-03  -0.4827659329E-03   0.0000000000E+00   0.0000000000E+00   0.0000000000E+00   0.1079864846E+00  -0.9437833234E-02   0.1586409940E-04   0.1921444069E-02  -0.8746912061E-05  -0.1012874531E-04
   0.3510000000E+01  -0.1548983691E+01   0.7995174360E+00   0.1000000000E-01  -0.2951607079E-03  -0.4825759582E-03   0.0000000000E+00   0.0000000000E+00   0.0000000000E+00   0.1075915092E+00  -0.9205133604E-02  -0.1105764017E-04   0.2014932535E-03   0.1812049796E-04  -0.8645068327E-05
   0.3304544279E+01  -0.1773481034E+01   0.7995162755E+00   0.9762829334E-02  -0.1515343334E-03  -0.4837364947E-03   0.0000000000E+00   0.0000000000E+00   0.0000000000E+00   0.1103258974E+00  -0.1112691701E-01  -0.1218434945E-04   0.9469850961E-03  -0.1213875352E-04  -0.1420580317E-04
   0.3510000000E+01  -0.1774160197E+01   0.7995165376E+00   0.1000000000E-01  -0.1498967460E-03  -0.4834744313E-03   0.0000000000E+00   0.0000000000E+00   0.0000000000E+00   0.1098844063E+00  -0.1083225760E-01   0.1783312844E-04   0.1154624808E-03   0.2418031260E-04  -0.1371620234E-04
   0.3303421577E+01  -0.2000000000E+01   0.7995159329E+00   0.9759267358E-02   0.0000000000E+00  -0.4840790714E-03   0.0000000000E+00   0.0000000000E+00   0.0000000000E+00   0.1111547190E+00  -0.1168271671E-01   0.1834320320E-04   0.1984798782E-03  -0.1271778408E-04   0.2961919120E-04
   0.3510000000E+01  -0.2000000000E+01   0.7995162213E+00   0.1000000000E-01   0.0000000000E+00  -0.4837907496E-03   0.0000000000E+00   0.0000000000E+00   0.0000000000E+00   0.1106582737E+00  -0.1141492636E-01  -0.1203305283E-04  -0.3209702186E-07   0.2624404523E-04   0.2774504463E-04
   0.3108943136E+01  -0.1319921634E+01   0.7995183999E+00   0.9567885958E-02  -0.4469339371E-03  -0.4816120916E-03   0.0000000000E+00   0.0000000000E+00   0.0000000000E+00   0.1051852331E+00  -0.7455756263E-02   0.1500314542E-04   0.5470989468E-02  -0.2723403094E-05  -0.2033146957E-04
   0.3102995631E+01  -0.1545303627E+01   0.7995166393E+00   0.9541031022E-02  -0.3064070941E-03  -0.4833726547E-03   0.0000000000E+00   0.0000000000E+00   0.0000000000E+00   0.1091296375E+00  -0.1019965382E-01  -0.1297581335E-04   0.4011158177E-02  -0.7527434498E-05  -0.1121174277E-04
   0.3099416221E+01  -0.1772287121E+01   0.7995154532E+00   0.9523590857E-02  -0.1558011978E-03  -0.4845587623E-03   0.0000000000E+00   0.0000000000E+00   0.0000000000E+00   0.1117125330E+00  -0.1192236129E-01   0.2003271898E-04   0.1990710125E-02  -0.9023899401E-05  -0.1755242923E-04
   0.3097152582E+01  -0.2000000000E+01   0.7995150308E+00   0.9516351957E-02   0.0000000000E+00  -0.4849812191E-03   0.0000000000E+00   0.0000000000E+00   0.0000000000E+00   0.1125903222E+00  -0.1253854448E-01  -0.1421077349E-04   0.3866078006E-03  -0.1094306598E-04   0.3545210819E-04
   0.2908804403E+01  -0.1315774751E+01   0.7995178541E+00   0.9348853096E-02  -0.4647513571E-03  -0.4821578780E-03   0.0000000000E+00   0.0000000000E+00   0.0000000000E+00   0.1065938219E+00  -0.8522881036E-02  -0.1398109764E-04   0.8316848538E-02  -0.7422369426E-05  -0.2535361161E-04
   0.2899870668E+01  -0.1542281216E+01   0.7995155271E+00   0.9306937692E-02  -0.3193055642E-03  -0.4844849357E-03   0.0000000000E+00   0.0000000000E+00   0.0000000000E+00   0.1111041504E+00  -0.1138787166E-01   0.1785532274E-04   0.6097720873E-02  -0.1340407819E-04  -0.1555531683E-04
   0.2894495624E+01  -0.1770738846E+01   0.7995139617E+00   0.9279864131E-02  -0.1626060838E-03  -0.4860502801E-03   0.0000000000E+00   0.0000000000E+00   0.0000000000E+00   0.1140030310E+00  -0.1323818309E-01  -0.1135585614E-04   0.3006618127E-02  -0.1929195863E-04  -0.2199214995E-04
   0.2891076974E+01  -0.2000000000E+01   0.7995133986E+00   0.9268453964E-02   0.0000000000E+00  -0.4866133699E-03   0.0000000000E+00   0.0000000000E+00   0.0000000000E+00   0.1150368903E+00  -0.1384557122E-01   0.1809080260E-04   0.6312684368E-03  -0.1954319516E-04   0.4540517063E-04
   0.2708788418E+01  -0.1311072116E+01   0.7995169394E+00   0.9125497779E-02  -0.4885264132E-03  -0.4830725998E-03   0.0000000000E+00   0.0000000000E+00   0.0000000000E+00   0.1086651505E+00  -0.9943053703E-02   0.1568660650E-04   0.1134551917E-01  -0.1001921732E-04  -0.3607170173E-04
   0.2696864817E+01  -0.1538842059E+01   0.7995137517E+00   0.9067037454E-02  -0.3366285015E-03  -0.4862603435E-03   0.0000000000E+00   0.0000000000E+00   0.0000000000E+00   0.1138836284E+00  -0.1300188834E-01  -0.1586265801E-04   0.8285763435E-02  -0.2173020996E-04  -0.1907989849E-04
   0.2689696388E+01  -0.1768968052E+01   0.7995116133E+00   0.9028988141E-02  -0.1716115835E-03  -0.4883986849E-03   0.0000000000E+00   0.0000000000E+00   0.0000000000E+00   0.1172799949E+00  -0.1489612198E-01   0.2744593865E-04   0.4082511905E-02  -0.2558958975E-04  -0.2967257595E-04
   0.2685113221E+01  -0.2000000000E+01   0.7995108357E+00   0.9013201205E-02   0.0000000000E+00  -0.4891763129E-03   0.0000000000E+00   0.0000000000E+00   0.0000000000E+00   0.1184469721E+00  -0.1556901730E-01  -0.2103410497E-04   0.8376162658E-03  -0.2982130369E-04   0.6016172573E-04
   0.2508835307E+01  -0.1306074267E+01   0.7995154803E+00   0.8896346827E-02  -0.5177274104E-03  -0.4845317401E-03   0.0000000000E+00   0.0000000000E+00   0.0000000000E+00   0.1114055194E+00  -0.1172241397E-01  -0.1536504157E-04   0.1448197118E-01  -0.1868670498E-04  -0.4691636449E-04
   0.2493920406E+01  -0.1535169817E+01   0.7995110757E+00   0.8818945973E-02  -0.3574865337E-03  -0.4889363176E-03   0.0000000000E+00   0.0000000000E+00   0.0000000000E+00   0.1175715568E+00  -0.1485106273E-01   0.2086832975E-04   0.1052786833E-01  -0.2943562464E-04  -0.2645041896E-04
   0.2484961875E+01  -0.1767068500E+01   0.7995081330E+00   0.8768924954E-02  -0.1824997875E-03  -0.4918789738E-03   0.0000000000E+00   0.0000000000E+00   0.0000000000E+00   0.1214871883E+00  -0.1680982392E-01  -0.1018547470E-04   0.5132943557E-02  -0.3906582452E-04  -0.3803381506E-04
   0.2479207112E+01  -0.2000000000E+01   0.7995070514E+00   0.8747891781E-02   0.0000000000E+00  -0.4929605749E-03   0.0000000000E+00   0.0000000000E+00   0.0000000000E+00   0.1228874109E+00  -0.1743597257E-01   0.1860040989E-04   0.1152605191E-02  -0.3911380727E-04   0.8032789125E-04
   0.2308911523E+01  -0.1300932025E+01   0.7995132160E+00   0.8659323452E-02  -0.5507253588E-03  -0.4867960232E-03   0.0000000000E+00   0.0000000000E+00   0.0000000000E+00   0.1149598554E+00  -0.1370572678E-01   0.1677519637E-04   0.1767580282E-01  -0.2785284117E-04  -0.6518312970E-04
   0.2291004058E+01  -0.1531377023E+01   0.7995071643E+00   0.8561008276E-02  -0.3809433502E-03  -0.4928476922E-03   0.0000000000E+00   0.0000000000E+00   0.0000000000E+00   0.1221308022E+00  -0.1682081047E-01  -0.1974505339E-04   0.1271573925E-01  -0.4610579498E-04  -0.3090420490E-04
   0.2280256719E+01  -0.1765098980E+01   0.7995031497E+00   0.8497209211E-02  -0.1944801113E-03  -0.4968623375E-03   0.0000000000E+00   0.0000000000E+00   0.0000000000E+00   0.1266782090E+00  -0.1862573836E-01   0.4224247815E-04   0.6160381360E-02  -0.5043716996E-04  -0.4991076834E-04
   0.2273325985E+01  -0.2000000000E+01   0.7995016630E+00   0.8470834615E-02   0.0000000000E+00  -0.4983489833E-03   0.0000000000E+00   0.0000000000E+00   0.0000000000E+00   0.1282380620E+00  -0.1925364312E-01  -0.3540701347E-04   0.1381602496E-02  -0.5658131672E-04   0.1055218150E-03
   0.2109005163E+01  -0.1295719701E+01   0.7995097619E+00   0.8413023307E-02  -0.5857512437E-03  -0.4902501176E-03   0.0000000000E+00   0.0000000000E+00   0.0000000000E+00   0.1193643076E+00  -0.1577606499E-01  -0.1166036682E-04   0.2072561104E-01  -0.5065588832E-04  -0.8016068865E-04
   0.2088098020E+01  -0.1527522493E+01   0.7995015660E+00   0.8290980386E-02  -0.4048828270E-03  -0.4984460244E-03   0.0000000000E+00   0.0000000000E+00   0.0000000000E+00   0.1276435225E+00  -0.1853216555E-01   0.3285995078E-04   0.1471668288E-01  -0.6245176516E-04  -0.3946353882E-04
   0.2075561676E+01  -0.1763092908E+01   0.7994962004E+00   0.8212716240E-02  -0.2066184132E-03  -0.5038116098E-03   0.0000000000E+00   0.0000000000E+00   0.0000000000E+00   0.1326817831E+00  -0.2006530539E-01  -0.1585918285E-04   0.6990115645E-02  -0.7286809781E-04  -0.5949388709E-04
   0.2067450111E+01  -0.2000000000E+01   0.7994941928E+00   0.8179971486E-02   0.0000000000E+00  -0.5058192109E-03   0.0000000000E+00   0.0000000000E+00   0.0000000000E+00   0.1344691036E+00  -0.2048465726E-01   0.2561809562E-04   0.1761580936E-02  -0.6961209657E-04   0.1370267235E-03
   0.1909115457E+01  -0.1290459338E+01   0.7995045475E+00   0.8155247458E-02  -0.6189983802E-03  -0.4954644846E-03   0.0000000000E+00   0.0000000000E+00   0.0000000000E+00   0.1247842993E+00  -0.1759010750E-01   0.3863080739E-04   0.2340250965E-01  -0.7813027208E-04  -0.9979993334E-04
   0.1885199129E+01  -0.1523631324E+01   0.7994936927E+00   0.8008058881E-02  -0.4268743944E-03  -0.5063193413E-03   0.0000000000E+00   0.0000000000E+00   0.0000000000E+00   0.1339690529E+00  -0.1965195819E-01  -0.3239012400E-04   0.1623478102E-01  -0.9552990970E-04  -0.3672864925E-04
   0.1870868186E+01  -0.1761065198E+01   0.7994867222E+00   0.7913925990E-02  -0.2171475786E-03  -0.5132898106E-03   0.0000000000E+00   0.0000000000E+00   0.0000000000E+00   0.1394282751E+00  -0.2045476911E-01   0.6809228786E-04   0.7577378669E-02  -0.8869078841E-04  -0.7014916668E-04
   0.1861571558E+01  -0.2000000000E+01   0.7994841143E+00   0.7875327960E-02   0.0000000000E+00  -0.5158977477E-03   0.0000000000E+00   0.0000000000E+00   0.0000000000E+00   0.1412315010E+00  -0.2070338503E-01  -0.6618132083E-04   0.1960711717E-02  -0.9549145843E-04   0.1675886046E-03
   0.1709319651E+01  -0.1285215939E+01   0.7994967160E+00   0.7885041167E-02  -0.6461991303E-03  -0.5032960046E-03   0.0000000000E+00   0.0000000000E+00   0.0000000000E+00   0.1312089299E+00  -0.1873571536E-01  -0.1996500361E-04   0.2526176242E-01  -0.1257871539E-03  -0.1018120727E-03
   0.1682346306E+01  -0.1519794200E+01   0.7994827829E+00   0.7710896354E-02  -0.4424796276E-03  -0.5172291281E-03   0.0000000000E+00   0.0000000000E+00   0.0000000000E+00   0.1410971246E+00  -0.1942599873E-01   0.6370222380E-04   0.1701154195E-01  -0.1197632782E-03  -0.3766836939E-04
   0.1666201204E+01  -0.1759102571E+01   0.7994741327E+00   0.7601943535E-02  -0.2241005243E-03  -0.5258793334E-03   0.0000000000E+00   0.0000000000E+00   0.0000000000E+00   0.1464602234E+00  -0.1928353425E-01  -0.4728549013E-04   0.7632888887E-02  -0.1192765165E-03  -0.6769953731E-04
   0.1655686759E+01  -0.2000000000E+01   0.7994708806E+00   0.7556698764E-02   0.0000000000E+00  -0.5291313524E-03   0.0000000000E+00   0.0000000000E+00   0.0000000000E+00   0.1483012485E+00  -0.1901187241E-01   0.4016408779E-04   0.2347201263E-02  -0.1039362743E-03   0.1974840213E-03
   0.1509662997E+01  -0.1280286065E+01   0.7994849659E+00   0.7600556927E-02  -0.6596952175E-03  -0.5150461401E-03   0.0000000000E+00   0.0000000000E+00   0.0000000000E+00   0.1387861666E+00  -0.1833221540E-01   0.7955306110E-04   0.2595363616E-01  -0.1508081182E-03  -0.9857303640E-04
   0.1479579126E+01  -0.1516407880E+01   0.7994678852E+00   0.7400666041E-02  -0.4471896223E-03  -0.5321267640E-03   0.0000000000E+00   0.0000000000E+00   0.0000000000E+00   0.1486187936E+00  -0.1726151221E-01  -0.9965151329E-04   0.1666076054E-01  -0.1430547827E-03  -0.1427846402E-04
   0.1461621171E+01  -0.1757467476E+01   0.7994578686E+00   0.7277490585E-02  -0.2243162100E-03  -0.5421433857E-03   0.0000000000E+00   0.0000000000E+00   0.0000000000E+00   0.1535411024E+00  -0.1555476394E-01   0.7998150912E-04   0.7139723090E-02  -0.1229811198E-03  -0.6825340659E-04
   0.1449877000E+01  -0.2000000000E+01   0.7994541523E+00   0.7227749542E-02   0.0000000000E+00  -0.5458597244E-03   0.0000000000E+00   0.0000000000E+00   0.0000000000E+00   0.1549342195E+00  -0.1486603195E-01  -0.1108273025E-03   0.2359396154E-02  -0.1381839625E-03   0.2021052638E-03
   0.1309671945E+01  -0.1276350266E+01   0.7994672717E+00   0.7301154569E-02  -0.6526764596E-03  -0.5327403384E-03   0.0000000000E+00   0.0000000000E+00   0.0000000000E+00   0.1472119559E+00  -0.1544357802E-01  -0.1821841798E-03   0.2513003363E-01  -0.9702727599E-04  -0.7664588552E-04
   0.1276632637E+01  -0.1514218239E+01   0.7994478834E+00   0.7077066766E-02  -0.4343087421E-03  -0.5521286181E-03   0.0000000000E+00   0.0000000000E+00   0.0000000000E+00   0.1565133595E+00  -0.1194559047E-01   0.4919437549E-04   0.1501788351E-01  -0.9459471423E-04  -0.2964766169E-04
   0.1257042105E+01  -0.1756585024E+01   0.7994376900E+00   0.6945305109E-02  -0.2154339247E-03  -0.5623220069E-03   0.0000000000E+00   0.0000000000E+00   0.0000000000E+00   0.1598456712E+00  -0.8787543352E-02  -0.1088300900E-03   0.5879490641E-02  -0.1463462780E-03  -0.6746653819E-04
   0.1244219615E+01  -0.2000000000E+01   0.7994339805E+00   0.6891444693E-02   0.0000000000E+00  -0.5660315139E-03   0.0000000000E+00   0.0000000000E+00   0.0000000000E+00   0.1607989933E+00  -0.7437338138E-02   0.3251948873E-04   0.2617083973E-02  -0.1560328832E-03   0.1707446494E-03
   0.1107414060E+01  -0.1274228002E+01   0.7994407721E+00   0.6982619538E-02  -0.6151417853E-03  -0.5592399439E-03   0.0000000000E+00   0.0000000000E+00   0.0000000000E+00   0.1570869354E+00  -0.8355132353E-02  -0.1271880704E-03   0.2271532047E-01   0.1439018267E-03  -0.1066139017E-03
   0.1072479448E+01  -0.1514145729E+01   0.7994218973E+00   0.6742918407E-02  -0.4006587552E-03  -0.5781147453E-03   0.0000000000E+00   0.0000000000E+00   0.0000000000E+00   0.1639454073E+00  -0.2863205455E-02  -0.2469194392E-03   0.1236187126E-01  -0.7362529867E-05  -0.1035107024E-03
   0.1051978805E+01  -0.1756951434E+01   0.7994139066E+00   0.6607865176E-02  -0.1953636679E-03  -0.5861053566E-03   0.0000000000E+00   0.0000000000E+00   0.0000000000E+00   0.1651929883E+00   0.1499776038E-02  -0.3059661822E-05   0.4211339586E-02  -0.1585425090E-03  -0.1123715061E-03
   0.1038486596E+01  -0.2000000000E+01   0.7994111352E+00   0.6555076104E-02   0.0000000000E+00  -0.5888767649E-03   0.0000000000E+00   0.0000000000E+00   0.0000000000E+00   0.1650532511E+00   0.3161384891E-02  -0.1498750927E-03   0.2252065069E-02  -0.2262024871E-03   0.6552892678E-04
   0.8986943621E+00  -0.1275088699E+01   0.7994023278E+00   0.6640043082E-02  -0.5454091326E-03  -0.5976842404E-03   0.0000000000E+00   0.0000000000E+00   0.0000000000E+00   0.1680921806E+00   0.5042048082E-02  -0.3184071559E-03   0.2140608571E-01   0.6076964345E-03  -0.3626247627E-03
   0.8653487027E+00  -0.1517410081E+01   0.7993902837E+00   0.6397014666E-02  -0.3449106445E-03  -0.6097283256E-03   0.0000000000E+00   0.0000000000E+00   0.0000000000E+00   0.1715184342E+00   0.1011487335E-01  -0.1299172556E-03   0.8775873441E-02   0.4687956243E-04  -0.3833979069E-03
   0.8457404238E+00  -0.1759144065E+01   0.7993880326E+00   0.6272301793E-02  -0.1656950875E-03  -0.6119794187E-03   0.0000000000E+00   0.0000000000E+00   0.0000000000E+00   0.1687362999E+00   0.1482820547E-01  -0.1546630201E-03   0.2400154018E-02  -0.2278473040E-03  -0.1597700228E-03
   0.8319911360E+00  -0.2000000000E+01   0.7993869326E+00   0.6221414033E-02   0.0000000000E+00  -0.6130793925E-03   0.0000000000E+00   0.0000000000E+00   0.0000000000E+00   0.1679633612E+00   0.1634658035E-01  -0.8770658305E-04   0.2293744299E-02  -0.2433780761E-03  -0.4186814342E-04
  -0.6208739696E+00  -0.1083771781E+01   0.7993348555E+00   0.3573137391E-02  -0.5518910005E-03  -0.6651565240E-03   0.0000000000E+00   0.0000000000E+00   0.0000000000E+00   0.1857338172E+00   0.3165717377E-01   0.2748859300E-02  -0.4263215097E-01  -0.1867080048E-02  -0.5946340538E-03
  -0.4848790724E+00  -0.8733757423E+00   0.7992985729E+00   0.3296707557E-02  -0.6304073242E-03  -0.7014391295E-03   0.0000000000E+00   0.0000000000E+00   0.0000000000E+00   0.2107776407E+00   0.5246202079E-01  -0.3206259273E-03  -0.9810175833E-01  -0.6129379303E-02   0.4451182941E-02
  -0.6117878151E+00  -0.1336696939E+01   0.7993400527E+00   0.3889779900E-02  -0.3846488281E-03  -0.6599592593E-03   0.0000000000E+00   0.0000000000E+00   0.0000000000E+00   0.1836003071E+00   0.2440566429E-01  -0.2894076822E-02  -0.1305573005E-01  -0.8246698574E-03  -0.1598964762E-02
  -0.6097681133E+00  -0.1562920538E+01   0.7993528169E+00   0.4027405718E-02  -0.2407680329E-03  -0.6471950972E-03   0.0000000000E+00   0.0000000000E+00   0.0000000000E+00   0.1767751871E+00   0.2898357838E-01   0.3848252296E-03  -0.4670060632E-02   0.8566451196E-04  -0.6837235268E-03
  -0.6173469136E+00  -0.1782171911E+01   0.7993612167E+00   0.4079191439E-02  -0.1179612878E-03  -0.6387953284E-03   0.0000000000E+00   0.0000000000E+00   0.0000000000E+00   0.1706631938E+00   0.3020939120E-01  -0.5879975221E-03  -0.6524980704E-03   0.1263107884E-03  -0.1397341981E-03
  -0.6248751545E+00  -0.2000000000E+01   0.7993649953E+00   0.4086289534E-02   0.0000000000E+00  -0.6350167240E-03   0.0000000000E+00   0.0000000000E+00   0.0000000000E+00   0.1690133107E+00   0.3060831115E-01   0.7594801766E-04  -0.1526184476E-02   0.3124821028E-03  -0.3286423050E-03
  -0.8243151046E+00  -0.1781435555E+01   0.7993867143E+00   0.3751542444E-02  -0.1481245479E-03  -0.6132977447E-03   0.0000000000E+00   0.0000000000E+00   0.0000000000E+00   0.1686939060E+00   0.1584905620E-01  -0.1305733591E-03  -0.2029279215E-02   0.2309644578E-03  -0.1600715444E-03
  -0.8280477726E+00  -0.2000000000E+01   0.7993877023E+00   0.3768900447E-02   0.0000000000E+00  -0.6123096833E-03   0.0000000000E+00   0.0000000000E+00   0.0000000000E+00   0.1677564394E+00   0.1651949377E-01  -0.7840528167E-04  -0.2003480548E-02   0.2522684286E-03  -0.2732758183E-04
  -0.1030737782E+01  -0.1781973184E+01   0.7994122968E+00   0.3416868388E-02  -0.1736339375E-03  -0.5877152383E-03   0.0000000000E+00   0.0000000000E+00   0.0000000000E+00   0.1653461734E+00   0.2415847439E-02  -0.2309083257E-04  -0.3571832332E-02   0.1747991539E-03  -0.1036109090E-03
  -0.1031880001E+01  -0.2000000000E+01   0.7994115599E+00   0.3439918657E-02   0.0000000000E+00  -0.5884520765E-03   0.0000000000E+00   0.0000000000E+00   0.0000000000E+00   0.1649902710E+00   0.3397415764E-02  -0.7634429139E-04  -0.2092873014E-02   0.2271891486E-03   0.5727019333E-04
  -0.1236608485E+01  -0.1783161519E+01   0.7994360739E+00   0.3078954948E-02  -0.1909685729E-03  -0.5639381198E-03   0.0000000000E+00   0.0000000000E+00   0.0000000000E+00   0.1602522579E+00  -0.8151579899E-02  -0.7441351076E-04  -0.5106689714E-02   0.1526924484E-03  -0.6197535584E-04
  -0.1236398924E+01  -0.2000000000E+01   0.7994341972E+00   0.3105296496E-02   0.0000000000E+00  -0.5658147812E-03   0.0000000000E+00   0.0000000000E+00   0.0000000000E+00   0.1607322104E+00  -0.7297162703E-02   0.1801198090E-04  -0.2323594553E-02   0.1599453003E-03   0.1589519768E-03
  -0.1442238374E+01  -0.1784590119E+01   0.7994564224E+00   0.2744515697E-02  -0.1989585419E-03  -0.5435895780E-03   0.0000000000E+00   0.0000000000E+00   0.0000000000E+00   0.1540553878E+00  -0.1523129569E-01   0.3467552710E-04  -0.6253502954E-02   0.1270681812E-03  -0.5947288037E-04
  -0.1441446779E+01  -0.2000000000E+01   0.7994542305E+00   0.2770311088E-02   0.0000000000E+00  -0.5457814530E-03   0.0000000000E+00   0.0000000000E+00   0.0000000000E+00   0.1549250387E+00  -0.1474699401E-01  -0.4916946269E-04  -0.2152458739E-02   0.1425522145E-03   0.1867113297E-03
  -0.1647843740E+01  -0.1786102415E+01   0.7994729188E+00   0.2417660399E-02  -0.1990849824E-03  -0.5270932135E-03   0.0000000000E+00   0.0000000000E+00   0.0000000000E+00   0.1470508109E+00  -0.1914336200E-01  -0.3808661573E-04  -0.6755664261E-02   0.1263670079E-03  -0.6142071723E-04
  -0.1646853730E+01  -0.2000000000E+01   0.7994708477E+00   0.2441960061E-02   0.0000000000E+00  -0.5291642882E-03   0.0000000000E+00   0.0000000000E+00   0.0000000000E+00   0.1482898504E+00  -0.1897359089E-01   0.3468899645E-04  -0.2085206348E-02   0.1052969178E-03   0.1826833862E-03
  -0.1853499818E+01  -0.1787650355E+01   0.7994857482E+00   0.2102801711E-02  -0.1933651395E-03  -0.5142638433E-03   0.0000000000E+00   0.0000000000E+00   0.0000000000E+00   0.1399924554E+00  -0.2049097086E-01   0.2383882905E-04  -0.6729175271E-02   0.8933891790E-04  -0.6284902527E-04
  -0.1852483023E+01  -0.2000000000E+01   0.7994840164E+00   0.2123967449E-02   0.0000000000E+00  -0.5159956389E-03   0.0000000000E+00   0.0000000000E+00   0.0000000000E+00   0.1412642482E+00  -0.2066595872E-01  -0.1921390639E-04  -0.1775939876E-02   0.9836374293E-04   0.1514806691E-03
  -0.2059209310E+01  -0.1789216282E+01   0.7994954616E+00   0.1801289822E-02  -0.1843020298E-03  -0.5045503869E-03   0.0000000000E+00   0.0000000000E+00   0.0000000000E+00   0.1332251517E+00  -0.2017145200E-01  -0.1335970230E-04  -0.6240930719E-02   0.7380539846E-04  -0.5201602464E-04
  -0.2058236959E+01  -0.2000000000E+01   0.7994940625E+00   0.1819491494E-02   0.0000000000E+00  -0.5059494689E-03   0.0000000000E+00   0.0000000000E+00   0.0000000000E+00   0.1344978079E+00  -0.2049691224E-01   0.2458007074E-04  -0.1575293926E-02   0.6788695112E-04   0.1267798271E-03
  -0.2264953309E+01  -0.1790791185E+01   0.7995026041E+00   0.1514021254E-02  -0.1737151754E-03  -0.4974079016E-03   0.0000000000E+00   0.0000000000E+00   0.0000000000E+00   0.1271457999E+00  -0.1879804086E-01   0.2279080983E-04  -0.5516533752E-02   0.4855304995E-04  -0.4285623084E-04
  -0.2264054485E+01  -0.2000000000E+01   0.7995015365E+00   0.1528794766E-02   0.0000000000E+00  -0.4984755021E-03   0.0000000000E+00   0.0000000000E+00   0.0000000000E+00   0.1282866372E+00  -0.1926398169E-01  -0.1267762697E-04  -0.1248260633E-02   0.5594272388E-04   0.9649631215E-04
  -0.2470717386E+01  -0.1792365850E+01   0.7995077413E+00   0.1239824377E-02  -0.1631398424E-03  -0.4922706900E-03   0.0000000000E+00   0.0000000000E+00   0.0000000000E+00   0.1218815049E+00  -0.1698389935E-01  -0.1325872369E-04  -0.4612618123E-02   0.3984782354E-04  -0.3290109895E-04
  -0.2469902497E+01  -0.2000000000E+01   0.7995069356E+00   0.1251712524E-02   0.0000000000E+00  -0.4930763631E-03   0.0000000000E+00   0.0000000000E+00   0.0000000000E+00   0.1229361962E+00  -0.1746837731E-01   0.2094581855E-04  -0.1031804777E-02   0.3627111984E-04   0.7521045733E-04
  -0.2676504215E+01  -0.1793906520E+01   0.7995113272E+00   0.9774354600E-03  -0.1534904509E-03  -0.4886848495E-03   0.0000000000E+00   0.0000000000E+00   0.0000000000E+00   0.1176047924E+00  -0.1507328407E-01   0.1729761529E-04  -0.3670817576E-02   0.2460782130E-04  -0.2608402341E-04
  -0.2675777346E+01  -0.2000000000E+01   0.7995107390E+00   0.9864242372E-03   0.0000000000E+00  -0.4892730068E-03   0.0000000000E+00   0.0000000000E+00   0.0000000000E+00   0.1184980520E+00  -0.1559502853E-01  -0.1082306469E-04  -0.7568248321E-03   0.2942604793E-04   0.5432725228E-04
  -0.2882339757E+01  -0.1795327494E+01   0.7995137546E+00   0.7245129168E-03  -0.1455041097E-03  -0.4862574069E-03   0.0000000000E+00   0.0000000000E+00   0.0000000000E+00   0.1142758482E+00  -0.1339679987E-01  -0.9844993172E-05  -0.2708631797E-02   0.1958111078E-04  -0.1919821084E-04
  -0.2881710413E+01  -0.2000000000E+01   0.7995133118E+00   0.7311074482E-03   0.0000000000E+00  -0.4867001844E-03   0.0000000000E+00   0.0000000000E+00   0.0000000000E+00   0.1150849109E+00  -0.1387875697E-01   0.1601540999E-04  -0.5637541808E-03   0.1821837657E-04   0.4243943199E-04
  -0.3088245697E+01  -0.1796499430E+01   0.7995152917E+00   0.4789128169E-03  -0.1395298651E-03  -0.4847203170E-03   0.0000000000E+00   0.0000000000E+00   0.0000000000E+00   0.1119430873E+00  -0.1207546814E-01   0.1370986918E-04  -0.1793312171E-02   0.8588285338E-05  -0.1552206231E-04
  -0.3087745754E+01  -0.2000000000E+01   0.7995149570E+00   0.4831855674E-03   0.0000000000E+00  -0.4850550161E-03   0.0000000000E+00   0.0000000000E+00   0.0000000000E+00   0.1126417706E+00  -0.1256453378E-01  -0.8487845023E-05  -0.3491673904E-03   0.1065013597E-04   0.3150450975E-04
  -0.3294182095E+01  -0.1797307449E+01   0.7995161432E+00   0.2381452451E-03  -0.1358592670E-03  -0.4838687941E-03   0.0000000000E+00   0.0000000000E+00   0.0000000000E+00   0.1105376367E+00  -0.1126523298E-01  -0.8020623031E-05  -0.8547905534E-03   0.1210709418E-04  -0.1246722906E-04
  -0.3293877855E+01  -0.2000000000E+01   0.7995158617E+00   0.2403145119E-03   0.0000000000E+00  -0.4841503401E-03   0.0000000000E+00   0.0000000000E+00   0.0000000000E+00   0.1112047229E+00  -0.1171612591E-01   0.1356448696E-04  -0.1770436082E-03   0.1253345075E-04   0.2769497548E-04
  -0.3500000000E+01  -0.1797702852E+01   0.7995164107E+00   0.0000000000E+00  -0.1345323847E-03  -0.4836013384E-03   0.0000000000E+00   0.0000000000E+00   0.0000000000E+00   0.1100857316E+00  -0.1097473113E-01   0.1257466944E-04  -0.1023196700E-03  -0.2401355073E-04  -0.1214726078E-04
  -0.3500000000E+01  -0.2000000000E+01   0.7995161540E+00   0.0000000000E+00   0.0000000000E+00  -0.4838579732E-03   0.0000000000E+00   0.0000000000E+00   0.0000000000E+00   0.1107130205E+00  -0.1144248048E-01  -0.7442598954E-05   0.8570114603E-08  -0.2722063258E-04   0.2444968181E-04
  -0.8246454515E+00  -0.1563487669E+01   0.7993853195E+00   0.3677316476E-02  -0.3014993919E-03  -0.6146924610E-03   0.0000000000E+00   0.0000000000E+00   0.0000000000E+00   0.1715925988E+00   0.1311528211E-01  -0.2726276108E-03  -0.6799402911E-02   0.2369264328E-04  -0.3943767896E-03
  -0.1035755748E+01  -0.1566585109E+01   0.7994165728E+00   0.3329761553E-02  -0.3505193597E-03  -0.5834392211E-03   0.0000000000E+00   0.0000000000E+00   0.0000000000E+00   0.1651484700E+00  -0.5004698999E-03  -0.1695997449E-03  -0.1008714688E-01   0.2736398385E-04  -0.1167143029E-03
  -0.1243167778E+01  -0.1569884092E+01   0.7994427790E+00   0.2990581618E-02  -0.3813816089E-03  -0.5572329610E-03   0.0000000000E+00   0.0000000000E+00   0.0000000000E+00   0.1582213263E+00  -0.1045892537E-01  -0.2030779268E-04  -0.1267501662E-01   0.1096485352E-03  -0.2575005690E-04
  -0.1449317605E+01  -0.1573023507E+01   0.7994635026E+00   0.2659644897E-02  -0.3944167852E-03  -0.5365094293E-03   0.0000000000E+00   0.0000000000E+00   0.0000000000E+00   0.1506641606E+00  -0.1651073879E-01  -0.8478363365E-04  -0.1437227113E-01   0.1505966047E-03  -0.1861635742E-04
  -0.1654260243E+01  -0.1575727223E+01   0.7994792393E+00   0.2341667050E-02  -0.3924334254E-03  -0.5207727486E-03   0.0000000000E+00   0.0000000000E+00   0.0000000000E+00   0.1432054482E+00  -0.1932369271E-01   0.3140430265E-04  -0.1491071607E-01   0.1193296276E-03  -0.3815487314E-04
  -0.1859714297E+01  -0.1578628967E+01   0.7994910191E+00   0.2035953354E-02  -0.3799866492E-03  -0.5089928583E-03   0.0000000000E+00   0.0000000000E+00   0.0000000000E+00   0.1360047000E+00  -0.1993160494E-01   0.2744927651E-05  -0.1441440937E-01   0.9586529382E-04  -0.3070679056E-04
  -0.2064925466E+01  -0.1581429637E+01   0.7994996055E+00   0.1744953666E-02  -0.3614769610E-03  -0.5004064636E-03   0.0000000000E+00   0.0000000000E+00   0.0000000000E+00   0.1294288469E+00  -0.1906217136E-01   0.2742327597E-04  -0.1318737412E-01   0.6245897456E-04  -0.3276042323E-04
  -0.2269988976E+01  -0.1584168098E+01   0.7995057605E+00   0.1467743951E-02  -0.3407183379E-03  -0.4942515242E-03   0.0000000000E+00   0.0000000000E+00   0.0000000000E+00   0.1236464966E+00  -0.1742641685E-01  -0.1387726501E-04  -0.1146762164E-01   0.4954465324E-04  -0.2602926517E-04
  -0.2474999397E+01  -0.1586864888E+01   0.7995100746E+00   0.1203333034E-02  -0.3201384115E-03  -0.4899373847E-03   0.0000000000E+00   0.0000000000E+00   0.0000000000E+00   0.1188358729E+00  -0.1547115375E-01   0.2113666380E-04  -0.9527250105E-02   0.3052958864E-04  -0.2416847077E-04
  -0.2680007527E+01  -0.1589469786E+01   0.7995130471E+00   0.9495531205E-03  -0.3017158023E-03  -0.4869649463E-03   0.0000000000E+00   0.0000000000E+00   0.0000000000E+00   0.1149283575E+00  -0.1358600459E-01  -0.9469691115E-05  -0.7522802044E-02   0.2349217006E-04  -0.1608163679E-04
  -0.2885046230E+01  -0.1591846802E+01   0.7995150205E+00   0.7045402455E-03  -0.2864419903E-03  -0.4849914602E-03   0.0000000000E+00   0.0000000000E+00   0.0000000000E+00   0.1119670107E+00  -0.1192964080E-01   0.1487489442E-04  -0.5546196235E-02   0.1394079030E-04  -0.1424936419E-04
  -0.3090122617E+01  -0.1593804276E+01   0.7995162649E+00   0.4659526673E-03  -0.2751658952E-03  -0.4837470894E-03   0.0000000000E+00   0.0000000000E+00   0.0000000000E+00   0.1098666848E+00  -0.1069022661E-01  -0.7363748611E-05  -0.3654054860E-02   0.8082470323E-05  -0.9264409291E-05
  -0.3295170505E+01  -0.1595170687E+01   0.7995169410E+00   0.2317852661E-03  -0.2681672765E-03  -0.4830710279E-03   0.0000000000E+00   0.0000000000E+00   0.0000000000E+00   0.1086413088E+00  -0.9903041457E-02   0.1196151788E-04  -0.1750687020E-02   0.9395070493E-05  -0.9158632314E-05
  -0.3500000000E+01  -0.1595818298E+01   0.7995171576E+00   0.0000000000E+00  -0.2657381044E-03  -0.4828543706E-03   0.0000000000E+00   0.0000000000E+00   0.0000000000E+00   0.1082235882E+00  -0.9650707855E-02  -0.5953712392E-05  -0.1852522543E-03  -0.2061691092E-04  -0.6900833553E-05
  -0.8379740480E+00  -0.1345108197E+01   0.7993892862E+00   0.3510319979E-02  -0.4693770158E-03  -0.6107258273E-03   0.0000000000E+00   0.0000000000E+00   0.0000000000E+00   0.1720738681E+00   0.9753914628E-02  -0.4981195529E-04  -0.1702763003E-01  -0.5823857785E-03  -0.5326679603E-03
  -0.1052805931E+01  -0.1354476054E+01   0.7994280943E+00   0.3161399385E-02  -0.5338936364E-03  -0.5719176626E-03   0.0000000000E+00   0.0000000000E+00   0.0000000000E+00   0.1617451055E+00  -0.5040044242E-02  -0.2592710916E-03  -0.1828365126E-01  -0.1278615028E-03  -0.1094245906E-03
  -0.1262482680E+01  -0.1361661899E+01   0.7994564062E+00   0.2827610210E-02  -0.5712390513E-03  -0.5436058235E-03   0.0000000000E+00   0.0000000000E+00   0.0000000000E+00   0.1524095988E+00  -0.1354025386E-01  -0.1045983206E-03  -0.2105277278E-01   0.9898292536E-04  -0.6275351261E-04
  -0.1465651542E+01  -0.1365985215E+01   0.7994760649E+00   0.2514098412E-02  -0.5832354897E-03  -0.5239471283E-03   0.0000000000E+00   0.0000000000E+00   0.0000000000E+00   0.1440247783E+00  -0.1786872433E-01   0.8388503745E-04  -0.2247136989E-01   0.1479939154E-03  -0.5498185445E-04
  -0.1668709126E+01  -0.1369539768E+01   0.7994899166E+00   0.2213513542E-02  -0.5760480267E-03  -0.5100954067E-03   0.0000000000E+00   0.0000000000E+00   0.0000000000E+00   0.1360773629E+00  -0.1916747302E-01   0.1087457822E-04  -0.2247769042E-01   0.1303720398E-03  -0.5689017486E-04
  -0.1873342131E+01  -0.1373501014E+01   0.7994995819E+00   0.1925488949E-02  -0.5546337242E-03  -0.5004300946E-03   0.0000000000E+00   0.0000000000E+00   0.0000000000E+00   0.1290421519E+00  -0.1863109147E-01   0.1667993592E-04  -0.2113209267E-01   0.8402010996E-04  -0.6975030697E-04
  -0.2078496992E+01  -0.1377604611E+01   0.7995062253E+00   0.1650747757E-02  -0.5258412888E-03  -0.4937866916E-03   0.0000000000E+00   0.0000000000E+00   0.0000000000E+00   0.1229850491E+00  -0.1705059799E-01  -0.1177896171E-04  -0.1889804106E-01   0.6052195616E-04  -0.6079621302E-04
  -0.2282011437E+01  -0.1381031845E+01   0.7995106945E+00   0.1391002975E-02  -0.4952852149E-03  -0.4893174582E-03   0.0000000000E+00   0.0000000000E+00   0.0000000000E+00   0.1179897304E+00  -0.1504539256E-01   0.2555685104E-04  -0.1622748176E-01   0.3526250574E-04  -0.5389992325E-04
  -0.2485094945E+01  -0.1384242103E+01   0.7995137076E+00   0.1142585143E-02  -0.4661528523E-03  -0.4863043975E-03   0.0000000000E+00   0.0000000000E+00   0.0000000000E+00   0.1139002082E+00  -0.1302295797E-01  -0.1189700811E-04  -0.1337968954E-01   0.2439302474E-04  -0.3747294547E-04
  -0.2688080911E+01  -0.1387283431E+01   0.7995156914E+00   0.9034794056E-03  -0.4402314809E-03  -0.4843205520E-03   0.0000000000E+00   0.0000000000E+00   0.0000000000E+00   0.1107087874E+00  -0.1114878817E-01   0.1271952467E-04  -0.1052100042E-01   0.1364147279E-04  -0.3152070496E-04
  -0.2891073637E+01  -0.1390041331E+01   0.7995169683E+00   0.6714532019E-03  -0.4191212825E-03  -0.4830436966E-03   0.0000000000E+00   0.0000000000E+00   0.0000000000E+00   0.1082914980E+00  -0.9613555122E-02  -0.8598917222E-05  -0.7734337796E-02   0.1048625827E-04  -0.2115834008E-04
  -0.3094102305E+01  -0.1392327963E+01   0.7995177421E+00   0.4447246233E-03  -0.4034630558E-03  -0.4822699158E-03   0.0000000000E+00   0.0000000000E+00   0.0000000000E+00   0.1066282299E+00  -0.8457444861E-02   0.9309527242E-05  -0.5095124296E-02   0.3982930846E-05  -0.1895183488E-04
  -0.3297131370E+01  -0.1393958345E+01   0.7995181582E+00   0.2214202129E-03  -0.3938846459E-03  -0.4818537779E-03   0.0000000000E+00   0.0000000000E+00   0.0000000000E+00   0.1056374283E+00  -0.7764660658E-02  -0.7868147436E-05  -0.2431626656E-02   0.5929166738E-05  -0.1347024922E-04
  -0.3500000000E+01  -0.1394735778E+01   0.7995182846E+00   0.0000000000E+00  -0.3904984057E-03  -0.4817273949E-03   0.0000000000E+00   0.0000000000E+00   0.0000000000E+00   0.1053222266E+00  -0.7522520184E-02   0.8328809243E-05  -0.2840292351E-03  -0.1169698178E-04  -0.1492684992E-04
  -0.8666699068E+00  -0.1126969995E+01   0.7994069224E+00   0.3220604170E-02  -0.6489154824E-03  -0.5930896027E-03   0.0000000000E+00   0.0000000000E+00   0.0000000000E+00   0.1640284816E+00   0.2919943620E-02  -0.2296101830E-02  -0.2565590274E-01  -0.1587290923E-02  -0.8883342445E-03
  -0.1081982712E+01  -0.1146942054E+01   0.7994508077E+00   0.2905267908E-02  -0.7205338093E-03  -0.5492043367E-03   0.0000000000E+00   0.0000000000E+00   0.0000000000E+00   0.1500393672E+00  -0.8946627185E-02   0.7220414995E-04  -0.2952950130E-01  -0.2253610374E-03  -0.1597517009E-03
  -0.1292461205E+01  -0.1158122494E+01   0.7994777132E+00   0.2597045122E-02  -0.7550237530E-03  -0.5222988310E-03   0.0000000000E+00   0.0000000000E+00   0.0000000000E+00   0.1413811547E+00  -0.1608561236E-01  -0.6543931038E-04  -0.2999613296E-01   0.6219492180E-04  -0.1897084508E-03
  -0.1486790657E+01  -0.1161889689E+01   0.7994941132E+00   0.2317903137E-02  -0.7623590838E-03  -0.5058988037E-03   0.0000000000E+00   0.0000000000E+00   0.0000000000E+00   0.1325113355E+00  -0.1827239748E-01  -0.5617163419E-05  -0.3066763744E-01   0.1463436183E-03  -0.1273908809E-03
  -0.1685183392E+01  -0.1164707776E+01   0.7995043897E+00   0.2046838384E-02  -0.7468457904E-03  -0.4956223033E-03   0.0000000000E+00   0.0000000000E+00   0.0000000000E+00   0.1253564210E+00  -0.1778732531E-01   0.7926170603E-04  -0.2944878399E-01   0.1243719123E-03  -0.1700385900E-03
  -0.1891020601E+01  -0.1170357933E+01   0.7995108041E+00   0.1781998928E-02  -0.7140531659E-03  -0.4892078863E-03   0.0000000000E+00   0.0000000000E+00   0.0000000000E+00   0.1191469672E+00  -0.1614465580E-01   0.6343476294E-05  -0.2692176598E-01   0.6863057278E-04  -0.1192080745E-03
  -0.2097999427E+01  -0.1176428467E+01   0.7995145760E+00   0.1528883300E-02  -0.6734471548E-03  -0.4854360335E-03   0.0000000000E+00   0.0000000000E+00   0.0000000000E+00   0.1142990070E+00  -0.1390053578E-01   0.2988747328E-04  -0.2357276980E-01   0.3850733532E-04  -0.1033203566E-03
  -0.2298139896E+01  -0.1179772688E+01   0.7995168699E+00   0.1293093692E-02  -0.6349778260E-03  -0.4831421248E-03   0.0000000000E+00   0.0000000000E+00   0.0000000000E+00   0.1104627397E+00  -0.1170158444E-01  -0.2981952663E-05  -0.1999811278E-01   0.1786339419E-04  -0.6561435141E-04
  -0.2498260282E+01  -0.1183064127E+01   0.7995181933E+00   0.1065948158E-02  -0.5985772533E-03  -0.4818186974E-03   0.0000000000E+00   0.0000000000E+00   0.0000000000E+00   0.1075169555E+00  -0.9655576254E-02   0.1199253111E-04  -0.1634480895E-01   0.8835148417E-05  -0.5489599701E-04
  -0.2698394741E+01  -0.1186243766E+01   0.7995189487E+00   0.8454693320E-03  -0.5669560144E-03  -0.4810632948E-03   0.0000000000E+00   0.0000000000E+00   0.0000000000E+00   0.1052575513E+00  -0.7936169388E-02  -0.4504629075E-05  -0.1278005785E-01   0.4891530702E-05  -0.3424626504E-04
  -0.2898572680E+01  -0.1189188447E+01   0.7995193419E+00   0.6301397675E-03  -0.5411765064E-03  -0.4806700584E-03   0.0000000000E+00   0.0000000000E+00   0.0000000000E+00   0.1036177076E+00  -0.6556381837E-02   0.8601080590E-05  -0.9371284324E-02   0.1828386905E-05  -0.2888330599E-04
  -0.3098835291E+01  -0.1191712543E+01   0.7995195405E+00   0.4183594777E-03  -0.5223033666E-03  -0.4804714926E-03   0.0000000000E+00   0.0000000000E+00   0.0000000000E+00   0.1024843772E+00  -0.5573373354E-02  -0.4188281224E-05  -0.6163932254E-02   0.9696360945E-06  -0.1812655016E-04
  -0.3299252560E+01  -0.1193596265E+01   0.7995196220E+00   0.2088002839E-03  -0.5105945713E-03  -0.4803899709E-03   0.0000000000E+00   0.0000000000E+00   0.0000000000E+00   0.1018380315E+00  -0.4972722483E-02   0.6615905474E-05  -0.2947534179E-02   0.1044115064E-05  -0.1795066029E-04
  -0.3500000000E+01  -0.1194630363E+01   0.7995196446E+00   0.0000000000E+00  -0.5065031261E-03  -0.4803674145E-03   0.0000000000E+00   0.0000000000E+00   0.0000000000E+00   0.1016178776E+00  -0.4784135306E-02  -0.4948369100E-05  -0.3296995868E-03  -0.3128920459E-05  -0.1347353365E-04
  -0.3304248271E+01  -0.9948065780E+00   0.7995211325E+00   0.1922290595E-03  -0.6163619663E-03  -0.4788795446E-03   0.0000000000E+00   0.0000000000E+00   0.0000000000E+00   0.9756061281E-01  -0.1757875649E-02  -0.2228713722E-05  -0.3188888848E-02  -0.4006550604E-05  -0.1304915353E-04
  -0.3500000000E+01  -0.9956217208E+00   0.7995210388E+00   0.0000000000E+00  -0.6120008352E-03  -0.4789732094E-03   0.0000000000E+00   0.0000000000E+00   0.0000000000E+00   0.9747435149E-01  -0.1605309878E-02   0.5703363749E-05  -0.3991266780E-03   0.8639905065E-05  -0.1565735198E-04
  -0.3310329058E+01  -0.7966468496E+00   0.7995224599E+00   0.1749015938E-03  -0.7107416112E-03  -0.4775521376E-03   0.0000000000E+00   0.0000000000E+00   0.0000000000E+00   0.9320039007E-01   0.1674890984E-02   0.1262112864E-05  -0.3172775644E-02  -0.9394533600E-05  -0.1211559749E-04
  -0.3500000000E+01  -0.7971652571E+00   0.7995222590E+00   0.0000000000E+00  -0.7065950565E-03  -0.4777530073E-03   0.0000000000E+00   0.0000000000E+00   0.0000000000E+00   0.9323043785E-01   0.1775549720E-02  -0.6792002823E-06  -0.3876653084E-03   0.2003063055E-04  -0.7677943363E-05
  -0.3316373623E+01  -0.5983954160E+00   0.7995233586E+00   0.1589867211E-03  -0.7943000410E-03  -0.4766533905E-03   0.0000000000E+00   0.0000000000E+00   0.0000000000E+00   0.8917440237E-01   0.5059524454E-02  -0.1280650070E-05  -0.2895189321E-02  -0.1389160902E-04  -0.2274929588E-05
  -0.3500000000E+01  -0.5986641553E+00   0.7995230660E+00   0.0000000000E+00  -0.7903482684E-03  -0.4769460408E-03   0.0000000000E+00   0.0000000000E+00   0.0000000000E+00   0.8931557717E-01   0.5116538563E-02   0.1010800988E-05  -0.4133354812E-03   0.3038980100E-04  -0.4935847273E-05
  -0.3321198001E+01  -0.3995772464E+00   0.7995235770E+00   0.1463789725E-03  -0.8679494034E-03  -0.4764350479E-03   0.0000000000E+00   0.0000000000E+00   0.0000000000E+00   0.8591563283E-01   0.8141238121E-02  -0.2114246405E-05  -0.2431309318E-02  -0.1779632311E-04   0.1588375030E-05
  -0.3500000000E+01  -0.3997669742E+00   0.7995232102E+00   0.0000000000E+00  -0.8644392363E-03  -0.4768017928E-03   0.0000000000E+00   0.0000000000E+00   0.0000000000E+00   0.8614850530E-01   0.8154151094E-02  -0.1493988313E-05  -0.3598724943E-03   0.3929375499E-04   0.5592608000E-05
  -0.3323335333E+01  -0.1997624228E+00   0.7995228802E+00   0.1388370841E-03  -0.9338447630E-03  -0.4771318173E-03   0.0000000000E+00   0.0000000000E+00   0.0000000000E+00   0.8383334908E-01   0.1066018288E-01  -0.4011828649E-05  -0.1801077956E-02  -0.2072326796E-04   0.1268329660E-04
  -0.3500000000E+01  -0.2001041306E+00   0.7995224583E+00   0.0000000000E+00  -0.9305456369E-03  -0.4775536823E-03   0.0000000000E+00   0.0000000000E+00   0.0000000000E+00   0.8413589258E-01   0.1064150514E-01  -0.3004212153E-05  -0.3575896203E-03   0.4568980138E-04   0.9926584257E-05
  -0.3108812684E+01  -0.9933312009E+00   0.7995214017E+00   0.3846963487E-03  -0.6287169443E-03  -0.4786102705E-03   0.0000000000E+00   0.0000000000E+00   0.0000000000E+00   0.9784397801E-01  -0.2217089000E-02   0.3464792067E-05  -0.6699537479E-02  -0.3852607130E-05  -0.2031830802E-04
  -0.3120759293E+01  -0.7956927619E+00   0.7995230621E+00   0.3497170949E-03  -0.7230839033E-03  -0.4769499414E-03   0.0000000000E+00   0.0000000000E+00   0.0000000000E+00   0.9310995706E-01   0.1357012237E-02  -0.1439189397E-05  -0.6665211685E-02  -0.7036359095E-05  -0.1173490483E-04
  -0.3132589013E+01  -0.5978814335E+00   0.7995242475E+00   0.3176670837E-03  -0.8058514762E-03  -0.4757644689E-03   0.0000000000E+00   0.0000000000E+00   0.0000000000E+00   0.8875045968E-01   0.4886781072E-02  -0.6410721468E-06  -0.6123128753E-02  -0.1037383519E-04  -0.8412271806E-05
  -0.3141985209E+01  -0.3992937533E+00   0.7995246950E+00   0.2922712201E-03  -0.8786052702E-03  -0.4753169668E-03   0.0000000000E+00   0.0000000000E+00   0.0000000000E+00   0.8521205558E-01   0.8091775715E-02  -0.3827781584E-05  -0.5152223314E-02  -0.1281631815E-04   0.2899919628E-05
  -0.3146324615E+01  -0.1994576656E+00   0.7995241781E+00   0.2768251182E-03  -0.9433526208E-03  -0.4758339296E-03   0.0000000000E+00   0.0000000000E+00   0.0000000000E+00   0.8291440898E-01   0.1070950593E-01  -0.1519984139E-05  -0.3868052142E-02  -0.1444025051E-04   0.8331998202E-05
  -0.2913534859E+01  -0.9913645527E+00   0.7995218250E+00   0.5781809759E-03  -0.6490486800E-03  -0.4781869826E-03   0.0000000000E+00   0.0000000000E+00   0.0000000000E+00   0.9834252534E-01  -0.3001680876E-02   0.6930626280E-07  -0.1019265504E-01  -0.5492034061E-05  -0.2222943003E-04
  -0.2931245753E+01  -0.7944047734E+00   0.7995240738E+00   0.5245674957E-03  -0.7432984239E-03  -0.4759381526E-03   0.0000000000E+00   0.0000000000E+00   0.0000000000E+00   0.9297677381E-01   0.8114462830E-03  -0.8913843520E-06  -0.1015683058E-01  -0.1427426077E-04  -0.2133621604E-04
  -0.2948716511E+01  -0.5971683803E+00   0.7995257658E+00   0.4755386779E-03  -0.8251613440E-03  -0.4742461814E-03   0.0000000000E+00   0.0000000000E+00   0.0000000000E+00   0.8803959431E-01   0.4574519633E-02  -0.1316379343E-05  -0.9333263820E-02  -0.2114158789E-04  -0.9770128737E-05
  -0.2962583897E+01  -0.3989038970E+00   0.7995266221E+00   0.4366629093E-03  -0.8962360160E-03  -0.4733898811E-03   0.0000000000E+00   0.0000000000E+00   0.0000000000E+00   0.8401719492E-01   0.7990739859E-02  -0.5158872960E-05  -0.7851773792E-02  -0.2688097731E-04  -0.3872186781E-05
  -0.2969343604E+01  -0.1990749505E+00   0.7995264211E+00   0.4125256515E-03  -0.9593035396E-03  -0.4735909498E-03   0.0000000000E+00   0.0000000000E+00   0.0000000000E+00   0.8134811706E-01   0.1076140310E-01  -0.4582592186E-05  -0.5872820711E-02  -0.3016045938E-04   0.9864863560E-05
  -0.2718339349E+01  -0.9890696080E+00   0.7995223698E+00   0.7735211747E-03  -0.6767780485E-03  -0.4776422465E-03   0.0000000000E+00   0.0000000000E+00   0.0000000000E+00   0.9910249570E-01  -0.4123911603E-02  -0.6426132748E-06  -0.1394693278E-01  -0.9069499643E-05  -0.3743853539E-04
  -0.2741764952E+01  -0.7928862834E+00   0.7995255099E+00   0.6995877632E-03  -0.7713703684E-03  -0.4745021082E-03   0.0000000000E+00   0.0000000000E+00   0.0000000000E+00   0.9282125155E-01   0.7820786459E-06  -0.8302972901E-06  -0.1393380095E-01  -0.1933827230E-04  -0.2666563709E-04
  -0.2764799484E+01  -0.5963106639E+00   0.7995279744E+00   0.6321555387E-03  -0.8519178912E-03  -0.4720376392E-03   0.0000000000E+00   0.0000000000E+00   0.0000000000E+00   0.8703008411E-01   0.4096332972E-02  -0.3402187133E-05  -0.1282800079E-01  -0.2975677131E-04  -0.2194364570E-04
  -0.2783111392E+01  -0.3984340749E+00   0.7995294495E+00   0.5785884561E-03  -0.9209829250E-03  -0.4705624655E-03   0.0000000000E+00   0.0000000000E+00   0.0000000000E+00   0.8229819378E-01   0.7804375310E-02  -0.6300829946E-05  -0.1078876388E-01  -0.3880955279E-04  -0.6587628724E-05
  -0.2792780464E+01  -0.1987094011E+00   0.7995297235E+00   0.5444858641E-03  -0.9813930770E-03  -0.4702885483E-03   0.0000000000E+00   0.0000000000E+00   0.0000000000E+00   0.7909656229E-01   0.1079927651E-01  -0.9165942624E-06  -0.8047236780E-02  -0.4404540902E-04   0.4387431814E-05
  -0.2523186163E+01  -0.9865805018E+00   0.7995229559E+00   0.9715968760E-03  -0.7115118147E-03  -0.4770560986E-03   0.0000000000E+00   0.0000000000E+00   0.0000000000E+00   0.1001928162E+00  -0.5590432686E-02   0.7793874096E-05  -0.1793484947E-01  -0.6541202000E-05  -0.4585578518E-04
  -0.2552303747E+01  -0.7912243108E+00   0.7995273811E+00   0.8750425633E-03  -0.8066397992E-03  -0.4726308574E-03   0.0000000000E+00   0.0000000000E+00   0.0000000000E+00   0.9267809416E-01  -0.1112182631E-02  -0.5980716659E-05  -0.1799548246E-01  -0.2683717667E-04  -0.4503964056E-04
  -0.2580862678E+01  -0.5953589710E+00   0.7995309610E+00   0.7871019130E-03  -0.8860860121E-03  -0.4690509955E-03   0.0000000000E+00   0.0000000000E+00   0.0000000000E+00   0.8572853444E-01   0.3383234142E-02  -0.4096988879E-05  -0.1661967452E-01  -0.4180362647E-04  -0.2995575193E-04
  -0.2603678321E+01  -0.3979341660E+00   0.7995333312E+00   0.7170686803E-03  -0.9525089723E-03  -0.4666808156E-03   0.0000000000E+00   0.0000000000E+00   0.0000000000E+00   0.8000183775E-01   0.7484587900E-02  -0.9755411185E-05  -0.1397597830E-01  -0.5497059170E-04  -0.2006280096E-04
  -0.2617914759E+01  -0.1987206280E+00   0.7995342331E+00   0.6705905183E-03  -0.1009369022E-02  -0.4657788563E-03   0.0000000000E+00   0.0000000000E+00   0.0000000000E+00   0.7610733071E-01   0.1074829948E-01   0.5019120135E-05  -0.1036893003E-01  -0.6314315912E-04   0.3529717306E-05
  -0.2328051540E+01  -0.9839891041E+00   0.7995234852E+00   0.1173519543E-02  -0.7518370675E-03  -0.4765267586E-03   0.0000000000E+00   0.0000000000E+00   0.0000000000E+00   0.1017107607E+00  -0.7457479691E-02  -0.1375496684E-04  -0.2214598798E-01  -0.9168022599E-05  -0.7556113367E-04
  -0.2362852697E+01  -0.7894823805E+00   0.7995296907E+00   0.1051302807E-02  -0.8485575425E-03  -0.4703212576E-03   0.0000000000E+00   0.0000000000E+00   0.0000000000E+00   0.9263292374E-01  -0.2587946368E-02   0.9544536974E-05  -0.2239177610E-01  -0.3136888847E-04  -0.6190452394E-04
  -0.2396918545E+01  -0.5943520979E+00   0.7995348426E+00   0.9400750756E-03  -0.9269429274E-03  -0.4651693835E-03   0.0000000000E+00   0.0000000000E+00   0.0000000000E+00   0.8413911533E-01   0.2377926489E-02  -0.4150545580E-05  -0.2077339907E-01  -0.5359770838E-04  -0.5121287822E-04
  -0.2424557363E+01  -0.3975141662E+00   0.7995384699E+00   0.8509966848E-03  -0.9906311916E-03  -0.4615420611E-03   0.0000000000E+00   0.0000000000E+00   0.0000000000E+00   0.7708413877E-01   0.6926477863E-02  -0.1832441559E-04  -0.1748786051E-01  -0.7110940120E-04  -0.2936932228E-04
  -0.2443497698E+01  -0.1989813635E+00   0.7995402392E+00   0.7905517222E-03  -0.1042980537E-02  -0.4597728469E-03   0.0000000000E+00   0.0000000000E+00   0.0000000000E+00   0.7225864632E-01   0.1057436902E-01   0.2944763257E-04  -0.1290480119E-01  -0.7914542827E-04  -0.5642482978E-05
  -0.2132918096E+01  -0.9813488453E+00   0.7995236953E+00   0.1380704333E-02  -0.7961722748E-03  -0.4763167274E-03   0.0000000000E+00   0.0000000000E+00   0.0000000000E+00   0.1038772938E+00  -0.9658808438E-02   0.3234176066E-04  -0.2650866598E-01   0.8823218155E-05  -0.8950681495E-04
  -0.2173405467E+01  -0.7876999049E+00   0.7995324227E+00   0.1228993397E-02  -0.8954669200E-03  -0.4675892757E-03   0.0000000000E+00   0.0000000000E+00   0.0000000000E+00   0.9275846053E-01  -0.4504524150E-02  -0.5514105676E-05  -0.2711107916E-01  -0.2496680553E-04  -0.8996448410E-04
  -0.2212973054E+01  -0.5933165962E+00   0.7995397920E+00   0.1090825862E-02  -0.9737421749E-03  -0.4602199921E-03   0.0000000000E+00   0.0000000000E+00   0.0000000000E+00   0.8229435475E-01   0.9719557027E-03   0.2910880748E-04  -0.2532502897E-01  -0.5553690633E-04  -0.7141847564E-04
  -0.2245287495E+01  -0.3970266427E+00   0.7995452015E+00   0.9798250198E-03  -0.1034661702E-02  -0.4548105312E-03   0.0000000000E+00   0.0000000000E+00   0.0000000000E+00   0.7350745885E-01   0.6046582320E-02  -0.1919996113E-04  -0.2136544279E-01  -0.8547333667E-04  -0.4788708157E-04
  -0.2267893609E+01  -0.1988498942E+00   0.7995482637E+00   0.9037911882E-03  -0.1082592211E-02  -0.4517482613E-03   0.0000000000E+00   0.0000000000E+00   0.0000000000E+00   0.6737635424E-01   0.1009051354E-01   0.3908905474E-04  -0.1568176367E-01  -0.9205184363E-04  -0.8976410616E-05
  -0.1935503638E+01  -0.9777723354E+00   0.7995233605E+00   0.1596532321E-02  -0.8420743732E-03  -0.4766514664E-03   0.0000000000E+00   0.0000000000E+00   0.0000000000E+00   0.1068155722E+00  -0.1222113144E-01   0.2954289081E-04  -0.3088068459E-01   0.3190781093E-04  -0.1270308928E-03
  -0.1983263835E+01  -0.7855942057E+00   0.7995355282E+00   0.1409545117E-02  -0.9454896768E-03  -0.4644838421E-03   0.0000000000E+00   0.0000000000E+00   0.0000000000E+00   0.9328738719E-01  -0.6913124561E-02   0.4983678790E-04  -0.3203218604E-01   0.7755216340E-05  -0.1121782363E-03
  -0.2028840400E+01  -0.5921510684E+00   0.7995460396E+00   0.1239439683E-02  -0.1024745402E-02  -0.4539724298E-03   0.0000000000E+00   0.0000000000E+00   0.0000000000E+00   0.8024342656E-01  -0.1004180851E-02   0.2173137234E-04  -0.3028768270E-01  -0.2844192270E-04  -0.9866203725E-04
  -0.2065898875E+01  -0.3964403984E+00   0.7995540101E+00   0.1102465100E-02  -0.1083624443E-02  -0.4460018777E-03   0.0000000000E+00   0.0000000000E+00   0.0000000000E+00   0.6916797857E-01   0.4697294711E-02   0.7499748985E-04  -0.2563027889E-01  -0.4589974010E-04  -0.6035926557E-04
  -0.2096737779E+01  -0.1994343490E+00   0.7995585958E+00   0.1005730615E-02  -0.1125642971E-02  -0.4414162493E-03   0.0000000000E+00   0.0000000000E+00   0.0000000000E+00   0.6170661913E-01   0.9265722656E-02   0.1118901064E-03  -0.1865785629E-01  -0.8153950859E-04  -0.1741213259E-04
  -0.1738630716E+01  -0.9742060499E+00   0.7995215859E+00   0.1820744160E-02  -0.8835388856E-03  -0.4784260740E-03   0.0000000000E+00   0.0000000000E+00   0.0000000000E+00   0.1108671639E+00  -0.1481830842E-01   0.8755149641E-04  -0.3483540175E-01   0.1067866563E-03  -0.1008884724E-03
  -0.1793386219E+01  -0.7832470240E+00   0.7995387177E+00   0.1593351424E-02  -0.9939970038E-03  -0.4612942825E-03   0.0000000000E+00   0.0000000000E+00   0.0000000000E+00   0.9444493258E-01  -0.9851529943E-02   0.6901074467E-04  -0.3693922261E-01   0.7796626134E-04  -0.1217680929E-03
  -0.1844935552E+01  -0.5906686135E+00   0.7995538333E+00   0.1385788073E-02  -0.1077050459E-02  -0.4461786659E-03   0.0000000000E+00   0.0000000000E+00   0.0000000000E+00   0.7816774266E-01  -0.3664819650E-02   0.1313651962E-03  -0.3551846754E-01   0.6659756692E-04  -0.8210749797E-04
  -0.1888985431E+01  -0.3959144117E+00   0.7995655471E+00   0.1216258963E-02  -0.1134669725E-02  -0.4344648679E-03   0.0000000000E+00   0.0000000000E+00   0.0000000000E+00   0.6416490554E-01   0.2602734092E-02   0.1678062921E-03  -0.3018634843E-01   0.5812134351E-04  -0.5120754066E-04
  -0.1930450294E+01  -0.2006406634E+00   0.7995719185E+00   0.1095556445E-02  -0.1170590426E-02  -0.4280934658E-03   0.0000000000E+00   0.0000000000E+00   0.0000000000E+00   0.5450135549E-01   0.7684442167E-02   0.1280362581E-03  -0.2181920594E-01   0.8769792264E-04   0.1059713576E-04
  -0.1543722988E+01  -0.9704143877E+00   0.7995172558E+00   0.2053381690E-02  -0.9124747256E-03  -0.4827561555E-03   0.0000000000E+00   0.0000000000E+00   0.0000000000E+00   0.1160551025E+00  -0.1695940303E-01   0.4474042485E-05  -0.3777625384E-01   0.1325092637E-03  -0.1274306483E-03
  -0.1604620821E+01  -0.7798215155E+00   0.7995412834E+00   0.1780498581E-02  -0.1035094496E-02  -0.4587286238E-03   0.0000000000E+00   0.0000000000E+00   0.0000000000E+00   0.9643812776E-01  -0.1293264779E-01   0.2306803076E-03  -0.4145863043E-01   0.1839885773E-03  -0.4777607969E-04
  -0.1662065045E+01  -0.5879650327E+00   0.7995633901E+00   0.1528605400E-02  -0.1125416688E-02  -0.4366219078E-03   0.0000000000E+00   0.0000000000E+00   0.0000000000E+00   0.7600028020E-01  -0.6975312946E-02   0.2555662791E-03  -0.4062672321E-01   0.2851125312E-03   0.1802290437E-04
  -0.1714616290E+01  -0.3958845129E+00   0.7995803431E+00   0.1321800204E-02  -0.1183955924E-02  -0.4196688711E-03   0.0000000000E+00   0.0000000000E+00   0.0000000000E+00   0.5838575624E-01  -0.5128202241E-03   0.3124869647E-03  -0.3487890921E-01   0.3798116161E-03   0.6435745912E-04
  -0.1748928859E+01  -0.1988088297E+00   0.7995918971E+00   0.1179860540E-02  -0.1221339730E-02  -0.4081149062E-03   0.0000000000E+00   0.0000000000E+00   0.0000000000E+00   0.4604871348E-01   0.4919799539E-02   0.5096591804E-03  -0.2511522301E-01   0.3943688549E-03   0.6523365542E-04
  -0.1351511896E+01  -0.9640846229E+00   0.7995077917E+00   0.2292334455E-02  -0.9217838884E-03  -0.4922203288E-03   0.0000000000E+00   0.0000000000E+00   0.0000000000E+00   0.1230058528E+00  -0.1708133984E-01   0.2356707101E-03  -0.3922298499E-01   0.9395610317E-04  -0.3868497025E-05
  -0.1418510702E+01  -0.7731974648E+00   0.7995418853E+00   0.1967168435E-02  -0.1059584783E-02  -0.4581267105E-03   0.0000000000E+00   0.0000000000E+00   0.0000000000E+00   0.9902445042E-01  -0.1540972016E-01   0.1303236479E-03  -0.4486670316E-01   0.2376242847E-03   0.2038019388E-03
  -0.1482043345E+01  -0.5822934375E+00   0.7995745575E+00   0.1664554542E-02  -0.1161979499E-02  -0.4254545241E-03   0.0000000000E+00   0.0000000000E+00   0.0000000000E+00   0.7374288315E-01  -0.1079827685E-01   0.5031949384E-03  -0.4500589870E-01   0.5615533741E-03   0.3765021931E-03
  -0.1536999636E+01  -0.3907091608E+00   0.7996008632E+00   0.1416754116E-02  -0.1228063840E-02  -0.3991487756E-03   0.0000000000E+00   0.0000000000E+00   0.0000000000E+00   0.5138662152E-01  -0.5063513320E-02   0.5512417016E-03  -0.3888295757E-01   0.8980074505E-03   0.3914761715E-03
  -0.1582765746E+01  -0.1991023851E+00   0.7996170604E+00   0.1245093879E-02  -0.1264496066E-02  -0.3829515710E-03   0.0000000000E+00   0.0000000000E+00   0.0000000000E+00   0.3575609453E-01   0.9763791078E-04   0.6924607348E-03  -0.2804167055E-01   0.1134044151E-02   0.2876178178E-03
  -0.1157005080E+01  -0.9505372581E+00   0.7994904179E+00   0.2534260449E-02  -0.9017520979E-03  -0.5095940929E-03   0.0000000000E+00   0.0000000000E+00   0.0000000000E+00   0.1291388318E+00  -0.1310454500E-01  -0.7624486428E-04  -0.3981809498E-01  -0.3951966466E-03  -0.4318554905E-04
  -0.1235884091E+01  -0.7600559807E+00   0.7995382472E+00   0.2144558545E-02  -0.1056871677E-02  -0.4617647888E-03   0.0000000000E+00   0.0000000000E+00   0.0000000000E+00   0.1008021671E+00  -0.1437942064E-01   0.5691538147E-03  -0.4689891393E-01  -0.1705432028E-04   0.7387473487E-03
  -0.1307794021E+01  -0.5714193643E+00   0.7995864637E+00   0.1785109199E-02  -0.1173562328E-02  -0.4135483338E-03   0.0000000000E+00   0.0000000000E+00   0.0000000000E+00   0.6935016539E-01  -0.1350615582E-01   0.2516627863E-03  -0.4682215288E-01   0.8597033628E-03   0.1246638808E-02
  -0.1366058895E+01  -0.3823047793E+00   0.7996264090E+00   0.1494695483E-02  -0.1251689338E-02  -0.3736030180E-03   0.0000000000E+00   0.0000000000E+00   0.0000000000E+00   0.4277429084E-01  -0.1142350881E-01   0.5363431748E-03  -0.4017903144E-01   0.1639946417E-02   0.1117110884E-02
  -0.1408004995E+01  -0.1918521581E+00   0.7996531213E+00   0.1296045122E-02  -0.1299894061E-02  -0.3468906683E-03   0.0000000000E+00   0.0000000000E+00   0.0000000000E+00   0.2434125077E-01  -0.8916175682E-02   0.6337288484E-03  -0.2863347982E-01   0.2131329160E-02   0.7937250045E-03
  -0.9645868031E+00  -0.9251643941E+00   0.7994586781E+00   0.2758553893E-02  -0.8473921362E-03  -0.5413339362E-03   0.0000000000E+00   0.0000000000E+00   0.0000000000E+00   0.1401696840E+00  -0.2077703883E-02   0.1828608931E-03  -0.4190113001E-01  -0.1767870237E-02   0.1884095277E-03
  -0.1061636584E+01  -0.7371879020E+00   0.7995280576E+00   0.2286775804E-02  -0.1013378026E-02  -0.4719543642E-03   0.0000000000E+00   0.0000000000E+00   0.0000000000E+00   0.9904738138E-01  -0.6774811068E-02   0.2319959976E-03  -0.4796221079E-01  -0.8712384826E-03   0.2214546465E-02
  -0.1144797780E+01  -0.5535045676E+00   0.7995976348E+00   0.1874109826E-02  -0.1141946560E-02  -0.4023772027E-03   0.0000000000E+00   0.0000000000E+00   0.0000000000E+00   0.6225431674E-01  -0.1328273493E-01   0.4818012220E-03  -0.4463516136E-01   0.4382838224E-03   0.2683028074E-02
  -0.1208382224E+01  -0.3696076120E+00   0.7996552560E+00   0.1549385803E-02  -0.1238152026E-02  -0.3447559830E-03   0.0000000000E+00   0.0000000000E+00   0.0000000000E+00   0.3258339731E-01  -0.1960518248E-01   0.7953026150E-03  -0.3656847501E-01   0.1648678160E-02   0.2425914010E-02
  -0.1251052883E+01  -0.1845016309E+00   0.7996950350E+00   0.1330947171E-02  -0.1307112904E-02  -0.3049770356E-03   0.0000000000E+00   0.0000000000E+00   0.0000000000E+00   0.1248766715E-01  -0.2304667422E-01   0.1430072912E-02  -0.2581157445E-01   0.2657751972E-02   0.1710416994E-02
  -0.7755937903E+00  -0.8820718528E+00   0.7994141163E+00   0.2917137661E-02  -0.7585888161E-03  -0.5858956580E-03   0.0000000000E+00   0.0000000000E+00   0.0000000000E+00   0.1335281118E+00   0.3357747943E-01   0.5476020176E-02  -0.5821784867E-01  -0.2047266721E-02   0.2234376598E-02
  -0.9013849237E+00  -0.7056970298E+00   0.7995101568E+00   0.2362754315E-02  -0.9131728471E-03  -0.4898551571E-03   0.0000000000E+00   0.0000000000E+00   0.0000000000E+00   0.8005592868E-01   0.2037342905E-01  -0.1285620005E-02  -0.4909664510E-01  -0.2276432855E-02   0.4337890636E-02
  -0.9998406202E+00  -0.5318225393E+00   0.7996031791E+00   0.1916759790E-02  -0.1048363341E-02  -0.3968329011E-03   0.0000000000E+00   0.0000000000E+00   0.0000000000E+00   0.3992506246E-01  -0.2243222080E-02  -0.2191351837E-02  -0.3221099186E-01  -0.1243241774E-02   0.4802123527E-02
  -0.1070581506E+01  -0.3558123194E+00   0.7996798089E+00   0.1581243818E-02  -0.1167246401E-02  -0.3202030612E-03   0.0000000000E+00   0.0000000000E+00   0.0000000000E+00   0.1466763238E-01  -0.2994980743E-01  -0.4761647510E-02  -0.1824179607E-01   0.1576665047E-04   0.4194798932E-02
  -0.1114021129E+01  -0.1773995741E+00   0.7997340547E+00   0.1359040593E-02  -0.1274510102E-02  -0.2659573144E-03   0.0000000000E+00   0.0000000000E+00   0.0000000000E+00   0.1091694004E-02  -0.5254178252E-01  -0.5891795255E-02  -0.1117664218E-01   0.1129200143E-02   0.3034142652E-02
  -0.9853672383E+00  -0.1633242461E+00   0.7997718290E+00   0.1400053716E-02  -0.1181403149E-02  -0.2281830085E-03   0.0000000000E+00   0.0000000000E+00   0.0000000000E+00   0.6425965834E-03  -0.9024213326E-01  -0.6234833226E-02   0.8699127557E-02  -0.1455271847E-02   0.5816304765E-02
  -0.9440440225E+00  -0.3262889203E+00   0.7997055793E+00   0.1576454490E-02  -0.1016926325E-02  -0.2944327352E-03   0.0000000000E+00   0.0000000000E+00   0.0000000000E+00   0.2696423903E-02  -0.4300153348E-01  -0.4962023406E-02   0.5597524147E-02  -0.3012821556E-02   0.8176550045E-02
  -0.8746573553E+00  -0.4822680315E+00   0.7996156066E+00   0.1848317727E-02  -0.8765414986E-03  -0.3844053996E-03   0.0000000000E+00   0.0000000000E+00   0.0000000000E+00   0.1699191795E-01   0.9131116393E-02  -0.3856895829E-02  -0.1510440908E-01  -0.5070413598E-02   0.9216365303E-02
  -0.7758772945E+00  -0.6289062782E+00   0.7995088051E+00   0.2221229497E-02  -0.7640401575E-03  -0.4912068831E-03   0.0000000000E+00   0.0000000000E+00   0.0000000000E+00   0.5511468901E-01   0.5006327477E-01  -0.1602335039E-02  -0.5139269211E-01  -0.6653675973E-02   0.8812609738E-02
  -0.6465588904E+00  -0.7612456742E+00   0.7993989148E+00   0.2700676625E-02  -0.6787841757E-03  -0.6010972190E-03   0.0000000000E+00   0.0000000000E+00   0.0000000000E+00   0.1254959929E+00   0.6472591701E-01  -0.8244402353E-03  -0.8291738374E-01  -0.6551545767E-02   0.6018590420E-02
   0.6842839018E+00   0.9252451299E+00   0.9992860400E+00   0.6912459822E-02  -0.2519941099E-02  -0.7139600128E-03   0.0000000000E+00   0.0000000000E+00   0.0000000000E+00   0.1556396496E+00  -0.7674100558E-02  -0.3054379917E-03  -0.3299366122E-01   0.7233226690E-02  -0.4691597383E-02
   0.4941180331E+00   0.1030581423E+01   0.9991019395E+00   0.6289421138E-02  -0.2971577150E-02  -0.8980604851E-03   0.0000000000E+00   0.0000000000E+00   0.0000000000E+00   0.2056958739E+00   0.8259307980E-02   0.3637292009E-02  -0.2584335305E-01   0.8056942804E-02  -0.2592536033E-03
   0.4327283476E+00   0.9017074926E+00   0.9990506692E+00   0.6586608604E-02  -0.2948917434E-02  -0.9493307915E-03   0.0000000000E+00   0.0000000000E+00   0.0000000000E+00   0.2200826011E+00   0.2741705433E-01   0.1964827438E-02  -0.8009353634E-01   0.1613278446E-01  -0.8116632503E-02
   0.5971637270E+00   0.8048164054E+00   0.9992716862E+00   0.7223834958E-02  -0.2630729575E-02  -0.7283138133E-03   0.0000000000E+00   0.0000000000E+00   0.0000000000E+00   0.1258268339E+00   0.3304459351E-01   0.9961852074E-03  -0.6451594158E-01   0.1513557522E-01  -0.1032096592E-01
   0.2798011120E+00   0.1094790711E+01   0.9989474284E+00   0.5696903958E-02  -0.3356799318E-02  -0.1052571641E-02   0.0000000000E+00   0.0000000000E+00   0.0000000000E+00   0.2539189269E+00   0.2071747450E-01   0.7014945341E-02  -0.1589720726E-01   0.6930012125E-02   0.4547199507E-02
   0.2518443494E+00   0.9660784441E+00   0.9988688840E+00   0.5906614372E-02  -0.3207162893E-02  -0.1131115997E-02   0.0000000000E+00   0.0000000000E+00   0.0000000000E+00   0.3120444006E+00   0.1213388328E-01   0.5408737511E-02  -0.6197449478E-01   0.1288919967E-01  -0.3076228466E-02
   0.6263808863E-01   0.1126593209E+01   0.9988772388E+00   0.5138359529E-02  -0.3554011442E-02  -0.1122761242E-02   0.0000000000E+00   0.0000000000E+00   0.0000000000E+00   0.2740266649E+00   0.2604545662E-01   0.7344866399E-02  -0.4247233902E-02   0.1487504581E-02   0.7122354667E-02
   0.6501301987E-01   0.9948729964E+00   0.9987773801E+00   0.5217558268E-02  -0.3337672602E-02  -0.1222619884E-02   0.0000000000E+00   0.0000000000E+00   0.0000000000E+00   0.3671199325E+00   0.1411935847E-02   0.9018616492E-02  -0.1561952421E-01   0.3342730430E-02   0.1420900451E-02
  -0.1601053050E+00   0.1124619984E+01   0.9989085033E+00   0.4593667989E-02  -0.3495435584E-02  -0.1091496657E-02   0.0000000000E+00   0.0000000000E+00   0.0000000000E+00   0.2648881375E+00   0.2358674424E-01   0.7646694183E-02   0.6911253017E-02  -0.4133768306E-02   0.6424686266E-02
  -0.1263316773E+00   0.9881009003E+00   0.9988036876E+00   0.4512811660E-02  -0.3302023713E-02  -0.1196312443E-02   0.0000000000E+00   0.0000000000E+00   0.0000000000E+00   0.3513151609E+00   0.4354656506E-02   0.7245232565E-02   0.4047469656E-01  -0.8495503595E-02  -0.7916213823E-03
  -0.3868365430E+00   0.1089212200E+01   0.9990356973E+00   0.4028245985E-02  -0.3190850243E-02  -0.9643027420E-03   0.0000000000E+00   0.0000000000E+00   0.0000000000E+00   0.2278194003E+00   0.1270017953E-01   0.5618680496E-02   0.1275160184E-01  -0.8162949862E-02   0.3840404808E-02
  -0.3243611437E+00   0.9415347155E+00   0.9989503750E+00   0.3781290324E-02  -0.3093523500E-02  -0.1049624959E-02   0.0000000000E+00   0.0000000000E+00   0.0000000000E+00   0.2664399218E+00   0.1496989818E-01   0.2940889130E-02   0.7119564518E-01  -0.1437402475E-01  -0.7285091878E-02
   0.7937757630E+00   0.1068767346E+01   0.9993036667E+00   0.6783152991E-02  -0.2474274054E-02  -0.6963333148E-03   0.0000000000E+00   0.0000000000E+00   0.0000000000E+00   0.1714546906E+00  -0.2969089499E-01  -0.1339906242E-03  -0.4801810066E-02   0.2688303552E-02  -0.1024383427E-02
   0.5197291315E+00   0.1177643726E+01   0.9991455576E+00   0.6082648478E-02  -0.3080893557E-02  -0.8544424127E-03   0.0000000000E+00   0.0000000000E+00   0.0000000000E+00   0.2025810991E+00  -0.3867882560E-02  -0.3258357243E-03   0.1727690307E-01   0.5391620431E-02   0.2954486427E-02
   0.2844638184E+00   0.1237788572E+01   0.9990432531E+00   0.5548890383E-02  -0.3493177595E-02  -0.9567468672E-03   0.0000000000E+00   0.0000000000E+00   0.0000000000E+00   0.2093160295E+00   0.2044139141E-01  -0.6824109651E-03   0.1560926067E-01   0.3680044673E-02   0.6105188275E-02
   0.6234272215E-01   0.1268370021E+01   0.9990067454E+00   0.5107652555E-02  -0.3681079279E-02  -0.9932545605E-03   0.0000000000E+00   0.0000000000E+00   0.0000000000E+00   0.2074790891E+00   0.3342114991E-01  -0.9366421485E-03   0.5041080828E-02   0.8264199077E-03   0.8103089255E-02
  -0.1589282124E+00   0.1275057742E+01   0.9990327670E+00   0.4692885608E-02  -0.3631878493E-02  -0.9672330099E-03   0.0000000000E+00   0.0000000000E+00   0.0000000000E+00   0.2027272384E+00   0.2909086742E-01  -0.9779817875E-03  -0.1053165135E-01  -0.2274156759E-02   0.7436755381E-02
  -0.3849687573E+00   0.1261504431E+01   0.9991120534E+00   0.4258930668E-02  -0.3360248711E-02  -0.8879466264E-03   0.0000000000E+00   0.0000000000E+00   0.0000000000E+00   0.1962947409E+00   0.8145187000E-02  -0.1741498308E-02  -0.2098559872E-01  -0.3731299986E-02   0.3922697206E-02
  -0.1705929943E+00   0.1442622575E+01   0.9991491220E+00   0.4724993695E-02  -0.3736584995E-02  -0.8508780188E-03   0.0000000000E+00   0.0000000000E+00   0.0000000000E+00   0.1723549920E+00   0.2463833477E-01   0.3603074782E-03  -0.1600644295E-01  -0.1055250975E-02   0.3365285591E-02
  -0.3927919214E+00   0.1441017132E+01   0.9991916448E+00   0.4361813616E-02  -0.3498808196E-02  -0.8083551839E-03   0.0000000000E+00   0.0000000000E+00   0.0000000000E+00   0.1734067179E+00   0.9197815228E-02   0.2845888085E-03  -0.2842891735E-01  -0.1214663061E-02   0.2032520050E-02
  -0.1838919264E+00   0.1621771441E+01   0.9992538254E+00   0.4740576569E-02  -0.3833189062E-02  -0.7461746057E-03   0.0000000000E+00   0.0000000000E+00   0.0000000000E+00   0.1480880236E+00   0.1569033826E-01   0.3846464455E-03  -0.1660450263E-01  -0.1933391482E-03   0.3896378677E-02
  -0.4049744529E+00   0.1623878873E+01   0.9992673351E+00   0.4423447083E-02  -0.3615936513E-02  -0.7326648925E-03   0.0000000000E+00   0.0000000000E+00   0.0000000000E+00   0.1516524341E+00   0.6378534180E-02   0.1534839638E-03  -0.2841137711E-01  -0.1776265729E-03   0.2701212780E-02
  -0.1935168444E+00   0.1807455465E+01   0.9993535249E+00   0.4768839623E-02  -0.3932075058E-02  -0.6464751411E-03   0.0000000000E+00   0.0000000000E+00   0.0000000000E+00   0.1181697395E+00   0.5289266067E-02  -0.1744699566E-02  -0.1085093528E-01   0.6281936046E-03   0.2273366297E-02
  -0.4143828507E+00   0.1809232053E+01   0.9993395159E+00   0.4498774315E-02  -0.3725946865E-02  -0.6604840547E-03   0.0000000000E+00   0.0000000000E+00   0.0000000000E+00   0.1269277401E+00   0.2313304034E-02  -0.1116456949E-02  -0.1840328705E-01   0.1140414604E-02   0.1516204220E-02
  -0.2012515845E+00   0.1995990176E+01   0.9994340924E+00   0.4839938522E-02  -0.4009824366E-02  -0.5659076182E-03   0.0000000000E+00   0.0000000000E+00   0.0000000000E+00   0.8555866612E-01   0.3638395115E-02  -0.1246310083E-02  -0.4698678619E-02   0.2409809155E-02   0.4946768470E-03
  -0.4219985604E+00   0.1996183267E+01   0.9993980048E+00   0.4639208553E-02  -0.3816733115E-02  -0.6019952067E-03   0.0000000000E+00   0.0000000000E+00   0.0000000000E+00   0.1028692254E+00   0.2224859094E-02  -0.7336301445E-03  -0.7760935391E-02   0.4130421236E-02   0.4167523624E-03
   0.5149319973E-01   0.1433863861E+01   0.9991295198E+00   0.5073698429E-02  -0.3792299399E-02  -0.8704801961E-03   0.0000000000E+00   0.0000000000E+00   0.0000000000E+00   0.1738216654E+00   0.2947972543E-01   0.5831256823E-03   0.3961499819E-02   0.1297000025E-03   0.3774534524E-02
   0.3863319384E-01   0.1614479836E+01   0.9992444294E+00   0.5046777443E-02  -0.3893324179E-02  -0.7555705930E-03   0.0000000000E+00   0.0000000000E+00   0.0000000000E+00   0.1477284625E+00   0.1941326116E-01   0.4729068174E-03   0.2626764851E-02  -0.2936445381E-04   0.4467488428E-02
   0.2889918245E-01   0.1803448591E+01   0.9993557829E+00   0.5027775546E-02  -0.3995269206E-02  -0.6442170698E-03   0.0000000000E+00   0.0000000000E+00   0.0000000000E+00   0.1157893589E+00   0.6867396700E-02  -0.1900072512E-02   0.1308827962E-02  -0.3954682602E-04   0.2560586819E-02
   0.2137328884E-01   0.1995926851E+01   0.9994461053E+00   0.5013259242E-02  -0.4073148692E-02  -0.5538946856E-03   0.0000000000E+00   0.0000000000E+00   0.0000000000E+00   0.7945650063E-01   0.4244817489E-02  -0.1519188035E-02   0.1213303066E-03  -0.2739702065E-03   0.5151223446E-03
   0.2761301490E+00   0.1411142758E+01   0.9991439168E+00   0.5440392989E-02  -0.3636431833E-02  -0.8560831774E-03   0.0000000000E+00   0.0000000000E+00   0.0000000000E+00   0.1775834675E+00   0.2033540552E-01   0.3839364941E-03   0.2192823583E-01   0.1267256051E-02   0.3229433896E-02
   0.2630240138E+00   0.1600109827E+01   0.9992440453E+00   0.5362670801E-02  -0.3770103045E-02  -0.7559546958E-03   0.0000000000E+00   0.0000000000E+00   0.0000000000E+00   0.1520800244E+00   0.1492899053E-01   0.5969336149E-03   0.2136194607E-01   0.4188196744E-03   0.3808776670E-02
   0.2523727346E+00   0.1796582294E+01   0.9993459457E+00   0.5292736627E-02  -0.3893776049E-02  -0.6540543209E-03   0.0000000000E+00   0.0000000000E+00   0.0000000000E+00   0.1210134938E+00   0.5306535938E-02  -0.1850679170E-02   0.1354289088E-01  -0.7435817888E-03   0.2262969165E-02
   0.2442646948E+00   0.1996011028E+01   0.9994289106E+00   0.5189704843E-02  -0.3988972212E-02  -0.5710894292E-03   0.0000000000E+00   0.0000000000E+00   0.0000000000E+00   0.8777316898E-01   0.3964915949E-02  -0.9724905540E-03   0.5333999611E-02  -0.2769422053E-02   0.2750026828E-03
   0.5087693201E+00   0.1374288326E+01   0.9991910233E+00   0.5860017107E-02  -0.3292913511E-02  -0.8089766878E-03   0.0000000000E+00   0.0000000000E+00   0.0000000000E+00   0.1799052874E+00   0.1448164117E-02   0.4612714785E-03   0.2675827278E-01   0.1776669111E-02   0.1225654645E-02
   0.4909567383E+00   0.1579747961E+01   0.9992552939E+00   0.5710378289E-02  -0.3486108654E-02  -0.7447060732E-03   0.0000000000E+00   0.0000000000E+00   0.0000000000E+00   0.1578399940E+00   0.3205865683E-02  -0.1198472769E-03   0.3181504311E-01   0.4287957476E-03   0.2563653263E-02
   0.4769683871E+00   0.1787536382E+01   0.9993269279E+00   0.5582759115E-02  -0.3650908328E-02  -0.6730721088E-03   0.0000000000E+00   0.0000000000E+00   0.0000000000E+00   0.1320817763E+00   0.2318298388E-02  -0.7525455926E-03   0.2072065386E-01  -0.1027119895E-02   0.1322772105E-02
   0.4667528945E+00   0.1996221940E+01   0.9993896032E+00   0.5397118517E-02  -0.3778059984E-02  -0.6103968193E-03   0.0000000000E+00   0.0000000000E+00   0.0000000000E+00   0.1060646447E+00   0.2330728568E-02  -0.7667563161E-03   0.8264432418E-02  -0.4220902035E-02   0.3793484674E-03
   0.7510919363E+00   0.1329626180E+01   0.9992579896E+00   0.6335357269E-02  -0.2842450447E-02  -0.7420104083E-03   0.0000000000E+00   0.0000000000E+00   0.0000000000E+00   0.1758415286E+00  -0.1783726000E-01   0.5596844153E-03   0.2022709505E-01   0.1414567080E-02  -0.6150539011E-03
   0.7187919457E+00   0.1557776863E+01   0.9992726340E+00   0.6089373700E-02  -0.3117867340E-02  -0.7273660291E-03   0.0000000000E+00   0.0000000000E+00   0.0000000000E+00   0.1610280944E+00  -0.7362718109E-02   0.8971829213E-04   0.3051625229E-01   0.2585952341E-03   0.1362805963E-02
   0.6977553203E+00   0.1777710940E+01   0.9993071923E+00   0.5895002349E-02  -0.3328059798E-02  -0.6928076900E-03   0.0000000000E+00   0.0000000000E+00   0.0000000000E+00   0.1431144446E+00  -0.1490046183E-02  -0.4089965626E-03   0.2153161224E-01  -0.9809561787E-03   0.4689198595E-03
   0.6876150891E+00   0.1996510296E+01   0.9993400195E+00   0.5653851106E-02  -0.3489704482E-02  -0.6599805247E-03   0.0000000000E+00   0.0000000000E+00   0.0000000000E+00   0.1288832786E+00   0.8707352445E-03   0.8071713384E-04   0.9532613615E-02  -0.4353004500E-02   0.1043878022E-03
   0.9205894738E+00   0.1772378151E+01   0.9992903917E+00   0.6233003813E-02  -0.2981239007E-02  -0.7096083249E-03   0.0000000000E+00   0.0000000000E+00   0.0000000000E+00   0.1517633882E+00  -0.3918602972E-02   0.4590467361E-04   0.1744071421E-01  -0.8248422788E-03  -0.1104824067E-03
   0.9082620228E+00   0.1996826927E+01   0.9992937984E+00   0.5958505817E-02  -0.3173072788E-02  -0.7062016493E-03   0.0000000000E+00   0.0000000000E+00   0.0000000000E+00   0.1494678032E+00  -0.6212439848E-03   0.5222141862E-03   0.7279638106E-02  -0.3434905751E-02  -0.1207810227E-03
   0.1140928664E+01   0.1770099593E+01   0.9992786218E+00   0.6577644129E-02  -0.2662947211E-02  -0.7213781968E-03   0.0000000000E+00   0.0000000000E+00   0.0000000000E+00   0.1575807874E+00  -0.4522587973E-02   0.7169701542E-03   0.1027981711E-01  -0.3761541288E-03  -0.7171313180E-03
   0.1127812397E+01   0.1997129307E+01   0.9992598962E+00   0.6304867430E-02  -0.2870693454E-02  -0.7401037953E-03   0.0000000000E+00   0.0000000000E+00   0.0000000000E+00   0.1638988890E+00  -0.1597075615E-02   0.4546391658E-03   0.5231624578E-02  -0.2259377258E-02  -0.2010568575E-04
   0.1359054458E+01   0.1769510535E+01   0.9992736292E+00   0.6926187885E-02  -0.2397504852E-02  -0.7263708325E-03   0.0000000000E+00   0.0000000000E+00   0.0000000000E+00   0.1592026897E+00  -0.3930294480E-02   0.5686183307E-03   0.3305142636E-02  -0.1083301900E-03  -0.9287076969E-03
   0.1346199242E+01   0.1997390915E+01   0.9992409759E+00   0.6673542212E-02  -0.2609085034E-02  -0.7590240652E-03   0.0000000000E+00   0.0000000000E+00   0.0000000000E+00   0.1718549984E+00  -0.1896219937E-02   0.6802587498E-03   0.1981736164E-02  -0.9391168287E-03  -0.1695308928E-03
   0.1575692224E+01   0.1769715983E+01   0.9992736868E+00   0.7269433963E-02  -0.2192177334E-02  -0.7263132363E-03   0.0000000000E+00   0.0000000000E+00   0.0000000000E+00   0.1582862160E+00  -0.2494667854E-02   0.8050258065E-03  -0.2048397330E-02   0.1035946842E-03  -0.9205979062E-03
   0.1563716403E+01   0.1997601672E+01   0.9992371250E+00   0.7052892859E-02  -0.2398328414E-02  -0.7628750419E-03   0.0000000000E+00   0.0000000000E+00   0.0000000000E+00   0.1730243937E+00  -0.1848731669E-02   0.3037134849E-03   0.1855545551E-04   0.1990959900E-04  -0.5043258561E-04
   0.1791483729E+01   0.1770266860E+01   0.9992791970E+00   0.7606599192E-02  -0.2040419923E-02  -0.7208030015E-03   0.0000000000E+00   0.0000000000E+00   0.0000000000E+00   0.1551712186E+00  -0.1461843628E-02   0.5281329421E-03  -0.5170267116E-02   0.2765124040E-03  -0.7780729965E-03
   0.1780684321E+01   0.1997762032E+01   0.9992434167E+00   0.7428140860E-02  -0.2237968452E-02  -0.7565833075E-03   0.0000000000E+00   0.0000000000E+00   0.0000000000E+00   0.1700359194E+00  -0.1474086397E-02   0.3273303020E-03  -0.1621454190E-02   0.5924995527E-03  -0.1015732948E-03
   0.2006835711E+01   0.1770957522E+01   0.9992879035E+00   0.7934101373E-02  -0.1933287560E-02  -0.7120964755E-03   0.0000000000E+00   0.0000000000E+00   0.0000000000E+00   0.1511948955E+00  -0.5112744677E-03   0.5232066714E-03  -0.6647790519E-02   0.3307400310E-03  -0.6164468436E-03
   0.1997341076E+01   0.1997879634E+01   0.9992566417E+00   0.7793706252E-02  -0.2120366084E-02  -0.7433583215E-03   0.0000000000E+00   0.0000000000E+00   0.0000000000E+00   0.1642733939E+00  -0.1178571558E-02   0.4310990605E-04  -0.2105413299E-02   0.8608681701E-03  -0.2837113179E-04
   0.2221972110E+01   0.1771698150E+01   0.9992986148E+00   0.8252499595E-02  -0.1859749720E-02  -0.7013851626E-03   0.0000000000E+00   0.0000000000E+00   0.0000000000E+00   0.1466387848E+00  -0.2902109251E-04   0.3041306772E-03  -0.6797886777E-02   0.3460212316E-03  -0.4574291622E-03
   0.2213829154E+01   0.1997962875E+01   0.9992723709E+00   0.8144494178E-02  -0.2037124881E-02  -0.7276291205E-03   0.0000000000E+00   0.0000000000E+00   0.0000000000E+00   0.1577617456E+00  -0.8156796510E-03   0.5357202657E-04  -0.2375049045E-02   0.8851127268E-03  -0.5648486150E-04
   0.2437002181E+01   0.1772448197E+01   0.9993093687E+00   0.8560891105E-02  -0.1811133236E-02  -0.6906312521E-03   0.0000000000E+00   0.0000000000E+00   0.0000000000E+00   0.1422877755E+00   0.3462644342E-03   0.2689292215E-03  -0.6234237593E-02   0.3023186099E-03  -0.3301361797E-03
   0.2430225406E+01   0.1998020450E+01   0.9992884425E+00   0.8480816012E-02  -0.1979550254E-02  -0.7115575470E-03   0.0000000000E+00   0.0000000000E+00   0.0000000000E+00   0.1511781428E+00  -0.6047275176E-03  -0.9150600345E-04  -0.2092173061E-02   0.8033198007E-03  -0.1682438884E-04
   0.2651969603E+01   0.1773178846E+01   0.9993193058E+00   0.8860762586E-02  -0.1779763547E-02  -0.6806941832E-03   0.0000000000E+00   0.0000000000E+00   0.0000000000E+00   0.1383071829E+00   0.4659533998E-03   0.1378392054E-03  -0.5186122677E-02   0.2526816217E-03  -0.2287129678E-03
   0.2646557564E+01   0.1998059061E+01   0.9993026674E+00   0.8802883573E-02  -0.1940939379E-02  -0.6973326092E-03   0.0000000000E+00   0.0000000000E+00   0.0000000000E+00   0.1454513982E+00  -0.3866300441E-03  -0.6118052347E-04  -0.1810686183E-02   0.6486889858E-03  -0.3452146401E-04
   0.2866865117E+01   0.1773844313E+01   0.9993274476E+00   0.9152847081E-02  -0.1760407236E-02  -0.6725523831E-03   0.0000000000E+00   0.0000000000E+00   0.0000000000E+00   0.1350993419E+00   0.5708774551E-03   0.1251031450E-03  -0.3970863905E-02   0.1840542622E-03  -0.1600805500E-03
   0.2862810188E+01   0.1998084239E+01   0.9993143653E+00   0.9113368316E-02  -0.1915760640E-02  -0.6856346646E-03   0.0000000000E+00   0.0000000000E+00   0.0000000000E+00   0.1407268234E+00  -0.2871973944E-03  -0.1284752318E-03  -0.1334156643E-02   0.4824036405E-03  -0.1060726069E-04
   0.3081619349E+01   0.1774385133E+01   0.9993335351E+00   0.9439079029E-02  -0.1748996900E-02  -0.6664649452E-03   0.0000000000E+00   0.0000000000E+00   0.0000000000E+00   0.1326882665E+00   0.5615669279E-03   0.5411926202E-04  -0.2633984418E-02   0.1331336712E-03  -0.1117811503E-03
   0.3078913685E+01   0.1998099669E+01   0.9993227861E+00   0.9414435115E-02  -0.1900331405E-02  -0.6772138502E-03   0.0000000000E+00   0.0000000000E+00   0.0000000000E+00   0.1373576553E+00  -0.1804092421E-03  -0.9209020626E-04  -0.8978250752E-03   0.3251928799E-03  -0.2398915748E-04
   0.3296077071E+01   0.1774757173E+01   0.9993371906E+00   0.9720860987E-02  -0.1743167172E-02  -0.6628094316E-03   0.0000000000E+00   0.0000000000E+00   0.0000000000E+00   0.1312577542E+00   0.5916533939E-03   0.6572589151E-04  -0.1369995525E-02   0.2884848928E-04  -0.8759105008E-04
   0.3294720172E+01   0.1998108004E+01   0.9993279427E+00   0.9709121980E-02  -0.1891995524E-02  -0.6720572909E-03   0.0000000000E+00   0.0000000000E+00   0.0000000000E+00   0.1352740422E+00  -0.1582069013E-03  -0.1311146016E-03  -0.4993863577E-03   0.1186946534E-03  -0.7825998839E-05
   0.3510000000E+01   0.1774907526E+01   0.9993384547E+00   0.1000000000E-01  -0.1741354289E-02  -0.6615453330E-03   0.0000000000E+00   0.0000000000E+00   0.0000000000E+00   0.1307504025E+00   0.5646989692E-03   0.3008602600E-04   0.1707706779E-03   0.1205491589E-03  -0.7751203067E-04
   0.3510000000E+01   0.1998110590E+01   0.9993296026E+00   0.1000000000E-01  -0.1889409727E-02  -0.6703974468E-03   0.0000000000E+00   0.0000000000E+00   0.0000000000E+00   0.1346181981E+00  -0.1219733255E-03  -0.9637715663E-04   0.2196903537E-03   0.1404135395E-03  -0.2082709975E-04
   0.9466367250E+00   0.1547734959E+01   0.9992930448E+00   0.6472277984E-02  -0.2747191047E-02  -0.7069552319E-03   0.0000000000E+00   0.0000000000E+00   0.0000000000E+00   0.1600551077E+00  -0.1343924996E-01   0.2125821912E-03   0.2157444614E-01   0.4676514714E-03  -0.1457363525E-03
   0.1168663784E+01   0.1544169847E+01   0.9993088100E+00   0.6842534319E-02  -0.2428353441E-02  -0.6911899522E-03   0.0000000000E+00   0.0000000000E+00   0.0000000000E+00   0.1550228565E+00  -0.1422153398E-01  -0.4323927893E-03   0.1008379209E-01   0.2418508881E-03  -0.9938778436E-03
   0.1386071088E+01   0.1543467935E+01   0.9993159257E+00   0.7188207901E-02  -0.2178975025E-02  -0.6840742621E-03   0.0000000000E+00   0.0000000000E+00   0.0000000000E+00   0.1493545501E+00  -0.1103676583E-01  -0.1990080214E-03   0.3334326767E-03   0.3167549224E-04  -0.1181021705E-02
   0.1600735877E+01   0.1543899801E+01   0.9993196702E+00   0.7513617156E-02  -0.1991128775E-02  -0.6803298480E-03   0.0000000000E+00   0.0000000000E+00   0.0000000000E+00   0.1438186284E+00  -0.7341325249E-02  -0.4107229328E-03  -0.6432436109E-02   0.5520368235E-04  -0.1195020907E-02
   0.1813995310E+01   0.1544777603E+01   0.9993223129E+00   0.7821030032E-02  -0.1856477110E-02  -0.6776871013E-03   0.0000000000E+00   0.0000000000E+00   0.0000000000E+00   0.1394705099E+00  -0.3789638121E-02  -0.2069270985E-03  -0.1037216349E-01   0.6344391801E-04  -0.1050941747E-02
   0.2026596721E+01   0.1545846633E+01   0.9993259077E+00   0.8115940999E-02  -0.1762216679E-02  -0.6740923438E-03   0.0000000000E+00   0.0000000000E+00   0.0000000000E+00   0.1357221710E+00  -0.1324937006E-02  -0.2510979273E-03  -0.1192357041E-01   0.1148613099E-03  -0.8892174867E-03
   0.2238901904E+01   0.1546996385E+01   0.9993301820E+00   0.8400494312E-02  -0.1699175290E-02  -0.6698180053E-03   0.0000000000E+00   0.0000000000E+00   0.0000000000E+00   0.1327022589E+00   0.4099252874E-03  -0.1257582057E-03  -0.1185008092E-01   0.1194490128E-03  -0.7015938270E-03
   0.2451076566E+01   0.1548168684E+01   0.9993350422E+00   0.8677775731E-02  -0.1657936151E-02  -0.6649578319E-03   0.0000000000E+00   0.0000000000E+00   0.0000000000E+00   0.1300732997E+00   0.1357873641E-02  -0.1351322404E-03  -0.1067007932E-01   0.1235779283E-03  -0.5496838831E-03
   0.2663186480E+01   0.1549308952E+01   0.9993397287E+00   0.8948969683E-02  -0.1632277840E-02  -0.6602713418E-03   0.0000000000E+00   0.0000000000E+00   0.0000000000E+00   0.1279555262E+00   0.1910249130E-02  -0.6076503990E-04  -0.8890997800E-02   0.1068912752E-03  -0.4177462615E-03
   0.2875236090E+01   0.1550342551E+01   0.9993439195E+00   0.9215890379E-02  -0.1616729270E-02  -0.6560805266E-03   0.0000000000E+00   0.0000000000E+00   0.0000000000E+00   0.1262268625E+00   0.2114771047E-02  -0.7105000809E-04  -0.6785096013E-02   0.8527127315E-04  -0.3253233783E-03
   0.3087163755E+01   0.1551183904E+01   0.9993471004E+00   0.9479354954E-02  -0.1608045926E-02  -0.6528995572E-03   0.0000000000E+00   0.0000000000E+00   0.0000000000E+00   0.1250075496E+00   0.2219173397E-02  -0.2683352637E-04  -0.4543873076E-02   0.6305269735E-04  -0.2579419407E-03
   0.3298829468E+01   0.1551772312E+01   0.9993491394E+00   0.9740507877E-02  -0.1603647988E-02  -0.6508606388E-03   0.0000000000E+00   0.0000000000E+00   0.0000000000E+00   0.1242376216E+00   0.2213313052E-02  -0.4427752752E-04  -0.2304224093E-02   0.1498790466E-04  -0.2224442946E-03
   0.3510000000E+01   0.1551992187E+01   0.9993497971E+00   0.1000000000E-01  -0.1602402929E-02  -0.6502029068E-03   0.0000000000E+00   0.0000000000E+00   0.0000000000E+00   0.1240029298E+00   0.2234473656E-02  -0.1681637579E-04   0.1093973632E-03   0.5704885644E-04  -0.2084286584E-03
   0.9894076479E+00   0.1319577484E+01   0.9993202136E+00   0.6780613863E-02  -0.2451625520E-02  -0.6797864186E-03   0.0000000000E+00   0.0000000000E+00   0.0000000000E+00   0.1631301175E+00  -0.2525507102E-01  -0.2072055260E-03   0.8684812913E-02   0.1272172076E-02  -0.1135438072E-02
   0.1213317375E+01   0.1318410581E+01   0.9993500692E+00   0.7159455002E-02  -0.2160369275E-02  -0.6499308177E-03   0.0000000000E+00   0.0000000000E+00   0.0000000000E+00   0.1500349124E+00  -0.2218092769E-01   0.2232721508E-03  -0.1567743031E-02   0.1863352464E-03  -0.8941183671E-03
   0.1428553518E+01   0.1319357516E+01   0.9993610659E+00   0.7490807726E-02  -0.1945493702E-02  -0.6389341155E-03   0.0000000000E+00   0.0000000000E+00   0.0000000000E+00   0.1390932127E+00  -0.1635189629E-01   0.2659775515E-04  -0.8929076723E-02   0.7397964186E-04  -0.8242525226E-03
   0.1639500742E+01   0.1320601850E+01   0.9993629486E+00   0.7787471839E-02  -0.1791920286E-02  -0.6370513625E-03   0.0000000000E+00   0.0000000000E+00   0.0000000000E+00   0.1313107934E+00  -0.9583853833E-02   0.2037677946E-03  -0.1324589205E-01  -0.5957642958E-04  -0.6815884829E-03
   0.1848532034E+01   0.1321817934E+01   0.9993620322E+00   0.8061723644E-02  -0.1681985649E-02  -0.6379677670E-03   0.0000000000E+00   0.0000000000E+00   0.0000000000E+00   0.1258091618E+00  -0.4294247898E-02   0.8639901110E-04  -0.1510467638E-01  -0.1811117264E-04  -0.6247783660E-03
   0.2056762394E+01   0.1323033553E+01   0.9993605035E+00   0.8320504178E-02  -0.1606487204E-02  -0.6394964878E-03   0.0000000000E+00   0.0000000000E+00   0.0000000000E+00   0.1223016500E+00  -0.3147095919E-03   0.1185461171E-03  -0.1525576328E-01  -0.2114926151E-04  -0.5183809800E-03
   0.2264668460E+01   0.1324276594E+01   0.9993596499E+00   0.8569949729E-02  -0.1555175910E-02  -0.6403501170E-03   0.0000000000E+00   0.0000000000E+00   0.0000000000E+00   0.1199929991E+00   0.2168350990E-02   0.5405902826E-04  -0.1418324490E-01   0.4919345266E-05  -0.4530837985E-03
   0.2472442797E+01   0.1325524066E+01   0.9993595133E+00   0.8813317101E-02  -0.1521974482E-02  -0.6404867289E-03   0.0000000000E+00   0.0000000000E+00   0.0000000000E+00   0.1185614149E+00   0.3657704993E-02   0.6530818457E-04  -0.1238307435E-01   0.1495532987E-04  -0.3701681257E-03
   0.2680160932E+01   0.1326726461E+01   0.9993600399E+00   0.9053401810E-02  -0.1500819347E-02  -0.6399600616E-03   0.0000000000E+00   0.0000000000E+00   0.0000000000E+00   0.1175962581E+00   0.4377639794E-02   0.2550765745E-04  -0.1014186305E-01   0.2184978928E-04  -0.3164026928E-03
   0.2887837613E+01   0.1327811703E+01   0.9993608224E+00   0.9291372596E-02  -0.1488227204E-02  -0.6391776433E-03   0.0000000000E+00   0.0000000000E+00   0.0000000000E+00   0.1169879273E+00   0.4705778787E-02   0.3796934948E-04  -0.7694756687E-02   0.2194166933E-04  -0.2627645429E-03
   0.3095440039E+01   0.1328701355E+01   0.9993616510E+00   0.9528289085E-02  -0.1480955399E-02  -0.6383490117E-03   0.0000000000E+00   0.0000000000E+00   0.0000000000E+00   0.1165734241E+00   0.4777037753E-02   0.1112704463E-04  -0.5136849985E-02   0.1926790769E-04  -0.2327282849E-03
   0.3302882419E+01   0.1329334991E+01   0.9993622106E+00   0.9764419268E-02  -0.1477459168E-02  -0.6377894196E-03   0.0000000000E+00   0.0000000000E+00   0.0000000000E+00   0.1163588018E+00   0.4794575804E-02   0.2638458621E-04  -0.2607468701E-02   0.2707753820E-05  -0.2085390337E-03
   0.3510000000E+01   0.1329560954E+01   0.9993624371E+00   0.1000000000E-01  -0.1476325650E-02  -0.6375628860E-03   0.0000000000E+00   0.0000000000E+00   0.0000000000E+00   0.1162738185E+00   0.4771822378E-02   0.6967066077E-05   0.1244755396E-03   0.2664154866E-04  -0.2053608693E-03
   0.1052300602E+01   0.1083847076E+01   0.9993879204E+00   0.7217082076E-02  -0.2114024190E-02  -0.6120796345E-03   0.0000000000E+00   0.0000000000E+00   0.0000000000E+00   0.1476098714E+00  -0.3340236590E-01  -0.9811304909E-03  -0.9301804779E-02   0.1535939642E-02  -0.7960010636E-03
   0.1272831545E+01   0.1091975809E+01   0.9994091707E+00   0.7547844817E-02  -0.1881720848E-02  -0.5908293393E-03   0.0000000000E+00   0.0000000000E+00   0.0000000000E+00   0.1321967922E+00  -0.2654824970E-01   0.1477804764E-03  -0.1656938900E-01  -0.3892392023E-03  -0.1457778013E-02
   0.1481497187E+01   0.1096441207E+01   0.9994124986E+00   0.7829806767E-02  -0.1722872747E-02  -0.5875013697E-03   0.0000000000E+00   0.0000000000E+00   0.0000000000E+00   0.1205136824E+00  -0.1803605390E-01  -0.2383447670E-03  -0.1921130408E-01   0.6247979744E-04  -0.9267831754E-03
   0.1685993333E+01   0.1098768688E+01   0.9994072798E+00   0.8080142957E-02  -0.1608752411E-02  -0.5927201811E-03   0.0000000000E+00   0.0000000000E+00   0.0000000000E+00   0.1134835754E+00  -0.9395957152E-02   0.9296474997E-05  -0.1985338210E-01  -0.2672721372E-03  -0.9168421808E-03
   0.1889114776E+01   0.1100141264E+01   0.9994001585E+00   0.8311186228E-02  -0.1528286278E-02  -0.5998414790E-03   0.0000000000E+00   0.0000000000E+00   0.0000000000E+00   0.1091689071E+00  -0.3066419186E-02  -0.1030831290E-03  -0.1899518625E-01  -0.1051347627E-03  -0.6946061540E-03
   0.2091837159E+01   0.1101295300E+01   0.9993929571E+00   0.8529889240E-02  -0.1471089856E-02  -0.6070428959E-03   0.0000000000E+00   0.0000000000E+00   0.0000000000E+00   0.1072085106E+00   0.1658413031E-02  -0.1907024061E-04  -0.1728751397E-01  -0.1566456584E-03  -0.6171423362E-03
   0.2294445525E+01   0.1102458031E+01   0.9993871289E+00   0.8742105431E-02  -0.1431908761E-02  -0.6128711191E-03   0.0000000000E+00   0.0000000000E+00   0.0000000000E+00   0.1064744837E+00   0.4513661414E-02  -0.4308350347E-04  -0.1511544931E-01  -0.7721386880E-04  -0.4915201625E-03
   0.2497012600E+01   0.1103624156E+01   0.9993827058E+00   0.8951409909E-02  -0.1405073803E-02  -0.6172942310E-03   0.0000000000E+00   0.0000000000E+00   0.0000000000E+00   0.1065272508E+00   0.6237814515E-02  -0.1742991008E-04  -0.1269630101E-01  -0.7816049835E-04  -0.4242764480E-03
   0.2699567937E+01   0.1104749618E+01   0.9993796652E+00   0.9159946588E-02  -0.1387661706E-02  -0.6203348061E-03   0.0000000000E+00   0.0000000000E+00   0.0000000000E+00   0.1068786764E+00   0.7073280179E-02  -0.1306193314E-04  -0.1017683850E-01  -0.3755800584E-04  -0.3475214857E-03
   0.2902122245E+01   0.1105781014E+01   0.9993776932E+00   0.9368884911E-02  -0.1376455635E-02  -0.6223068306E-03   0.0000000000E+00   0.0000000000E+00   0.0000000000E+00   0.1073202914E+00   0.7434147327E-02  -0.1190817002E-04  -0.7619526045E-02  -0.3091050634E-04  -0.3039397987E-03
   0.3104679185E+01   0.1106650117E+01   0.9993765109E+00   0.9578544653E-02  -0.1369953217E-02  -0.6234891402E-03   0.0000000000E+00   0.0000000000E+00   0.0000000000E+00   0.1077053397E+00   0.7530467856E-02  -0.1286832650E-05  -0.5060451870E-02  -0.1391565914E-04  -0.2627820031E-03
   0.3307260498E+01   0.1107287795E+01   0.9993759064E+00   0.9788977812E-02  -0.1366465057E-02  -0.6240935815E-03   0.0000000000E+00   0.0000000000E+00   0.0000000000E+00   0.1079570304E+00   0.7525036078E-02  -0.8872060171E-05  -0.2550027699E-02  -0.2636177707E-05  -0.2464373461E-03
   0.3510000000E+01   0.1107637760E+01   0.9993757043E+00   0.1000000000E-01  -0.1365549544E-02  -0.6242956991E-03   0.0000000000E+00   0.0000000000E+00   0.0000000000E+00   0.1080495525E+00   0.7518755421E-02   0.7529517113E-06   0.8344132079E-04  -0.1754258453E-04  -0.2349512782E-03
   0.3314059090E+01   0.8860244384E+00   0.9993891221E+00   0.9814090213E-02  -0.1270986605E-02  -0.6108778528E-03   0.0000000000E+00   0.0000000000E+00   0.0000000000E+00   0.1000128207E+00   0.1015935345E-01   0.7288498569E-05  -0.2179777294E-02  -0.6752316978E-05  -0.2174379388E-03
   0.3510000000E+01   0.8862167386E+00   0.9993886474E+00   0.1000000000E-01  -0.1269719388E-02  -0.6113525614E-03   0.0000000000E+00   0.0000000000E+00   0.0000000000E+00   0.1002235282E+00   0.1013220764E-01   0.2710053118E-05   0.1461203005E-03  -0.4398281549E-04  -0.2172927342E-03
   0.3321184578E+01   0.6648031705E+00   0.9994012019E+00   0.9835897876E-02  -0.1188970494E-02  -0.5987980836E-03   0.0000000000E+00   0.0000000000E+00   0.0000000000E+00   0.9301583107E-01   0.1226958323E-01  -0.1459215160E-05  -0.1522825938E-02  -0.9782241571E-05  -0.2033992934E-03
   0.3510000000E+01   0.6648543590E+00   0.9994005432E+00   0.1000000000E-01  -0.1187551957E-02  -0.5994568108E-03   0.0000000000E+00   0.0000000000E+00   0.0000000000E+00   0.9331639969E-01   0.1223214225E-01  -0.5542283862E-06   0.1294398087E-03  -0.6598487711E-04  -0.1957450649E-03
   0.3327385105E+01   0.4432518406E+00   0.9994114932E+00   0.9852324708E-02  -0.1117714357E-02  -0.5885067650E-03   0.0000000000E+00   0.0000000000E+00   0.0000000000E+00   0.8757257517E-01   0.1358382520E-01   0.5532825072E-06  -0.7233642540E-03  -0.1087966193E-04  -0.1589657642E-03
   0.3510000000E+01   0.4432001855E+00   0.9994107375E+00   0.1000000000E-01  -0.1115754471E-02  -0.5892624563E-03   0.0000000000E+00   0.0000000000E+00   0.0000000000E+00   0.8793206935E-01   0.1353102278E-01   0.1836228668E-05   0.2206661388E-03  -0.7925592389E-04  -0.1613645118E-03
   0.3331679142E+01   0.2215653261E+00   0.9994195739E+00   0.9862222383E-02  -0.1053044857E-02  -0.5804260540E-03   0.0000000000E+00   0.0000000000E+00   0.0000000000E+00   0.8406695823E-01   0.1385005713E-01   0.9690590522E-06   0.1907262300E-03  -0.1213075305E-04  -0.1239645660E-03
   0.3510000000E+01   0.2213382801E+00   0.9994187939E+00   0.1000000000E-01  -0.1050746892E-02  -0.5812061397E-03   0.0000000000E+00   0.0000000000E+00   0.0000000000E+00   0.8443998849E-01   0.1378832762E-01  -0.2422654529E-05   0.2250767963E-03  -0.8341533287E-04  -0.1192638117E-03
   0.3334495771E+01   0.9577922788E-05   0.9994252084E+00   0.9865990622E-02  -0.9905768372E-03  -0.5747916496E-03   0.0000000000E+00   0.0000000000E+00   0.0000000000E+00   0.8271982465E-01   0.1295347903E-01  -0.1576354037E-05   0.1084168254E-02  -0.1190366943E-04  -0.7486097447E-04
   0.3510000000E+01  -0.3012234637E-03   0.9994244474E+00   0.1000000000E-01  -0.9876603557E-03  -0.5755526040E-03   0.0000000000E+00   0.0000000000E+00   0.0000000000E+00   0.8307930197E-01   0.1290143401E-01   0.2026709955E-05   0.3250058536E-03  -0.8404578874E-04  -0.7892762229E-04
   0.3118224310E+01   0.8856605331E+00   0.9993905964E+00   0.9629180454E-02  -0.1274700872E-02  -0.6094036051E-03   0.0000000000E+00   0.0000000000E+00   0.0000000000E+00   0.9938518034E-01   0.1019460174E-01   0.2317491303E-05  -0.4296972135E-02  -0.4286175206E-04  -0.2358944845E-03
   0.3132220265E+01   0.6646834768E+00   0.9994032272E+00   0.9672874782E-02  -0.1193627237E-02  -0.5967728343E-03   0.0000000000E+00   0.0000000000E+00   0.0000000000E+00   0.9210797751E-01   0.1236368881E-01  -0.1085185017E-05  -0.3005273476E-02  -0.6003308181E-04  -0.2090341916E-03
   0.3144368117E+01   0.4432922373E+00   0.9994138169E+00   0.9705726707E-02  -0.1123302690E-02  -0.5861830747E-03   0.0000000000E+00   0.0000000000E+00   0.0000000000E+00   0.8649447420E-01   0.1372963994E-01   0.1853708752E-05  -0.1342500242E-02  -0.7220430359E-04  -0.1684887841E-03
   0.3152846040E+01   0.2217804712E+00   0.9994219977E+00   0.9725509702E-02  -0.1060135814E-02  -0.5780023085E-03   0.0000000000E+00   0.0000000000E+00   0.0000000000E+00   0.8291796617E-01   0.1401865097E-01  -0.1653918952E-05   0.5118791652E-03  -0.7624860553E-04  -0.1225758722E-03
   0.3158623076E+01   0.4270818375E-03   0.9994275415E+00   0.9733056348E-02  -0.9989369325E-03  -0.5724585156E-03   0.0000000000E+00   0.0000000000E+00   0.0000000000E+00   0.8162505959E-01   0.1311070584E-01   0.1571693613E-06   0.2390296602E-02  -0.7711329218E-04  -0.7732062425E-04
   0.2922408631E+01   0.8851536279E+00   0.9993931981E+00   0.9445951090E-02  -0.1281642123E-02  -0.6068019319E-03   0.0000000000E+00   0.0000000000E+00   0.0000000000E+00   0.9837354253E-01   0.1017467881E-01   0.7444864305E-05  -0.6540404855E-02  -0.6104307649E-04  -0.2533567461E-03
   0.2943150486E+01   0.6644950850E+00   0.9994067694E+00   0.9512155847E-02  -0.1201417019E-02  -0.5932305979E-03   0.0000000000E+00   0.0000000000E+00   0.0000000000E+00   0.9060162983E-01   0.1244720371E-01  -0.1293285587E-05  -0.4622843447E-02  -0.8860560244E-04  -0.2321593246E-03
   0.2961122737E+01   0.4433094983E+00   0.9994178709E+00   0.9561767134E-02  -0.1132922705E-02  -0.5821290563E-03   0.0000000000E+00   0.0000000000E+00   0.0000000000E+00   0.8466169881E-01   0.1392355536E-01  -0.9085949485E-06  -0.2119792858E-02  -0.1024038898E-03  -0.1725162677E-03
   0.2973773950E+01   0.2220148913E+00   0.9994262073E+00   0.9591570488E-02  -0.1071778673E-02  -0.5737927017E-03   0.0000000000E+00   0.0000000000E+00   0.0000000000E+00   0.8097159721E-01   0.1427543748E-01   0.4312874629E-05   0.7151385287E-03  -0.1095758364E-03  -0.1310996036E-03
   0.2982678715E+01   0.9547822258E-03   0.9994315936E+00   0.9602845490E-02  -0.1013050224E-02  -0.5684063774E-03   0.0000000000E+00   0.0000000000E+00   0.0000000000E+00   0.7976816340E-01   0.1334921348E-01  -0.3978266095E-05   0.3593809913E-02  -0.1074929895E-03  -0.7022688500E-04
   0.2726590719E+01   0.8845417762E+00   0.9993971807E+00   0.9265029366E-02  -0.1292202771E-02  -0.6028192949E-03   0.0000000000E+00   0.0000000000E+00   0.0000000000E+00   0.9702892073E-01   0.9929643922E-02   0.6089022342E-05  -0.8862835559E-02  -0.9428243834E-04  -0.2912277390E-03
   0.2754015697E+01   0.6642488665E+00   0.9994120833E+00   0.9354846908E-02  -0.1213031543E-02  -0.5879166930E-03   0.0000000000E+00   0.0000000000E+00   0.0000000000E+00   0.8849195154E-01   0.1240949156E-01  -0.4550192492E-05  -0.6366220255E-02  -0.1241021645E-03  -0.2517031911E-03
   0.2777752303E+01   0.4433024527E+00   0.9994239124E+00   0.9421963099E-02  -0.1146376322E-02  -0.5760876495E-03   0.0000000000E+00   0.0000000000E+00   0.0000000000E+00   0.8205534398E-01   0.1409016795E-01   0.3374344133E-05  -0.2985728717E-02  -0.1476056216E-03  -0.1908193596E-03
   0.2795688211E+01   0.2220083263E+00   0.9994324487E+00   0.9462890682E-02  -0.1088133702E-02  -0.5675513002E-03   0.0000000000E+00   0.0000000000E+00   0.0000000000E+00   0.7814507686E-01   0.1456016758E-01  -0.1701980778E-05   0.9142605652E-03  -0.1563660122E-03  -0.1339731925E-03
   0.2808960783E+01   0.1019968710E-02   0.9994375166E+00   0.9478432674E-02  -0.1032211760E-02  -0.5624834345E-03   0.0000000000E+00   0.0000000000E+00   0.0000000000E+00   0.7705860151E-01   0.1363823143E-01  -0.5597086771E-05   0.4888755005E-02  -0.1582317541E-03  -0.6924696073E-04
   0.2530768617E+01   0.8838629645E+00   0.9994028419E+00   0.9086596668E-02  -0.1307852543E-02  -0.5971581249E-03   0.0000000000E+00   0.0000000000E+00   0.0000000000E+00   0.9545096162E-01   0.9259503143E-02   0.6107972928E-05  -0.1134090601E-01  -0.1245485269E-03  -0.3267797818E-03
   0.2564845971E+01   0.6639618511E+00   0.9994195230E+00   0.9201930798E-02  -0.1228547917E-02  -0.5804769951E-03   0.0000000000E+00   0.0000000000E+00   0.0000000000E+00   0.8582561423E-01   0.1208268834E-01   0.3466648604E-05  -0.8339740561E-02  -0.1767852435E-03  -0.2941193564E-03
   0.2594855429E+01   0.4431518182E+00   0.9994323253E+00   0.9288189130E-02  -0.1164032850E-02  -0.5676746733E-03   0.0000000000E+00   0.0000000000E+00   0.0000000000E+00   0.7860224269E-01   0.1412236933E-01  -0.2096214245E-05  -0.4045101738E-02  -0.1993460839E-03  -0.2019942023E-03
   0.2616589322E+01   0.2222195081E+00   0.9994411371E+00   0.9339582108E-02  -0.1109186868E-02  -0.5588628728E-03   0.0000000000E+00   0.0000000000E+00   0.0000000000E+00   0.7438700179E-01   0.1482444972E-01   0.1385344140E-04   0.1007937293E-02  -0.2097416291E-03  -0.1481756180E-03
   0.2632991634E+01   0.1612225703E-02   0.9994458256E+00   0.9358254336E-02  -0.1057425357E-02  -0.5541743662E-03   0.0000000000E+00   0.0000000000E+00   0.0000000000E+00   0.7345393119E-01   0.1394328333E-01  -0.4675150740E-05   0.6238174238E-02  -0.2105955681E-03  -0.6295379179E-04
   0.2334939520E+01   0.8831497803E+00   0.9994105241E+00   0.8910459750E-02  -0.1329563750E-02  -0.5894758846E-03   0.0000000000E+00   0.0000000000E+00   0.0000000000E+00   0.9383939632E-01   0.7831210923E-02   0.2133719555E-04  -0.1400388060E-01  -0.1707276036E-03  -0.3891711489E-03
   0.2375657880E+01   0.6636501514E+00   0.9994295871E+00   0.9054030269E-02  -0.1248899623E-02  -0.5704129092E-03   0.0000000000E+00   0.0000000000E+00   0.0000000000E+00   0.8262738117E-01   0.1120110124E-01  -0.1543317500E-04  -0.1066085115E-01  -0.2205365318E-03  -0.3355808356E-03
   0.2411254371E+01   0.4431394170E+00   0.9994437166E+00   0.9160960607E-02  -0.1185791983E-02  -0.5562833963E-03   0.0000000000E+00   0.0000000000E+00   0.0000000000E+00   0.7426173743E-01   0.1383966112E-01   0.9642167438E-05  -0.5425049156E-02  -0.2669583046E-03  -0.2288906578E-03
   0.2440043325E+01   0.2219739881E+00   0.9994527233E+00   0.9225954864E-02  -0.1134526900E-02  -0.5472767103E-03   0.0000000000E+00   0.0000000000E+00   0.0000000000E+00   0.6953224380E-01   0.1493653846E-01   0.8395546401E-05   0.9856132178E-03  -0.2724326250E-03  -0.1570737913E-03
   0.2465630135E+01   0.7747053745E-03   0.9994564334E+00   0.9250955334E-02  -0.1086125556E-02  -0.5435666220E-03   0.0000000000E+00   0.0000000000E+00   0.0000000000E+00   0.6891760407E-01   0.1415322042E-01  -0.2216936503E-04   0.7617099941E-02  -0.2730458777E-03  -0.5648466378E-04
   0.2139100075E+01   0.8824244959E+00   0.9994205786E+00   0.8735415451E-02  -0.1359739125E-02  -0.5794213537E-03   0.0000000000E+00   0.0000000000E+00   0.0000000000E+00   0.9246999895E-01   0.5261551461E-02   0.5444543125E-05  -0.1693730312E-01  -0.2176311279E-03  -0.4488863700E-03
   0.2186471962E+01   0.6633140145E+00   0.9994427827E+00   0.8911392452E-02  -0.1274317452E-02  -0.5572173242E-03   0.0000000000E+00   0.0000000000E+00   0.0000000000E+00   0.7909298182E-01   0.9504912685E-02   0.2827036050E-04  -0.1349240224E-01  -0.3086231741E-03  -0.4162957159E-03
   0.2228320054E+01   0.4429480176E+00   0.9994588466E+00   0.9042674005E-02  -0.1211758379E-02  -0.5411534200E-03   0.0000000000E+00   0.0000000000E+00   0.0000000000E+00   0.6893164120E-01   0.1304392930E-01  -0.1170143953E-04  -0.7278218502E-02  -0.3544926656E-03  -0.2590512762E-03
   0.2264721825E+01   0.2213570054E+00   0.9994679958E+00   0.9122804610E-02  -0.1163748583E-02  -0.5320042256E-03   0.0000000000E+00   0.0000000000E+00   0.0000000000E+00   0.6347774305E-01   0.1483220583E-01   0.5363206098E-04   0.7316652308E-03  -0.3826638863E-03  -0.1801907537E-03
   0.2301139999E+01  -0.1118856298E-02   0.9994700094E+00   0.9153768923E-02  -0.1118856298E-02  -0.5299905723E-03   0.0000000000E+00   0.0000000000E+00   0.0000000000E+00   0.6331198015E-01   0.1425336818E-01  -0.1860851335E-04   0.9132096656E-02  -0.3611525887E-03  -0.4646987810E-04
   0.1943257146E+01   0.8816029755E+00   0.9994330972E+00   0.8559276007E-02  -0.1400259523E-02  -0.5669028045E-03   0.0000000000E+00   0.0000000000E+00   0.0000000000E+00   0.9190846688E-01   0.1073837241E-02   0.5973453276E-04  -0.2011369117E-01  -0.2794176543E-03  -0.5636373245E-03
   0.1997357596E+01   0.6627922685E+00   0.9994599480E+00   0.8773795532E-02  -0.1306053481E-02  -0.5400519834E-03   0.0000000000E+00   0.0000000000E+00   0.0000000000E+00   0.7533067128E-01   0.6461896291E-02  -0.3286167643E-04  -0.1701989398E-01  -0.3834869884E-03  -0.5000385275E-03
   0.2045331998E+01   0.4425752628E+00   0.9994787848E+00   0.8934067782E-02  -0.1241607225E-02  -0.5212151717E-03   0.0000000000E+00   0.0000000000E+00   0.0000000000E+00   0.6263447948E-01   0.1146300154E-01   0.4019876878E-04  -0.9826219830E-02  -0.4784696465E-03  -0.3214227629E-03
   0.2087611997E+01   0.2209881746E+00   0.9994885509E+00   0.9030427339E-02  -0.1197377398E-02  -0.5114490951E-03   0.0000000000E+00   0.0000000000E+00   0.0000000000E+00   0.5588129452E-01   0.1425402606E-01   0.1624276575E-04   0.9254220494E-04  -0.5033071177E-03  -0.2150159016E-03
   0.2128431914E+01  -0.1158318372E-02   0.9994887525E+00   0.9062883841E-02  -0.1158318372E-02  -0.5112475053E-03   0.0000000000E+00   0.0000000000E+00   0.0000000000E+00   0.5605415274E-01   0.1408561010E-01  -0.1432438555E-04   0.1064523879E-01  -0.4966059874E-03  -0.7670187531E-05
   0.1747380275E+01   0.8801563184E+00   0.9994479139E+00   0.8378524685E-02  -0.1455386627E-02  -0.5520860872E-03   0.0000000000E+00   0.0000000000E+00   0.0000000000E+00   0.9278035945E-01  -0.5203153942E-02  -0.5761195867E-05  -0.2353105810E-01  -0.3572140514E-03  -0.6995449763E-03
   0.1808486905E+01   0.6614190861E+00   0.9994816079E+00   0.8640255001E-02  -0.1344747941E-02  -0.5183920890E-03   0.0000000000E+00   0.0000000000E+00   0.0000000000E+00   0.7197029355E-01   0.1856694948E-02   0.1077532609E-03  -0.2144068825E-01  -0.5823900170E-03  -0.7032879283E-03
   0.1862585255E+01   0.4414291187E+00   0.9995052531E+00   0.8836694516E-02  -0.1275559292E-02  -0.4947468508E-03   0.0000000000E+00   0.0000000000E+00   0.0000000000E+00   0.5529161920E-01   0.8715784490E-02  -0.1971351351E-05  -0.1331594154E-01  -0.7344004638E-03  -0.4175459649E-03
   0.1908700084E+01   0.2205525765E+00   0.9995162116E+00   0.8951284435E-02  -0.1234742534E-02  -0.4837884356E-03   0.0000000000E+00   0.0000000000E+00   0.0000000000E+00   0.4670439800E-01   0.1308502098E-01   0.1709298844E-03  -0.1100893519E-02  -0.7730263804E-03  -0.2872702485E-03
   0.1950315144E+01  -0.1943152938E-03   0.9995147407E+00   0.8983403678E-02  -0.1203032874E-02  -0.4852592998E-03   0.0000000000E+00   0.0000000000E+00   0.0000000000E+00   0.4694042235E-01   0.1339521509E-01  -0.5237126347E-04   0.1219704650E-01  -0.7354551145E-03   0.2460189812E-04
   0.1551280528E+01   0.8767777406E+00   0.9994636726E+00   0.8188758144E-02  -0.1529244391E-02  -0.5363273617E-03   0.0000000000E+00   0.0000000000E+00   0.0000000000E+00   0.9603805592E-01  -0.1365612801E-01   0.1333838326E-03  -0.2669314286E-01  -0.3854218315E-03  -0.9722444346E-03
   0.1620357894E+01   0.6578152828E+00   0.9995087493E+00   0.8510493683E-02  -0.1393074237E-02  -0.4912506598E-03   0.0000000000E+00   0.0000000000E+00   0.0000000000E+00   0.6909632172E-01  -0.5155047789E-02  -0.1073502030E-03  -0.2659107313E-01  -0.7196151820E-03  -0.9766844747E-03
   0.1680758534E+01   0.4385075035E+00   0.9995402752E+00   0.8751924002E-02  -0.1313501455E-02  -0.4597247924E-03   0.0000000000E+00   0.0000000000E+00   0.0000000000E+00   0.4718114069E-01   0.4267898160E-02   0.3878372587E-04  -0.1780093094E-01  -0.1086127753E-02  -0.6397250215E-03
   0.1732244093E+01   0.2189035883E+00   0.9995536435E+00   0.8890353244E-02  -0.1274404695E-02  -0.4463565417E-03   0.0000000000E+00   0.0000000000E+00   0.0000000000E+00   0.3563906379E-01   0.1058630969E-01   0.7334020170E-04  -0.2802369679E-02  -0.1215819016E-02  -0.3785114868E-03
   0.1779175730E+01  -0.3310102257E-03   0.9995484572E+00   0.8922909665E-02  -0.1249101675E-02  -0.4515428408E-03   0.0000000000E+00   0.0000000000E+00   0.0000000000E+00   0.3602893537E-01   0.1178796704E-01  -0.1140620988E-03   0.1366441551E-01  -0.1059247813E-02   0.1193048648E-03
   0.1354759571E+01   0.8693778931E+00   0.9994775536E+00   0.7986420781E-02  -0.1631039934E-02  -0.5224464271E-03   0.0000000000E+00   0.0000000000E+00   0.0000000000E+00   0.1024217560E+00  -0.2418670140E-01  -0.1518264107E-03  -0.2945134289E-01  -0.4440366950E-03  -0.1363547087E-02
   0.1434549441E+01   0.6500786790E+00   0.9995404644E+00   0.8384811068E-02  -0.1454745985E-02  -0.4595356282E-03   0.0000000000E+00   0.0000000000E+00   0.0000000000E+00   0.6764225423E-01  -0.1370827502E-01   0.3359249223E-03  -0.3234287536E-01  -0.1117060558E-02  -0.1628972907E-02
   0.1502621533E+01   0.4324550029E+00   0.9995858727E+00   0.8682133422E-02  -0.1357824149E-02  -0.4141273358E-03   0.0000000000E+00   0.0000000000E+00   0.0000000000E+00   0.3861815671E-01  -0.2075432328E-02  -0.5387901084E-04  -0.2265712949E-01  -0.1870069157E-02  -0.1194474533E-02
   0.1557319091E+01   0.2159234722E+00   0.9996040229E+00   0.8847161152E-02  -0.1316577849E-02  -0.3959771055E-03   0.0000000000E+00   0.0000000000E+00   0.0000000000E+00   0.2353862502E-01   0.6354813613E-02   0.2114368001E-03  -0.5012801520E-02  -0.2105730823E-02  -0.5414416064E-03
   0.1602093555E+01   0.4261664183E-03   0.9995956889E+00   0.8878805465E-02  -0.1297585472E-02  -0.4043110517E-03   0.0000000000E+00   0.0000000000E+00   0.0000000000E+00   0.2347765246E-01   0.8714237717E-02  -0.1712274190E-05   0.1479318253E-01  -0.1929083727E-02   0.2085601570E-03
   0.1158806760E+01   0.8548887935E+00   0.9994810949E+00   0.7773950259E-02  -0.1769367535E-02  -0.5189050828E-03   0.0000000000E+00   0.0000000000E+00   0.0000000000E+00   0.1107625256E+00  -0.3323602682E-01   0.2806351281E-03  -0.3065828762E-01   0.8894414012E-03  -0.1715802926E-02
   0.1255266982E+01   0.6360554882E+00   0.9995772232E+00   0.8272372035E-02  -0.1538376808E-02  -0.4227767633E-03   0.0000000000E+00   0.0000000000E+00   0.0000000000E+00   0.6432003922E-01  -0.2336136603E-01  -0.6215671534E-03  -0.3599077596E-01  -0.1416910500E-02  -0.2948855928E-02
   0.1332657151E+01   0.4222798184E+00   0.9996423727E+00   0.8628421183E-02  -0.1414255630E-02  -0.3576272672E-03   0.0000000000E+00   0.0000000000E+00   0.0000000000E+00   0.2995886299E-01  -0.1164624903E-01  -0.4817736766E-03  -0.2567344831E-01  -0.2361824009E-02  -0.1741550100E-02
   0.1387820851E+01   0.2110647517E+00   0.9996700215E+00   0.8821500759E-02  -0.1362238292E-02  -0.3299784718E-03   0.0000000000E+00   0.0000000000E+00   0.0000000000E+00   0.1112216371E-01  -0.2829995980E-02  -0.4807571808E-03  -0.6636472484E-02  -0.2941027426E-02  -0.8102843029E-03
   0.1422737556E+01   0.1816376379E-02   0.9996616361E+00   0.8852915598E-02  -0.1344361071E-02  -0.3383638621E-03   0.0000000000E+00   0.0000000000E+00   0.0000000000E+00   0.9952660442E-02   0.5851870189E-03  -0.5581389116E-03   0.1512605128E-01  -0.2622694984E-02   0.4709904362E-03
   0.9709247270E+00   0.8279121267E+00   0.9994685393E+00   0.7590762959E-02  -0.1954819306E-02  -0.5314607465E-03   0.0000000000E+00   0.0000000000E+00   0.0000000000E+00   0.1160969002E+00  -0.3667431326E-01   0.1273963947E-02  -0.3546763190E-01   0.1312713221E-03  -0.4726352174E-02
   0.1092788715E+01   0.6148156045E+00   0.9996135593E+00   0.8187195403E-02  -0.1656937494E-02  -0.3864406877E-03   0.0000000000E+00   0.0000000000E+00   0.0000000000E+00   0.5995356174E-01  -0.2994423715E-01  -0.3607778581E-03  -0.3516146022E-01  -0.1686672604E-02  -0.5199810443E-02
   0.1180393449E+01   0.4086325007E+00   0.9997051060E+00   0.8591639106E-02  -0.1491413280E-02  -0.2948939557E-03   0.0000000000E+00   0.0000000000E+00   0.0000000000E+00   0.2246040294E-01  -0.2283785882E-01   0.5268290370E-03  -0.2447225976E-01  -0.4323864028E-02  -0.3365655009E-02
   0.1238417266E+01   0.2042006383E+00   0.9997450225E+00   0.8805516378E-02  -0.1412482684E-02  -0.2549774920E-03   0.0000000000E+00   0.0000000000E+00   0.0000000000E+00   0.2114385466E-02  -0.1713661337E-01   0.7852130403E-04  -0.6332350075E-02  -0.5293676165E-02  -0.1487664037E-02
   0.1266715561E+01   0.1053629731E-02   0.9997370364E+00   0.8838930593E-02  -0.1376880049E-02  -0.2629635974E-03   0.0000000000E+00   0.0000000000E+00   0.0000000000E+00   0.2787343166E-03  -0.1220605613E-01   0.5436394840E-03   0.1428382454E-01  -0.5238703304E-02   0.7479174704E-03
   0.1109337814E+01   0.1926360801E+00   0.9998253747E+00   0.8789073546E-02  -0.1470632901E-02  -0.1746253312E-03   0.0000000000E+00   0.0000000000E+00   0.0000000000E+00  -0.3868572349E-02  -0.4886056867E-01  -0.4888365497E-02   0.1681033775E-02  -0.4742103095E-02  -0.1777057587E-02
   0.1132801439E+01  -0.1452705313E-02   0.9998187123E+00   0.8820559353E-02  -0.1390977951E-02  -0.1812876901E-03   0.0000000000E+00   0.0000000000E+00   0.0000000000E+00  -0.4285898962E-02  -0.4535016731E-01  -0.4609203801E-02   0.9623890722E-02  -0.4912289261E-02   0.1420232827E-02
   0.9926705889E+00   0.1770385811E+00   0.9998904775E+00   0.8746914936E-02  -0.1551045933E-02  -0.1095225487E-03   0.0000000000E+00   0.0000000000E+00   0.0000000000E+00   0.3482845070E-04  -0.9149744284E-01  -0.6226741638E-02   0.1471867987E-01  -0.8684395806E-03  -0.1835155095E-02
   0.1008767711E+01  -0.1379210828E-02   0.9998862274E+00   0.8767711204E-02  -0.1379210828E-02  -0.1137726346E-03   0.0000000000E+00   0.0000000000E+00   0.0000000000E+00   0.2354948984E-02  -0.9148659529E-01  -0.5857313015E-02   0.3583726511E-02  -0.1086086065E-02   0.3181879245E-02
   0.1053346900E+01   0.3882216240E+00   0.9997709705E+00   0.8576419738E-02  -0.1599100977E-02  -0.2290294856E-03   0.0000000000E+00   0.0000000000E+00   0.0000000000E+00   0.8397237841E-02  -0.4139318227E-01  -0.4569225635E-02  -0.7482817480E-02  -0.3254540603E-02  -0.4962325954E-02
   0.9431647766E+00   0.3539854023E+00   0.9998270024E+00   0.8580099641E-02  -0.1755293663E-02  -0.1729976354E-03   0.0000000000E+00   0.0000000000E+00   0.0000000000E+00  -0.1158144036E-02  -0.6593216681E-01  -0.6182872559E-02   0.1747558537E-01   0.1451377649E-02  -0.7281881047E-02
   0.9629497560E+00   0.5826354707E+00   0.9996491734E+00   0.8168342995E-02  -0.1805416318E-02  -0.3508265508E-03   0.0000000000E+00   0.0000000000E+00   0.0000000000E+00   0.3679102573E-01  -0.2617489548E-01  -0.3558652335E-02  -0.2214397328E-01  -0.2847304812E-03  -0.7530730447E-02
   0.8587778030E+00   0.5239408733E+00   0.9996927340E+00   0.8260171993E-02  -0.2005684686E-02  -0.3072659575E-03   0.0000000000E+00   0.0000000000E+00   0.0000000000E+00   0.1094386468E-01  -0.2340309667E-01  -0.4807829582E-02   0.2095682486E-02   0.5817675276E-02  -0.1113098115E-01
   0.8396298831E+00   0.7714398954E+00   0.9994712373E+00   0.7574135079E-02  -0.2113297618E-02  -0.5287626556E-03   0.0000000000E+00   0.0000000000E+00   0.0000000000E+00   0.9293866988E-01  -0.1308621399E-01  -0.1591774894E-02  -0.3298422289E-01   0.2621213219E-02  -0.6504969465E-02
   0.7409055124E+00   0.6778037844E+00   0.9994977411E+00   0.7792760353E-02  -0.2303391572E-02  -0.5022588606E-03   0.0000000000E+00   0.0000000000E+00   0.0000000000E+00   0.5390205450E-01   0.1306025963E-01  -0.2661364883E-02  -0.3017028800E-01   0.1166741859E-01  -0.1262776387E-01
  -0.6284999517E+00   0.1808520240E+01   0.9993187054E+00   0.4212710311E-02  -0.3435330305E-02  -0.6812946302E-03   0.0000000000E+00   0.0000000000E+00   0.0000000000E+00   0.1380586677E+00  -0.5675998598E-03  -0.3754236357E-03  -0.2025204459E-01   0.1308065583E-02   0.6680301711E-03
  -0.6369642927E+00   0.1996455334E+01   0.9993507216E+00   0.4398493349E-02  -0.3544666237E-02  -0.6492784167E-03   0.0000000000E+00   0.0000000000E+00   0.0000000000E+00   0.1248387817E+00   0.7489650990E-03  -0.1373832228E-03  -0.8245418671E-02   0.4523171542E-02   0.3015227072E-03
  -0.6230625242E+00   0.1620707157E+01   0.9992793665E+00   0.4089680788E-02  -0.3302932713E-02  -0.7206334569E-03   0.0000000000E+00   0.0000000000E+00   0.0000000000E+00   0.1553551954E+00  -0.2767569260E-02  -0.1110349894E-03  -0.3054984856E-01  -0.3405141775E-04   0.1349382528E-02
  -0.6190463606E+00   0.1430822688E+01   0.9992402695E+00   0.3966778408E-02  -0.3145382328E-02  -0.7597305407E-03   0.0000000000E+00   0.0000000000E+00   0.0000000000E+00   0.1716146316E+00  -0.6629736633E-02   0.3831562197E-03  -0.2880579316E-01  -0.1008325548E-02   0.1156431249E-02
  -0.6246479252E+00   0.1232919069E+01   0.9992145547E+00   0.3769506804E-02  -0.2934841166E-02  -0.7854452892E-03   0.0000000000E+00   0.0000000000E+00   0.0000000000E+00   0.1881775550E+00  -0.1681891459E-01  -0.5107469033E-03  -0.1760363943E-01  -0.2417236220E-02   0.4977633540E-03
  -0.6494989597E+00   0.1008238842E+01   0.9992380609E+00   0.3344396266E-02  -0.2643538282E-02  -0.7619390783E-03   0.0000000000E+00   0.0000000000E+00   0.0000000000E+00   0.1747712124E+00  -0.1079177075E-01   0.1492927512E-02   0.1957896034E-01  -0.5082121074E-02  -0.1006771972E-02
  -0.5243330136E+00   0.8468932530E+00   0.9991925110E+00   0.3032432401E-02  -0.2745327991E-02  -0.8074889917E-03   0.0000000000E+00   0.0000000000E+00   0.0000000000E+00   0.1689701910E+00   0.2491143377E-01  -0.2074124645E-03   0.7024815977E-01  -0.1530045872E-01  -0.1135413893E-01
  -0.8159919616E+00   0.7979058591E+00   0.9994379765E+00   0.2517140386E-02  -0.2153935897E-02  -0.5620234689E-03   0.0000000000E+00   0.0000000000E+00   0.0000000000E+00   0.9762790089E-01  -0.1298064564E-01   0.1397346927E-02   0.3869938338E-01  -0.2171933743E-02  -0.7614019748E-02
  -0.6982878350E+00   0.7111539788E+00   0.9994481664E+00   0.2330194013E-02  -0.2382582192E-02  -0.5518336480E-03   0.0000000000E+00   0.0000000000E+00   0.0000000000E+00   0.7127930214E-01   0.1881652519E-01  -0.3374264740E-02   0.3677484129E-01  -0.1049564832E-01  -0.1231108185E-01
  -0.9455259743E+00   0.6002534852E+00   0.9996348309E+00   0.1875787690E-02  -0.1824415781E-02  -0.3651690607E-03   0.0000000000E+00   0.0000000000E+00   0.0000000000E+00   0.3954201931E-01  -0.2494481327E-01  -0.4098633944E-02   0.2305161571E-01  -0.6344206518E-04  -0.8137730828E-02
  -0.8331839960E+00   0.5482289509E+00   0.9996682115E+00   0.1797206998E-02  -0.2049534139E-02  -0.3317885111E-03   0.0000000000E+00   0.0000000000E+00   0.0000000000E+00   0.1235243633E-01  -0.1906132891E-01  -0.5242529930E-02   0.1062648641E-02  -0.6273346056E-02  -0.1201614474E-01
  -0.1042067448E+01   0.4005121261E+00   0.9997636106E+00   0.1441442281E-02  -0.1605304883E-02  -0.2363894334E-03   0.0000000000E+00   0.0000000000E+00   0.0000000000E+00   0.9128409756E-02  -0.3959572454E-01  -0.4110904340E-02   0.8925015425E-02   0.3294517994E-02  -0.4923746884E-02
  -0.9271120785E+00   0.3694260659E+00   0.9998177772E+00   0.1439893494E-02  -0.1776403086E-02  -0.1822227562E-03   0.0000000000E+00   0.0000000000E+00   0.0000000000E+00  -0.1446203042E-04  -0.6287915034E-01  -0.5833770272E-02  -0.1688423578E-01  -0.1538623953E-02  -0.7333874562E-02
  -0.1103826154E+01   0.1998570675E+00   0.9998211320E+00   0.1213206494E-02  -0.1471597501E-02  -0.1788679928E-03   0.0000000000E+00   0.0000000000E+00   0.0000000000E+00  -0.3680163099E-02  -0.4712981473E-01  -0.4992278117E-02  -0.1695983098E-02   0.4771088956E-02  -0.1857417945E-02
  -0.9809456544E+00   0.1862547850E+00   0.9998881856E+00   0.1258425551E-02  -0.1562087970E-02  -0.1118143722E-03   0.0000000000E+00   0.0000000000E+00   0.0000000000E+00  -0.9110335497E-04  -0.9044571296E-01  -0.6252632890E-02  -0.1474787689E-01   0.8334367654E-03  -0.2059924128E-02
  -0.1131418839E+01   0.4158338272E-03   0.9998137916E+00   0.1177531199E-02  -0.1391667713E-02  -0.1862083857E-03   0.0000000000E+00   0.0000000000E+00   0.0000000000E+00  -0.4251473367E-02  -0.4375522726E-01  -0.4616024386E-02  -0.9638615999E-02   0.4881489456E-02   0.1264452573E-02
  -0.9987410792E+00   0.6056329408E-02   0.9998861809E+00   0.1231204775E-02  -0.1388150092E-02  -0.1138190947E-03   0.0000000000E+00   0.0000000000E+00   0.0000000000E+00   0.2488048048E-02  -0.9146620725E-01  -0.5359580407E-02  -0.3626076332E-02   0.9648348798E-03   0.2967345150E-02
  -0.1236951460E+01   0.2076481535E+00   0.9997390549E+00   0.1195319589E-02  -0.1409624521E-02  -0.2609450547E-03   0.0000000000E+00   0.0000000000E+00   0.0000000000E+00   0.3021902703E-02  -0.1526452702E-01   0.5100432315E-03   0.6622551012E-02   0.5318292507E-02  -0.1430035156E-02
  -0.1273762852E+01   0.8949763124E-03   0.9997280726E+00   0.1159518270E-02  -0.1373696608E-02  -0.2719273731E-03   0.0000000000E+00   0.0000000000E+00   0.0000000000E+00   0.1540866965E-02  -0.1050450994E-01   0.5580128696E-03  -0.1403597538E-01   0.5040503415E-02   0.6147560763E-03
  -0.1390116101E+01   0.2112771284E+00   0.9996640739E+00   0.1177898882E-02  -0.1358627622E-02  -0.3359261276E-03   0.0000000000E+00   0.0000000000E+00   0.0000000000E+00   0.1198404580E-01  -0.2013491522E-02  -0.4512349037E-03   0.6419641955E-02   0.2811644029E-02  -0.6810780167E-03
  -0.1431157004E+01   0.7600532078E-03   0.9996544326E+00   0.1144396040E-02  -0.1338840772E-02  -0.3455674449E-03   0.0000000000E+00   0.0000000000E+00   0.0000000000E+00   0.1115451247E-01   0.1407287142E-02  -0.6406983881E-03  -0.1481351806E-01   0.2514541583E-02   0.2621979143E-03
  -0.1555147546E+01   0.2124893456E+00   0.9996013274E+00   0.1151064053E-02  -0.1314094381E-02  -0.3986726131E-03   0.0000000000E+00   0.0000000000E+00   0.0000000000E+00   0.2417554809E-01   0.6522876766E-02   0.2199814019E-03   0.4677695599E-02   0.2044840039E-02  -0.5374276236E-03
  -0.1597354515E+01   0.5612005079E-03   0.9995942144E+00   0.1119624997E-02  -0.1295498842E-02  -0.4057856441E-03   0.0000000000E+00   0.0000000000E+00   0.0000000000E+00   0.2390363197E-01   0.8900141244E-02   0.8422233143E-04  -0.1439419861E-01   0.1940788417E-02   0.1288662707E-03
  -0.1726650471E+01   0.2123647466E+00   0.9995528990E+00   0.1107339385E-02  -0.1272635416E-02  -0.4471009896E-03   0.0000000000E+00   0.0000000000E+00   0.0000000000E+00   0.3585903136E-01   0.1055587180E-01   0.5819827809E-04   0.2346038101E-02   0.1152848654E-02  -0.3189113300E-03
  -0.1767862545E+01   0.4094693705E-03   0.9995486428E+00   0.1077305078E-02  -0.1249077950E-02  -0.4513572375E-03   0.0000000000E+00   0.0000000000E+00   0.0000000000E+00   0.3601438786E-01   0.1181822194E-01  -0.6917909705E-04  -0.1333328413E-01   0.1056979791E-02   0.6291594731E-04
  -0.1901401634E+01   0.2115375310E+00   0.9995162823E+00   0.1046066087E-02  -0.1233110039E-02  -0.4837177093E-03   0.0000000000E+00   0.0000000000E+00   0.0000000000E+00   0.4663145008E-01   0.1306613878E-01   0.1070016303E-03   0.5513388660E-03   0.7863344380E-03  -0.2392825209E-03
  -0.1940038864E+01   0.2932098123E-03   0.9995146535E+00   0.1017025807E-02  -0.1203028238E-02  -0.4853465212E-03   0.0000000000E+00   0.0000000000E+00   0.0000000000E+00   0.4685226107E-01   0.1342981468E-01   0.1707716031E-04  -0.1197608024E-01   0.7401264712E-03  -0.1005347634E-04
  -0.2077721094E+01   0.2103542487E+00   0.9994889987E+00   0.9680064379E-03  -0.1195897346E-02  -0.5110012686E-03   0.0000000000E+00   0.0000000000E+00   0.0000000000E+00   0.5577808762E-01   0.1423216272E-01   0.5024379214E-04  -0.5973705971E-03   0.5073539150E-03  -0.1944147031E-03
  -0.2112890634E+01   0.1772102181E-03   0.9994894500E+00   0.9401656515E-03  -0.1159657822E-02  -0.5105499645E-03   0.0000000000E+00   0.0000000000E+00   0.0000000000E+00   0.5581272587E-01   0.1403912485E-01  -0.4824269370E-04  -0.1051431830E-01   0.4803557982E-03  -0.2147684788E-04
  -0.2254783700E+01   0.2089964326E+00   0.9994684899E+00   0.8756401169E-03  -0.1161855445E-02  -0.5315101352E-03   0.0000000000E+00   0.0000000000E+00   0.0000000000E+00   0.6333991616E-01   0.1484716047E-01   0.5698481100E-04  -0.1198803054E-02   0.3803698015E-03  -0.1673749777E-03
  -0.2286041427E+01   0.4965196821E-04   0.9994705025E+00   0.8493234585E-03  -0.1120193492E-02  -0.5294975475E-03   0.0000000000E+00   0.0000000000E+00   0.0000000000E+00   0.6321147343E-01   0.1424428707E-01  -0.3182120115E-04  -0.9039048494E-02   0.3624657555E-03  -0.4199973641E-04
  -0.2431885598E+01   0.2076614962E+00   0.9994531281E+00   0.7714017475E-03  -0.1131577782E-02  -0.5468719080E-03   0.0000000000E+00   0.0000000000E+00   0.0000000000E+00   0.6941438673E-01   0.1492642846E-01   0.2840806978E-04  -0.1415220273E-02   0.2723334053E-03  -0.1557400316E-03
  -0.2459325069E+01  -0.8597713757E-04   0.9994562040E+00   0.7469713526E-03  -0.1085392199E-02  -0.5437960215E-03   0.0000000000E+00   0.0000000000E+00   0.0000000000E+00   0.6900470565E-01   0.1413118378E-01  -0.3801630570E-04  -0.7595980327E-02   0.2735404381E-03  -0.5034734434E-04
  -0.2607978431E+01   0.2066912418E+00   0.9994416322E+00   0.6581893274E-03  -0.1105838191E-02  -0.5583678094E-03   0.0000000000E+00   0.0000000000E+00   0.0000000000E+00   0.7422081276E-01   0.1480041828E-01   0.1293028260E-04  -0.1370942949E-02   0.2105359398E-03  -0.1371248332E-03
  -0.2627751597E+01   0.1452591173E-02   0.9994456120E+00   0.6387134100E-03  -0.1056857507E-02  -0.5543879915E-03   0.0000000000E+00   0.0000000000E+00   0.0000000000E+00   0.7353843386E-01   0.1392386311E-01  -0.1324237779E-04  -0.6187941301E-02   0.2116008550E-03  -0.6163029854E-04
  -0.2784195693E+01   0.2055668311E+00   0.9994330876E+00   0.5371270937E-03  -0.1084498850E-02  -0.5669124397E-03   0.0000000000E+00   0.0000000000E+00   0.0000000000E+00   0.7795319571E-01   0.1453471047E-01   0.3661728122E-05  -0.1198236474E-02   0.1547435688E-03  -0.1328896312E-03
  -0.2796873549E+01   0.2132269643E-02   0.9994376198E+00   0.5231110216E-03  -0.1033094627E-02  -0.5623801766E-03   0.0000000000E+00   0.0000000000E+00   0.0000000000E+00   0.7705219980E-01   0.1363392166E-01  -0.8173371941E-05  -0.4873216690E-02   0.1555543816E-03  -0.6496258701E-04
  -0.2961897053E+01   0.2042027103E+00   0.9994268810E+00   0.4089674924E-03  -0.1067624655E-02  -0.5731190400E-03   0.0000000000E+00   0.0000000000E+00   0.0000000000E+00   0.8075084402E-01   0.1424416510E-01   0.4983660224E-06  -0.9468680968E-03   0.1103794422E-03  -0.1205430124E-03
  -0.2971105326E+01   0.1708370062E-02   0.9994316548E+00   0.3984038846E-03  -0.1013677208E-02  -0.5683451711E-03   0.0000000000E+00   0.0000000000E+00   0.0000000000E+00   0.7974177377E-01   0.1335041355E-01  -0.8435781606E-06  -0.3592477443E-02   0.1101251457E-03  -0.7466885936E-04
  -0.3140557016E+01   0.2029680881E+00   0.9994226749E+00   0.2756442073E-03  -0.1055377896E-02  -0.5773251428E-03   0.0000000000E+00   0.0000000000E+00   0.0000000000E+00   0.8270703474E-01   0.1398362396E-01   0.9720380084E-06  -0.6763062726E-03   0.7735269060E-04  -0.1216417569E-03
  -0.3146778880E+01   0.1136248469E-02   0.9994276030E+00   0.2683999402E-03  -0.9996392713E-03  -0.5723970046E-03   0.0000000000E+00   0.0000000000E+00   0.0000000000E+00   0.8161998300E-01   0.1310707924E-01  -0.2087285218E-05  -0.2390512208E-02   0.7569213232E-04  -0.7302481425E-04
  -0.3319926190E+01   0.2021518114E+00   0.9994202387E+00   0.1388301662E-03  -0.1048007590E-02  -0.5797613382E-03   0.0000000000E+00   0.0000000000E+00   0.0000000000E+00   0.8386282760E-01   0.1380895562E-01  -0.3821407795E-06  -0.2637017887E-03   0.1184411291E-04  -0.1143498094E-03
  -0.3323105647E+01   0.7816589401E-03   0.9994252506E+00   0.1351134887E-03  -0.9911433799E-03  -0.5747493621E-03   0.0000000000E+00   0.0000000000E+00   0.0000000000E+00   0.8272418366E-01   0.1295298580E-01   0.3299320234E-06  -0.1095543548E-02   0.1192950964E-04  -0.8043292763E-04
  -0.3500000000E+01   0.2015993199E+00   0.9994194457E+00   0.0000000000E+00  -0.1045430080E-02  -0.5805542991E-03   0.0000000000E+00   0.0000000000E+00   0.0000000000E+00   0.8424661433E-01   0.1374690263E-01   0.9479774423E-06  -0.2641566488E-03   0.8601224115E-04  -0.1190811525E-03
  -0.3500000000E+01   0.4452164865E-03   0.9994244845E+00   0.0000000000E+00  -0.9882653235E-03  -0.5755154513E-03   0.0000000000E+00   0.0000000000E+00   0.0000000000E+00   0.8308781114E-01   0.1289560042E-01  -0.1210226844E-05  -0.2989032550E-03   0.8311420997E-04  -0.7580425921E-04
  -0.1175656563E+01   0.4121328330E+00   0.9997010248E+00   0.1412266937E-02  -0.1489129043E-02  -0.2989752238E-03   0.0000000000E+00   0.0000000000E+00   0.0000000000E+00   0.2301569019E-01  -0.2230381835E-01   0.2416357936E-03   0.2495950663E-01   0.4131585068E-02  -0.3417259006E-02
  -0.1331587325E+01   0.4181259722E+00   0.9996400566E+00   0.1364934934E-02  -0.1409306812E-02  -0.3599433710E-03   0.0000000000E+00   0.0000000000E+00   0.0000000000E+00   0.2947682873E-01  -0.1097155965E-01  -0.6171448564E-03   0.2543457608E-01   0.2434578226E-02  -0.1863478356E-02
  -0.1500214400E+01   0.4203773538E+00   0.9995857756E+00   0.1305519980E-02  -0.1353760209E-02  -0.4142244017E-03   0.0000000000E+00   0.0000000000E+00   0.0000000000E+00   0.3798427200E-01  -0.1359094647E-02   0.1394328659E-03   0.2172741537E-01   0.1818409842E-02  -0.1070488166E-02
  -0.1675784508E+01   0.4203922669E+00   0.9995418577E+00   0.1233771767E-02  -0.1309462141E-02  -0.4581422973E-03   0.0000000000E+00   0.0000000000E+00   0.0000000000E+00   0.4602351740E-01   0.4800742890E-02  -0.3437338912E-04   0.1658387678E-01   0.1073571980E-02  -0.6217652365E-03
  -0.1855023231E+01   0.4191713814E+00   0.9995073534E+00   0.1150169002E-02  -0.1271199629E-02  -0.4926466239E-03   0.0000000000E+00   0.0000000000E+00   0.0000000000E+00   0.5411683374E-01   0.9182167904E-02   0.6205258086E-04   0.1224779916E-01   0.7437555381E-03  -0.4298146976E-03
  -0.2036141118E+01   0.4173092865E+00   0.9994809986E+00   0.1054561953E-02  -0.1236853454E-02  -0.5190014373E-03   0.0000000000E+00   0.0000000000E+00   0.0000000000E+00   0.6141957767E-01   0.1179018819E-01  -0.4464361790E-05   0.8848850416E-02   0.4879090609E-03  -0.3093551249E-03
  -0.2218193183E+01   0.4151304825E+00   0.9994609095E+00   0.9478266578E-03  -0.1206113495E-02  -0.5390904797E-03   0.0000000000E+00   0.0000000000E+00   0.0000000000E+00   0.6784096563E-01   0.1332572655E-01  -0.5811563133E-06   0.6398127806E-02   0.3655613162E-03  -0.2591054478E-03
  -0.2400544778E+01   0.4128546699E+00   0.9994456965E+00   0.8312322658E-03  -0.1179250143E-02  -0.5543035447E-03   0.0000000000E+00   0.0000000000E+00   0.0000000000E+00   0.7323462144E-01   0.1405169982E-01  -0.1062557859E-04   0.4629425852E-02   0.2704837452E-03  -0.2155008998E-03
  -0.2582798352E+01   0.4106300473E+00   0.9994342427E+00   0.7063280744E-03  -0.1156389697E-02  -0.5657572812E-03   0.0000000000E+00   0.0000000000E+00   0.0000000000E+00   0.7766411229E-01   0.1428842795E-01  -0.9170022055E-06   0.3360309568E-02   0.2060807509E-03  -0.2019617523E-03
  -0.2765153453E+01   0.4084166311E+00   0.9994257640E+00   0.5743073813E-03  -0.1137671910E-02  -0.5742359999E-03   0.0000000000E+00   0.0000000000E+00   0.0000000000E+00   0.8116606305E-01   0.1423784602E-01  -0.7794041719E-06   0.2412906135E-02   0.1512005905E-03  -0.1794801161E-03
  -0.2948032886E+01   0.4062961096E+00   0.9994196726E+00   0.4362736825E-03  -0.1122976414E-02  -0.5803273798E-03   0.0000000000E+00   0.0000000000E+00   0.0000000000E+00   0.8382113494E-01   0.1405594459E-01   0.1034527754E-05   0.1675971281E-02   0.1046955402E-03  -0.1737299546E-03
  -0.3131477008E+01   0.4045205067E+00   0.9994155766E+00   0.2936018577E-03  -0.1112466350E-02  -0.5844234190E-03   0.0000000000E+00   0.0000000000E+00   0.0000000000E+00   0.8567969667E-01   0.1385129769E-01  -0.1169480827E-05   0.1040862741E-02   0.7381126994E-04  -0.1584951382E-03
  -0.3315471278E+01   0.4033232892E+00   0.9994132100E+00   0.1477121257E-03  -0.1106086849E-02  -0.5867899548E-03   0.0000000000E+00   0.0000000000E+00   0.0000000000E+00   0.8678384820E-01   0.1370188523E-01   0.9802019643E-06   0.5654087473E-03   0.1137970258E-04  -0.1586692088E-03
  -0.3500000000E+01   0.4026553327E+00   0.9994124477E+00   0.0000000000E+00  -0.1103908296E-02  -0.5875523015E-03   0.0000000000E+00   0.0000000000E+00   0.0000000000E+00   0.8714817873E-01   0.1364601089E-01  -0.7360376340E-06  -0.2019125816E-03   0.8114119753E-04  -0.1509067552E-03
  -0.1090753980E+01   0.6168090727E+00   0.9996094996E+00   0.1813340360E-02  -0.1648542270E-02  -0.3905004413E-03   0.0000000000E+00   0.0000000000E+00   0.0000000000E+00   0.6040360591E-01  -0.2910367485E-01   0.1767237403E-03   0.3639152884E-01   0.2019712225E-02  -0.5138951028E-02
  -0.1259141383E+01   0.6217953661E+00   0.9995803840E+00   0.1696886509E-02  -0.1523365912E-02  -0.4196160277E-03   0.0000000000E+00   0.0000000000E+00   0.0000000000E+00   0.6292673193E-01  -0.2224390226E-01  -0.1787321032E-03   0.3546294249E-01   0.1171041929E-02  -0.2395275711E-02
  -0.1436562967E+01   0.6239892882E+00   0.9995469609E+00   0.1572652626E-02  -0.1439149777E-02  -0.4530391429E-03   0.0000000000E+00   0.0000000000E+00   0.0000000000E+00   0.6384194266E-01  -0.1219242243E-01  -0.1084038926E-04   0.3115125853E-01   0.1227229674E-02  -0.1498197351E-02
  -0.1618999520E+01   0.6239518184E+00   0.9995148961E+00   0.1448229921E-02  -0.1378391554E-02  -0.4851038685E-03   0.0000000000E+00   0.0000000000E+00   0.0000000000E+00   0.6542232467E-01  -0.3478203947E-02   0.4808883898E-04   0.2554474168E-01   0.8244727145E-03  -0.9124955911E-03
  -0.1804279764E+01   0.6225472812E+00   0.9994873261E+00   0.1323265828E-02  -0.1331257835E-02  -0.5126738529E-03   0.0000000000E+00   0.0000000000E+00   0.0000000000E+00   0.6856176028E-01   0.3054190234E-02   0.2280035267E-04   0.2032612978E-01   0.6067236251E-03  -0.6246511767E-03
  -0.1991147716E+01   0.6203950124E+00   0.9994649199E+00   0.1195353721E-02  -0.1292876619E-02  -0.5350800884E-03   0.0000000000E+00   0.0000000000E+00   0.0000000000E+00   0.7248590439E-01   0.7457039785E-02   0.2761841425E-04   0.1595886398E-01   0.4224392327E-03  -0.4686226385E-03
  -0.2178864597E+01   0.6178618762E+00   0.9994472542E+00   0.1062753301E-02  -0.1261105775E-02  -0.5527458243E-03   0.0000000000E+00   0.0000000000E+00   0.0000000000E+00   0.7658723049E-01   0.1026608793E-01   0.1729718368E-04   0.1246304047E-01   0.3200299131E-03  -0.3675131697E-03
  -0.2366959089E+01   0.6151671432E+00   0.9994336222E+00   0.9245909594E-03  -0.1234767827E-02  -0.5663778337E-03   0.0000000000E+00   0.0000000000E+00   0.0000000000E+00   0.8042819230E-01   0.1184194043E-01   0.9569234983E-05   0.9701786622E-02   0.2381156784E-03  -0.3138387487E-03
  -0.2555179804E+01   0.6124444508E+00   0.9994232732E+00   0.7808561041E-03  -0.1213381246E-02  -0.5767267728E-03   0.0000000000E+00   0.0000000000E+00   0.0000000000E+00   0.8380596827E-01   0.1262861994E-01   0.3887328289E-05   0.7483178891E-02   0.1826492038E-03  -0.2612805859E-03
  -0.2743520656E+01   0.6097861232E+00   0.9994155989E+00   0.6318944098E-03  -0.1196354754E-02  -0.5844011105E-03   0.0000000000E+00   0.0000000000E+00   0.0000000000E+00   0.8661715418E-01   0.1290422471E-01   0.1698000877E-05   0.5638888154E-02   0.1342244291E-03  -0.2369730409E-03
  -0.2932119757E+01   0.6073427723E+00   0.9994101058E+00   0.4783531407E-03  -0.1183457740E-02  -0.5898941730E-03   0.0000000000E+00   0.0000000000E+00   0.0000000000E+00   0.8881967654E-01   0.1291695825E-01   0.1612564836E-05   0.4052202071E-02   0.9314047693E-04  -0.2079520957E-03
  -0.3121068029E+01   0.6053346410E+00   0.9994064326E+00   0.3211209895E-03  -0.1174329043E-02  -0.5935673745E-03   0.0000000000E+00   0.0000000000E+00   0.0000000000E+00   0.9039689291E-01   0.1281666736E-01   0.1797438018E-05   0.2607696152E-02   0.6473679027E-04  -0.1995770893E-03
  -0.3310387514E+01   0.6039641330E+00   0.9994043282E+00   0.1612658108E-03  -0.1168923977E-02  -0.5956718466E-03   0.0000000000E+00   0.0000000000E+00   0.0000000000E+00   0.9133891590E-01   0.1271866886E-01   0.1436252108E-05   0.1334683497E-02   0.9731357513E-05  -0.1845470034E-03
  -0.3500000000E+01   0.6032270096E+00   0.9994036556E+00   0.0000000000E+00  -0.1167009400E-02  -0.5963443899E-03   0.0000000000E+00   0.0000000000E+00   0.0000000000E+00   0.9165232131E-01   0.1267976790E-01   0.1163361536E-05  -0.1742560055E-03   0.7095388523E-04  -0.1874981463E-03
  -0.9964222835E+00   0.8147577894E+00   0.9994839688E+00   0.2342231495E-02  -0.1898561649E-02  -0.5160311809E-03   0.0000000000E+00   0.0000000000E+00   0.0000000000E+00   0.1150046017E+00  -0.3666610996E-01   0.7039135044E-03   0.3232521396E-01  -0.2216424880E-02  -0.2657939743E-02
  -0.1180326553E+01   0.8237748732E+00   0.9994981913E+00   0.2130056603E-02  -0.1717329798E-02  -0.5018087358E-03   0.0000000000E+00   0.0000000000E+00   0.0000000000E+00   0.1023949041E+00  -0.3117468252E-01  -0.4948518244E-03   0.3197127628E-01   0.2890804798E-03  -0.2157821529E-02
  -0.1370533207E+01   0.8249320437E+00   0.9994911370E+00   0.1918332872E-02  -0.1584107288E-02  -0.5088630029E-03   0.0000000000E+00   0.0000000000E+00   0.0000000000E+00   0.9510016666E-01  -0.2163824394E-01   0.1793147992E-03   0.3045805697E-01   0.5007059396E-03  -0.1487041989E-02
  -0.1561445831E+01   0.8244178396E+00   0.9994753923E+00   0.1726388614E-02  -0.1490582412E-02  -0.5246076756E-03   0.0000000000E+00   0.0000000000E+00   0.0000000000E+00   0.8930843368E-01  -0.1171244863E-01  -0.3316846842E-04   0.2742500298E-01   0.5231334164E-03  -0.1014450055E-02
  -0.1753463790E+01   0.8227983194E+00   0.9994577212E+00   0.1548599946E-02  -0.1422457572E-02  -0.5422788399E-03   0.0000000000E+00   0.0000000000E+00   0.0000000000E+00   0.8715956292E-01  -0.3519874458E-02   0.8174210725E-04   0.2355156037E-01   0.4058410181E-03  -0.7548946462E-03
  -0.1947940857E+01   0.8203149264E+00   0.9994415309E+00   0.1377312708E-02  -0.1371102643E-02  -0.5584690535E-03   0.0000000000E+00   0.0000000000E+00   0.0000000000E+00   0.8700649117E-01   0.2503368834E-02  -0.9870608693E-05   0.1967295496E-01   0.3132740367E-03  -0.5637149112E-03
  -0.2141607908E+01   0.8177218355E+00   0.9994279648E+00   0.1210542127E-02  -0.1332410549E-02  -0.5720352188E-03   0.0000000000E+00   0.0000000000E+00   0.0000000000E+00   0.8825024673E-01   0.6463721313E-02   0.9563253136E-05   0.1624220425E-01   0.2484517868E-03  -0.4697576870E-03
  -0.2335234800E+01   0.8150323893E+00   0.9994171815E+00   0.1044119779E-02  -0.1303050709E-02  -0.5828184930E-03   0.0000000000E+00   0.0000000000E+00   0.0000000000E+00   0.9008340979E-01   0.8860535538E-02  -0.6935183636E-05   0.1322385982E-01   0.1885634689E-03  -0.3819420896E-03
  -0.2528926308E+01   0.8123276308E+00   0.9994088995E+00   0.8760124623E-03  -0.1280777181E-02  -0.5911004716E-03   0.0000000000E+00   0.0000000000E+00   0.0000000000E+00   0.9206198992E-01   0.1018715303E-01  -0.3242701664E-06   0.1055655399E-01   0.1451210136E-03  -0.3340136259E-03
  -0.2722714779E+01   0.8097115430E+00   0.9994027651E+00   0.7053605586E-03  -0.1264246969E-02  -0.5972349191E-03   0.0000000000E+00   0.0000000000E+00   0.0000000000E+00   0.9389010831E-01   0.1081348925E-01  -0.2059856002E-05   0.8162615992E-02   0.1054134917E-03  -0.2821374030E-03
  -0.2916673342E+01   0.8073319457E+00   0.9993984101E+00   0.5319882701E-03  -0.1252267250E-02  -0.6015898501E-03   0.0000000000E+00   0.0000000000E+00   0.0000000000E+00   0.9541680322E-01   0.1103120877E-01  -0.6562487473E-06   0.5969742596E-02   0.7293785274E-04  -0.2564936566E-03
  -0.3110877516E+01   0.8053734089E+00   0.9993955294E+00   0.3561944571E-03  -0.1244209074E-02  -0.6044706387E-03   0.0000000000E+00   0.0000000000E+00   0.0000000000E+00   0.9654949579E-01   0.1105226360E-01  -0.5697575752E-06   0.3899012961E-02   0.4976178751E-04  -0.2270823994E-03
  -0.3305354836E+01   0.8040127216E+00   0.9993938961E+00   0.1785736280E-03  -0.1239472440E-02  -0.6061039379E-03   0.0000000000E+00   0.0000000000E+00   0.0000000000E+00   0.9723992058E-01   0.1101398593E-01  -0.1889777551E-07   0.1967221665E-02   0.7776267945E-05  -0.2201098630E-03
  -0.3500000000E+01   0.8032303181E+00   0.9993933854E+00   0.0000000000E+00  -0.1237836877E-02  -0.6066146406E-03   0.0000000000E+00   0.0000000000E+00   0.0000000000E+00   0.9747015709E-01   0.1099421142E-01  -0.2538686344E-06  -0.1260603271E-03   0.5373989140E-04  -0.2096537347E-03
  -0.9002091041E+00   0.1019434955E+01   0.9993710652E+00   0.2909982902E-02  -0.2239675458E-02  -0.6289347833E-03   0.0000000000E+00   0.0000000000E+00   0.0000000000E+00   0.1556743234E+00  -0.3626581143E-01  -0.1485799674E-02   0.8759200153E-02  -0.3048348318E-02  -0.9937743896E-03
  -0.1110112980E+01   0.1024107283E+01   0.9994153824E+00   0.2577230348E-02  -0.1970817216E-02  -0.5846175580E-03   0.0000000000E+00   0.0000000000E+00   0.0000000000E+00   0.1360713282E+00  -0.3218848943E-01   0.3218651280E-03   0.1821066949E-01   0.7821260490E-04  -0.1896756586E-02
  -0.1305515530E+01   0.1025688193E+01   0.9994300031E+00   0.2295969578E-02  -0.1786447263E-02  -0.5699968989E-03   0.0000000000E+00   0.0000000000E+00   0.0000000000E+00   0.1226416318E+00  -0.2587000203E-01  -0.2964462826E-03   0.2104626031E-01  -0.1836154240E-03  -0.1105366298E-02
  -0.1504189086E+01   0.1024347416E+01   0.9994291717E+00   0.2039483974E-02  -0.1647953521E-02  -0.5708282956E-03   0.0000000000E+00   0.0000000000E+00   0.0000000000E+00   0.1127371010E+00  -0.1604212705E-01   0.3892800700E-04   0.2216396939E-01   0.3157674613E-03  -0.1005801559E-02
  -0.1702852640E+01   0.1022270046E+01   0.9994219271E+00   0.1807299602E-02  -0.1548563956E-02  -0.5780729301E-03   0.0000000000E+00   0.0000000000E+00   0.0000000000E+00   0.1061952242E+00  -0.7968798779E-02  -0.6568688290E-04   0.2152987483E-01   0.1930506416E-03  -0.7098715297E-03
  -0.1908146900E+01   0.1018897088E+01   0.9994125716E+00   0.1585080198E-02  -0.1474351661E-02  -0.5874284297E-03   0.0000000000E+00   0.0000000000E+00   0.0000000000E+00   0.1028570265E+00  -0.1324246599E-02   0.2294709630E-04   0.1962744459E-01   0.2293977275E-03  -0.6203345984E-03
  -0.2106623475E+01   0.1016463716E+01   0.9994040521E+00   0.1381575143E-02  -0.1423753855E-02  -0.5959478816E-03   0.0000000000E+00   0.0000000000E+00   0.0000000000E+00   0.1014516466E+00   0.3050090326E-02  -0.2312976405E-05   0.1736404297E-01   0.1511269759E-03  -0.4909712985E-03
  -0.2305256041E+01   0.1013949713E+01   0.9993969778E+00   0.1183359226E-02  -0.1387516707E-02  -0.6030222214E-03   0.0000000000E+00   0.0000000000E+00   0.0000000000E+00   0.1013378304E+00   0.5901480004E-02   0.1291517767E-04   0.1480846388E-01   0.1338152867E-03  -0.4279029043E-03
  -0.2503969262E+01   0.1011433909E+01   0.9993915835E+00   0.9872180041E-03  -0.1362020777E-02  -0.6084164950E-03   0.0000000000E+00   0.0000000000E+00   0.0000000000E+00   0.1017885196E+00   0.7510467682E-02   0.1842541476E-05   0.1224313919E-01   0.8843322221E-04  -0.3514467991E-03
  -0.2702757529E+01   0.1008996098E+01   0.9993876572E+00   0.7913810107E-03  -0.1344231961E-02  -0.6123428249E-03   0.0000000000E+00   0.0000000000E+00   0.0000000000E+00   0.1024942776E+00   0.8354797657E-02   0.6381775248E-05   0.9696008795E-02   0.7034620888E-04  -0.3114672482E-03
  -0.2901660621E+01   0.1006750969E+01   0.9993849740E+00   0.5949187571E-03  -0.1332250800E-02  -0.6150259644E-03   0.0000000000E+00   0.0000000000E+00   0.0000000000E+00   0.1031918985E+00   0.8704246335E-02   0.4409448259E-05   0.7208002492E-02   0.4192991699E-04  -0.2655014218E-03
  -0.3100755637E+01   0.1004852814E+01   0.9993832639E+00   0.3975030564E-03  -0.1324496096E-02  -0.6167360990E-03   0.0000000000E+00   0.0000000000E+00   0.0000000000E+00   0.1037627426E+00   0.8811994306E-02   0.4295462787E-05   0.4759543703E-02   0.3080902047E-04  -0.2461347371E-03
  -0.3300151526E+01   0.1003469670E+01   0.9993823297E+00   0.1991436190E-03  -0.1320159720E-02  -0.6176702886E-03   0.0000000000E+00   0.0000000000E+00   0.0000000000E+00   0.1041218741E+00   0.8818255359E-02   0.5524226823E-05   0.2406096687E-02   0.3896945583E-05  -0.2240473308E-03
  -0.3500000000E+01   0.1002742237E+01   0.9993820481E+00   0.0000000000E+00  -0.1318623321E-02  -0.6179519198E-03   0.0000000000E+00   0.0000000000E+00   0.0000000000E+00   0.1042445783E+00   0.8814142708E-02   0.3774586655E-05  -0.1201975397E-03   0.3039579080E-04  -0.2247858658E-03
  -0.3297155015E+01   0.1202548495E+01   0.9993701681E+00   0.2194748326E-03  -0.1412405009E-02  -0.6298318921E-03   0.0000000000E+00   0.0000000000E+00   0.0000000000E+00   0.1114947892E+00   0.6357191696E-02  -0.6340380984E-05   0.2593253599E-02   0.3895507894E-06  -0.2439250471E-03
  -0.3500000000E+01   0.1201957777E+01   0.9993701836E+00   0.0000000000E+00  -0.1411002710E-02  -0.6298163541E-03   0.0000000000E+00   0.0000000000E+00   0.0000000000E+00   0.1114929627E+00   0.6361209547E-02  -0.2275964062E-05  -0.9643720864E-04   0.1661424700E-05  -0.2311721062E-03
  -0.3295775822E+01   0.1401474076E+01   0.9993579598E+00   0.2384882863E-03  -0.1516864408E-02  -0.6420401680E-03   0.0000000000E+00   0.0000000000E+00   0.0000000000E+00   0.1189744895E+00   0.3946068461E-02   0.1924238164E-04   0.2483721818E-02  -0.6160984303E-05  -0.2022167719E-03
  -0.3500000000E+01   0.1401047574E+01   0.9993583408E+00   0.0000000000E+00  -0.1515406069E-02  -0.6416592158E-03   0.0000000000E+00   0.0000000000E+00   0.0000000000E+00   0.1188264354E+00   0.3943713950E-02   0.1087417349E-04  -0.1143942399E-03  -0.3545885076E-04  -0.1994852712E-03
  -0.3295411373E+01   0.1600371015E+01   0.9993464749E+00   0.2550874945E-03  -0.1633035002E-02  -0.6535251255E-03   0.0000000000E+00   0.0000000000E+00   0.0000000000E+00   0.1258207924E+00   0.1786610503E-02  -0.3753125527E-04   0.2103011758E-02  -0.1505963093E-04  -0.2081752049E-03
  -0.3500000000E+01   0.1600100778E+01   0.9993472328E+00   0.0000000000E+00  -0.1631471687E-02  -0.6527672282E-03   0.0000000000E+00   0.0000000000E+00   0.0000000000E+00   0.1255354542E+00   0.1795332539E-02  -0.2656317678E-04  -0.1232107426E-03  -0.6914062645E-04  -0.1943647646E-03
  -0.3295447794E+01   0.1799259694E+01   0.9993360497E+00   0.2682557793E-03  -0.1759016077E-02  -0.6639503251E-03   0.0000000000E+00   0.0000000000E+00   0.0000000000E+00   0.1318192541E+00   0.4557228500E-03   0.4893694816E-04   0.1210010818E-02  -0.3338190149E-04  -0.8264085989E-04
  -0.3500000000E+01   0.1799131041E+01   0.9993372465E+00   0.0000000000E+00  -0.1757139221E-02  -0.6627534797E-03   0.0000000000E+00   0.0000000000E+00   0.0000000000E+00   0.1313444729E+00   0.4500254764E-03   0.3334958448E-04  -0.1648365626E-03  -0.1142419178E-03  -0.7579153296E-04
  -0.3295547562E+01   0.1998108179E+01   0.9993277373E+00   0.2762483465E-03  -0.1891820675E-02  -0.6722626900E-03   0.0000000000E+00   0.0000000000E+00   0.0000000000E+00   0.1352865970E+00  -0.1338909230E-03  -0.1157597691E-03   0.4442142975E-03  -0.1151407859E-03  -0.1608926476E-04
  -0.3500000000E+01   0.1998110529E+01   0.9993292755E+00   0.0000000000E+00  -0.1889471478E-02  -0.6707244667E-03   0.0000000000E+00   0.0000000000E+00   0.0000000000E+00   0.1346744868E+00  -0.1175462488E-03  -0.1049430936E-03  -0.2145765276E-03  -0.1425685582E-03  -0.1797839324E-04
  -0.3094791991E+01   0.1203642653E+01   0.9993701911E+00   0.4385891855E-03  -0.1416637117E-02  -0.6298088639E-03   0.0000000000E+00   0.0000000000E+00   0.0000000000E+00   0.1115101546E+00   0.6329956686E-02  -0.3934571508E-05   0.5125141750E-02   0.1758974089E-05  -0.2606280235E-03
  -0.3091914753E+01   0.1402259734E+01   0.9993569090E+00   0.4772171631E-03  -0.1521205606E-02  -0.6430910194E-03   0.0000000000E+00   0.0000000000E+00   0.0000000000E+00   0.1194046527E+00   0.3922326625E-02   0.1492009536E-04   0.4881464387E-02  -0.3056048009E-04  -0.2280212198E-03
  -0.3091016272E+01   0.1600868924E+01   0.9993442217E+00   0.5111877447E-03  -0.1637955810E-02  -0.6557782587E-03   0.0000000000E+00   0.0000000000E+00   0.0000000000E+00   0.1266880773E+00   0.1771169055E-02  -0.3527419436E-04   0.4117219182E-02  -0.7341477239E-04  -0.2394387344E-03
  -0.3090949809E+01   0.1799496064E+01   0.9993325218E+00   0.5383107733E-03  -0.1764886220E-02  -0.6674781595E-03   0.0000000000E+00   0.0000000000E+00   0.0000000000E+00   0.1332124190E+00   0.4447506074E-03   0.5500176355E-04   0.2313824750E-02  -0.1356022485E-03  -0.1070594895E-03
  -0.3091050260E+01   0.1998100735E+01   0.9993230780E+00   0.5551599144E-03  -0.1899264553E-02  -0.6769219664E-03   0.0000000000E+00   0.0000000000E+00   0.0000000000E+00   0.1371504074E+00  -0.1638164858E-03  -0.1000421330E-03   0.7682370724E-03  -0.3229033494E-03  -0.2323635384E-04
  -0.2892723898E+01   0.1205123144E+01   0.9993703814E+00   0.6577017363E-03  -0.1424355604E-02  -0.6296186334E-03   0.0000000000E+00   0.0000000000E+00   0.0000000000E+00   0.1115582825E+00   0.6196266558E-02  -0.1068815288E-04   0.7689621937E-02   0.8996571057E-05  -0.3047302675E-03
  -0.2888279547E+01   0.1403319089E+01   0.9993552749E+00   0.7170528090E-03  -0.1529490979E-02  -0.6447251267E-03   0.0000000000E+00   0.0000000000E+00   0.0000000000E+00   0.1201384132E+00   0.3829458060E-02   0.2820127293E-04   0.7284666194E-02  -0.4127556217E-04  -0.2592105579E-03
  -0.2886750993E+01   0.1601540537E+01   0.9993406062E+00   0.7695565048E-03  -0.1647263419E-02  -0.6593937843E-03   0.0000000000E+00   0.0000000000E+00   0.0000000000E+00   0.1280979045E+00   0.1694792948E-02  -0.5794245464E-04   0.6136772718E-02  -0.9691470438E-04  -0.3016244366E-03
  -0.2886500837E+01   0.1799814641E+01   0.9993267000E+00   0.8120527267E-03  -0.1775918829E-02  -0.6733000420E-03   0.0000000000E+00   0.0000000000E+00   0.0000000000E+00   0.1355170167E+00   0.4343453529E-03   0.9740484523E-04   0.3472857961E-02  -0.1938914741E-03  -0.1481178904E-03
  -0.2886541385E+01   0.1998087081E+01   0.9993154017E+00   0.8392146050E-03  -0.1912919049E-02  -0.6845982885E-03   0.0000000000E+00   0.0000000000E+00   0.0000000000E+00   0.1402153696E+00  -0.2322326112E-03  -0.1055322440E-03   0.1165404192E-02  -0.4715505924E-03  -0.2588022272E-04
  -0.2690830755E+01   0.1206865664E+01   0.9993709137E+00   0.8773354560E-03  -0.1437075963E-02  -0.6290863472E-03   0.0000000000E+00   0.0000000000E+00   0.0000000000E+00   0.1117152919E+00   0.5818564516E-02  -0.1104126782E-04   0.1020053443E-01   0.1424069322E-04  -0.3513346823E-03
  -0.2684779723E+01   0.1404565480E+01   0.9993532681E+00   0.9588368131E-03  -0.1543380498E-02  -0.6467318746E-03   0.0000000000E+00   0.0000000000E+00   0.0000000000E+00   0.1211919439E+00   0.3544907742E-02   0.2781665585E-04   0.9560807974E-02  -0.4679875325E-04  -0.3162891560E-03
  -0.2682566990E+01   0.1602331367E+01   0.9993357804E+00   0.1031529504E-02  -0.1663003470E-02  -0.6642196111E-03   0.0000000000E+00   0.0000000000E+00   0.0000000000E+00   0.1300469396E+00   0.1519169997E-02  -0.6429222833E-04   0.8020528693E-02  -0.1310748357E-03  -0.3843941169E-03
  -0.2682087490E+01   0.1800188542E+01   0.9993187964E+00   0.1091169862E-02  -0.1794097990E-02  -0.6812036189E-03   0.0000000000E+00   0.0000000000E+00   0.0000000000E+00   0.1386421907E+00   0.3755362990E-03   0.1301505843E-03   0.4539368201E-02  -0.2597147371E-03  -0.2121838831E-03
  -0.2682032422E+01   0.1998065178E+01   0.9993047992E+00   0.1130977763E-02  -0.1934821596E-02  -0.6952008327E-03   0.0000000000E+00   0.0000000000E+00   0.0000000000E+00   0.1444627448E+00  -0.3203581565E-03  -0.7060542027E-04   0.1549719084E-02  -0.6432334670E-03  -0.3992633105E-04
  -0.2489038133E+01   0.1208761386E+01   0.9993720310E+00   0.1098247399E-02  -0.1456803543E-02  -0.6279690053E-03   0.0000000000E+00   0.0000000000E+00   0.0000000000E+00   0.1121024557E+00   0.4980143410E-02  -0.1983798016E-04   0.1259571120E-01   0.3303520594E-04  -0.4311349978E-03
  -0.2481356448E+01   0.1405923950E+01   0.9993511109E+00   0.1203711915E-02  -0.1565710280E-02  -0.6488890800E-03   0.0000000000E+00   0.0000000000E+00   0.0000000000E+00   0.1226453845E+00   0.2923775230E-02   0.4939916082E-04   0.1159739639E-01  -0.5375661184E-04  -0.3760837882E-03
  -0.2478430912E+01   0.1603193641E+01   0.9993300840E+00   0.1298267635E-02  -0.1688118919E-02  -0.6699160355E-03   0.0000000000E+00   0.0000000000E+00   0.0000000000E+00   0.1324678702E+00   0.1124240149E-02  -0.1036673362E-03   0.9633404657E-02  -0.1497467415E-03  -0.5045236919E-03
  -0.2477696164E+01   0.1800593406E+01   0.9993090971E+00   0.1377356491E-02  -0.1822564284E-02  -0.6909029067E-03   0.0000000000E+00   0.0000000000E+00   0.0000000000E+00   0.1424996733E+00   0.2754786161E-03   0.2146898412E-03   0.5460798509E-02  -0.3243023407E-03  -0.2988475583E-03
  -0.2477523340E+01   0.1998032046E+01   0.9992917120E+00   0.1432639991E-02  -0.1967954443E-02  -0.7082880048E-03   0.0000000000E+00   0.0000000000E+00   0.0000000000E+00   0.1497139765E+00  -0.4640971393E-03  -0.5650434220E-04   0.1850504194E-02  -0.7907298104E-03  -0.4683261228E-04
  -0.2287305315E+01   0.1210728403E+01   0.9993739466E+00   0.1321835126E-02  -0.1486786678E-02  -0.6260533719E-03   0.0000000000E+00   0.0000000000E+00   0.0000000000E+00   0.1129371220E+00   0.3394780912E-02  -0.2535317273E-04   0.1473476909E-01   0.4403723618E-04  -0.5077449688E-03
  -0.2277977172E+01   0.1407337028E+01   0.9993491234E+00   0.1452977506E-02  -0.1600192010E-02  -0.6508765842E-03   0.0000000000E+00   0.0000000000E+00   0.0000000000E+00   0.1245870763E+00   0.1728854172E-02   0.5363295510E-04   0.1316700635E-01  -0.4588542033E-04  -0.4652784188E-03
  -0.2274320620E+01   0.1604089579E+01   0.9993238987E+00   0.1571159542E-02  -0.1727021073E-02  -0.6761013288E-03   0.0000000000E+00   0.0000000000E+00   0.0000000000E+00   0.1353439965E+00   0.4152999814E-03  -0.1174619715E-03   0.1073099811E-01  -0.1679150129E-03  -0.6435155268E-03
  -0.2273316443E+01   0.1801008711E+01   0.9992982539E+00   0.1671727236E-02  -0.1865618576E-02  -0.7017461147E-03   0.0000000000E+00   0.0000000000E+00   0.0000000000E+00   0.1468414811E+00   0.4903956850E-04   0.2826622362E-03   0.6044495652E-02  -0.3651918673E-03  -0.4142972739E-03
  -0.2273010873E+01   0.1997983452E+01   0.9992767883E+00   0.1746277337E-02  -0.2016547504E-02  -0.7232116887E-03   0.0000000000E+00   0.0000000000E+00   0.0000000000E+00   0.1557593991E+00  -0.6328568657E-03   0.2987535971E-04   0.2093140417E-02  -0.9041928510E-03  -0.7026298375E-04
  -0.2085623708E+01   0.1212706953E+01   0.9993767570E+00   0.1550231631E-02  -0.1530977471E-02  -0.6232429851E-03   0.0000000000E+00   0.0000000000E+00   0.0000000000E+00   0.1145663970E+00   0.7041660018E-03  -0.3175975008E-04   0.1640336125E-01   0.7400438823E-04  -0.6274720907E-03
  -0.2074627708E+01   0.1408761264E+01   0.9993475041E+00   0.1708672464E-02  -0.1652236430E-02  -0.6524959274E-03   0.0000000000E+00   0.0000000000E+00   0.0000000000E+00   0.1272294959E+00  -0.2786080850E-03   0.8765139534E-04   0.1395107235E-01  -0.4137696889E-04  -0.5452981573E-03
  -0.2070226212E+01   0.1604989242E+01   0.9993178338E+00   0.1851297547E-02  -0.1785328132E-02  -0.6821662222E-03   0.0000000000E+00   0.0000000000E+00   0.0000000000E+00   0.1385718626E+00  -0.7977954112E-03  -0.1795468081E-03   0.1093600091E-01  -0.1600698108E-03  -0.8175634071E-03
  -0.2068941403E+01   0.1801416786E+01   0.9992871291E+00   0.1975247002E-02  -0.1929133967E-02  -0.7128709271E-03   0.0000000000E+00   0.0000000000E+00   0.0000000000E+00   0.1513968439E+00  -0.2931377997E-03   0.4260147977E-03   0.6078413941E-02  -0.3834758718E-03  -0.5500764715E-03
  -0.2068491709E+01   0.1997914014E+01   0.9992614495E+00   0.2072801473E-02  -0.2085986429E-02  -0.7385505126E-03   0.0000000000E+00   0.0000000000E+00   0.0000000000E+00   0.1620497999E+00  -0.8742244670E-03   0.8705061832E-04   0.2053408758E-02  -0.9116163270E-03  -0.7871597272E-04
  -0.1884029524E+01   0.1214644502E+01   0.9993802067E+00   0.1786816496E-02  -0.1595187905E-02  -0.6197933287E-03   0.0000000000E+00   0.0000000000E+00   0.0000000000E+00   0.1174721949E+00  -0.3387108649E-02  -0.4283405120E-04   0.1724277518E-01   0.7821258620E-04  -0.7338846059E-03
  -0.1871324225E+01   0.1410167603E+01   0.9993463024E+00   0.1973224859E-02  -0.1728266513E-02  -0.6536975873E-03   0.0000000000E+00   0.0000000000E+00   0.0000000000E+00   0.1307947628E+00  -0.3364018129E-02   0.8779790777E-04   0.1348211621E-01  -0.3024911949E-04  -0.6534337157E-03
  -0.1866152517E+01   0.1605880399E+01   0.9993123919E+00   0.2140173255E-02  -0.1870491108E-02  -0.6876081437E-03   0.0000000000E+00   0.0000000000E+00   0.0000000000E+00   0.1421512597E+00  -0.2581976098E-02  -0.1856066344E-03   0.9778023848E-02  -0.1401056715E-03  -0.9781012409E-03
  -0.1864572743E+01   0.1801816607E+01   0.9992771698E+00   0.2287647374E-02  -0.2020213137E-02  -0.7228302270E-03   0.0000000000E+00   0.0000000000E+00   0.0000000000E+00   0.1556260400E+00  -0.8757545476E-03   0.5119700355E-03   0.5189885664E-02  -0.3319671613E-03  -0.7013998017E-03
  -0.1863964988E+01   0.1997817045E+01   0.9992475765E+00   0.2412362354E-02  -0.2182954572E-02  -0.7524235427E-03   0.0000000000E+00   0.0000000000E+00   0.0000000000E+00   0.1679201503E+00  -0.1114240105E-02   0.2647081038E-03   0.1768075471E-02  -0.7613894424E-03  -0.1136903635E-03
  -0.1680812513E+01   0.1216780097E+01   0.9993831599E+00   0.2038797030E-02  -0.1687142571E-02  -0.6168401459E-03   0.0000000000E+00   0.0000000000E+00   0.0000000000E+00   0.1223796983E+00  -0.9231769192E-02  -0.2309883457E-04   0.1690221706E-01   0.7839846829E-04  -0.9170979820E-03
  -0.1667642866E+01   0.1411654171E+01   0.9993449088E+00   0.2250873815E-02  -0.1837078806E-02  -0.6550912094E-03   0.0000000000E+00   0.0000000000E+00   0.0000000000E+00   0.1356688558E+00  -0.7569773539E-02   0.1403098715E-03   0.1124561877E-01  -0.1951979835E-04  -0.7045037196E-03
  -0.1661985215E+01   0.1606854195E+01   0.9993080911E+00   0.2438964648E-02  -0.1990805459E-02  -0.6919088715E-03   0.0000000000E+00   0.0000000000E+00   0.0000000000E+00   0.1459409794E+00  -0.5060519668E-02  -0.2760392685E-03   0.6703640893E-02  -0.9124837200E-04  -0.1136345699E-02
  -0.1660168547E+01   0.1802271176E+01   0.9992698974E+00   0.2608402981E-02  -0.2147263850E-02  -0.7301026249E-03   0.0000000000E+00   0.0000000000E+00   0.0000000000E+00   0.1590091782E+00  -0.1604068316E-02   0.6909012265E-03   0.3053046132E-02  -0.2142738965E-03  -0.8323427371E-03
  -0.1659426142E+01   0.1997685421E+01   0.9992382181E+00   0.2762387745E-02  -0.2314578846E-02  -0.7617818861E-03   0.0000000000E+00   0.0000000000E+00   0.0000000000E+00   0.1721078501E+00  -0.1395979831E-02   0.3593352348E-03   0.8495522461E-03  -0.3336801890E-03  -0.1105863175E-03
  -0.1478714407E+01   0.1218705630E+01   0.9993833957E+00   0.2308662824E-02  -0.1815100487E-02  -0.6166042941E-03   0.0000000000E+00   0.0000000000E+00   0.0000000000E+00   0.1300130989E+00  -0.1631446996E-01   0.1977903448E-06   0.1445296583E-01   0.2386813572E-04  -0.1030241679E-02
  -0.1463989634E+01   0.1413353641E+01   0.9993419352E+00   0.2544975849E-02  -0.1987139315E-02  -0.6580647973E-03   0.0000000000E+00   0.0000000000E+00   0.0000000000E+00   0.1419896870E+00  -0.1267672833E-01   0.5169595883E-04   0.6643381412E-02  -0.7347845019E-04  -0.7881763661E-03
  -0.1457680087E+01   0.1608162099E+01   0.9993045813E+00   0.2749342606E-02  -0.2155610811E-02  -0.6954187134E-03   0.0000000000E+00   0.0000000000E+00   0.0000000000E+00   0.1499544890E+00  -0.7842455894E-02  -0.2058781626E-03   0.1221813408E-02  -0.5635989681E-04  -0.1179201339E-02
  -0.1455681956E+01   0.1802947674E+01   0.9992672888E+00   0.2934894085E-02  -0.2318226103E-02  -0.7327112143E-03   0.0000000000E+00   0.0000000000E+00   0.0000000000E+00   0.1606300091E+00  -0.2537061706E-02   0.6770195644E-03  -0.6959682218E-03   0.2810479562E-04  -0.8905447124E-03
  -0.1454880737E+01   0.1997512455E+01   0.9992365292E+00   0.3118492853E-02  -0.2487545151E-02  -0.7634707519E-03   0.0000000000E+00   0.0000000000E+00   0.0000000000E+00   0.1733311810E+00  -0.1528887649E-02   0.6047201839E-03  -0.5091733733E-03   0.3986380687E-03  -0.1543904232E-03
  -0.1270732160E+01   0.1220623148E+01   0.9993761025E+00   0.2613309628E-02  -0.1994482288E-02  -0.6238974615E-03   0.0000000000E+00   0.0000000000E+00   0.0000000000E+00   0.1407252681E+00  -0.2380828036E-01  -0.7642436535E-04   0.9471473221E-02  -0.1755852109E-03  -0.1238874068E-02
  -0.1258113949E+01   0.1415799836E+01   0.9993338123E+00   0.2863561221E-02  -0.2190964438E-02  -0.6661877099E-03   0.0000000000E+00   0.0000000000E+00   0.0000000000E+00   0.1500970804E+00  -0.1753349887E-01   0.1922108703E-03  -0.7196995260E-03  -0.2055738909E-03  -0.7640171814E-03
  -0.1252415696E+01   0.1610349068E+01   0.9993012102E+00   0.3072343988E-02  -0.2372611957E-02  -0.6987898203E-03   0.0000000000E+00   0.0000000000E+00   0.0000000000E+00   0.1535509547E+00  -0.1033136736E-01  -0.2970158114E-03  -0.6720117691E-02  -0.5570981586E-05  -0.1049245105E-02
  -0.1250929491E+01   0.1804167950E+01   0.9992705158E+00   0.3264529392E-02  -0.2539070287E-02  -0.7294841829E-03   0.0000000000E+00   0.0000000000E+00   0.0000000000E+00   0.1598904838E+00  -0.3223565399E-02   0.7455899016E-03  -0.5911242675E-02   0.3207877930E-03  -0.8223381203E-03
  -0.1250468130E+01   0.1997294994E+01   0.9992462733E+00   0.3471379780E-02  -0.2705005633E-02  -0.7537266885E-03   0.0000000000E+00   0.0000000000E+00   0.0000000000E+00   0.1696962526E+00  -0.1522043320E-02   0.6040603940E-03  -0.2713633192E-02   0.1509755336E-02  -0.9129238605E-04
  -0.1066178122E+01   0.1223273348E+01   0.9993531632E+00   0.2946817553E-02  -0.2231762136E-02  -0.6468368360E-03   0.0000000000E+00   0.0000000000E+00   0.0000000000E+00   0.1545819806E+00  -0.2869169710E-01  -0.1274968691E-03   0.1125510782E-02  -0.7368086189E-03  -0.1174956693E-02
  -0.1051108351E+01   0.1419505234E+01   0.9993165487E+00   0.3206259036E-02  -0.2453566205E-02  -0.6834513101E-03   0.0000000000E+00   0.0000000000E+00   0.0000000000E+00   0.1587195225E+00  -0.2005487593E-01   0.3092373774E-04  -0.1060430130E-01  -0.5211918838E-03  -0.6591079569E-03
  -0.1046076115E+01   0.1613519276E+01   0.9992961991E+00   0.3406705024E-02  -0.2644454137E-02  -0.7038009054E-03   0.0000000000E+00   0.0000000000E+00   0.0000000000E+00   0.1563030166E+00  -0.1108560791E-01  -0.1102425956E-03  -0.1642216409E-01  -0.6496717386E-04  -0.5929639870E-03
  -0.1045822097E+01   0.1805623218E+01   0.9992807948E+00   0.3590393012E-02  -0.2808052173E-02  -0.7192051973E-03   0.0000000000E+00   0.0000000000E+00   0.0000000000E+00   0.1557480976E+00  -0.3363364893E-02   0.4756256370E-03  -0.1203452988E-01   0.7606590717E-03  -0.5201149482E-03
  -0.1046709321E+01   0.1997036614E+01   0.9992692264E+00   0.3809908979E-02  -0.2963385934E-02  -0.7307736445E-03   0.0000000000E+00   0.0000000000E+00   0.0000000000E+00   0.1604234530E+00  -0.1111656568E-02   0.6513959241E-03  -0.4870284852E-02   0.2740324988E-02  -0.7191953723E-04
  -0.8568145183E+00   0.1225244152E+01   0.9993035054E+00   0.3319129750E-02  -0.2536428395E-02  -0.6964945589E-03   0.0000000000E+00   0.0000000000E+00   0.0000000000E+00   0.1696070400E+00  -0.2593738036E-01   0.2875968502E-03  -0.7165880732E-02  -0.1905863093E-02  -0.1329332954E-02
  -0.8406415494E+00   0.1423435437E+01   0.9992851544E+00   0.3573009603E-02  -0.2774842594E-02  -0.7148456090E-03   0.0000000000E+00   0.0000000000E+00   0.0000000000E+00   0.1669401208E+00  -0.1765834344E-01   0.9034541823E-04  -0.2167603689E-01  -0.1021417716E-02   0.2368956863E-03
  -0.8373299228E+00   0.1616347985E+01   0.9992889152E+00   0.3745974165E-02  -0.2961675492E-02  -0.7110848361E-03   0.0000000000E+00   0.0000000000E+00   0.0000000000E+00   0.1568951005E+00  -0.8428014030E-02  -0.6609270202E-05  -0.2540291372E-01   0.7489495099E-04   0.1846684145E-03
  -0.8390668231E+00   0.1806809660E+01   0.9992976000E+00   0.3907958856E-02  -0.3114470245E-02  -0.7023999768E-03   0.0000000000E+00   0.0000000000E+00   0.0000000000E+00   0.1482342532E+00  -0.2613491007E-02   0.8829886067E-04  -0.1742087307E-01   0.1068637610E-02   0.4993350580E-05
  -0.8445792240E+00   0.1996751915E+01   0.9993050622E+00   0.4118914955E-02  -0.3248084728E-02  -0.6949377918E-03   0.0000000000E+00   0.0000000000E+00   0.0000000000E+00   0.1451209347E+00  -0.3539335126E-03   0.3995678984E-03  -0.7214885733E-02   0.3961816185E-02   0.6401154310E-04
   0.6336832516E+00  -0.1762217521E+01   0.9991607605E+00   0.5903052592E-02  -0.1256413195E-03  -0.8392395273E-03   0.0000000000E+00   0.0000000000E+00   0.0000000000E+00   0.1696206236E+00   0.3036328159E-01  -0.3784768100E-03  -0.6775365588E-03   0.7690817950E-03  -0.2868668750E-03
   0.4249323436E+00  -0.1769881145E+01   0.9991234420E+00   0.5588663576E-02  -0.8584549469E-04  -0.8765580499E-03   0.0000000000E+00   0.0000000000E+00   0.0000000000E+00   0.1690173241E+00   0.4578250931E-01  -0.2491423511E-03  -0.1546094480E-02   0.6728989504E-03  -0.4033574314E-03
   0.4157508505E+00  -0.2000000000E+01   0.9991294535E+00   0.5562563472E-02   0.0000000000E+00  -0.8705465252E-03   0.0000000000E+00   0.0000000000E+00   0.0000000000E+00   0.1668925827E+00   0.4726845254E-01   0.6813836231E-04   0.9542398977E-03   0.4960252980E-03  -0.4925810703E-03
   0.6236122488E+00  -0.2000000000E+01   0.9991625525E+00   0.5867504812E-02   0.0000000000E+00  -0.8374474835E-03   0.0000000000E+00   0.0000000000E+00   0.0000000000E+00   0.1679383056E+00   0.3270086392E-01   0.1954257669E-03   0.1546632122E-02   0.6215251091E-03  -0.1440562367E-03
   0.2161036676E+00  -0.1777856107E+01   0.9990979016E+00   0.5290651619E-02  -0.5685694918E-04  -0.9020983875E-03   0.0000000000E+00   0.0000000000E+00   0.0000000000E+00   0.1679026361E+00   0.5722144067E-01  -0.2177620688E-03  -0.1277193607E-02   0.3416141429E-03  -0.4535082406E-03
   0.2069477994E+00  -0.2000000000E+01   0.9991069519E+00   0.5271833395E-02   0.0000000000E+00  -0.8930481402E-03   0.0000000000E+00   0.0000000000E+00   0.0000000000E+00   0.1654676717E+00   0.5780553245E-01   0.2193938727E-04   0.5465457262E-03   0.2730498105E-03  -0.7394572738E-03
   0.6254112692E-02  -0.1782699814E+01   0.9990891020E+00   0.5001800942E-02  -0.4600385551E-04  -0.9108979782E-03   0.0000000000E+00   0.0000000000E+00   0.0000000000E+00   0.1669819546E+00   0.6139878487E-01  -0.4324665473E-03  -0.2142237178E-04   0.1823029994E-04  -0.5920149108E-03
  -0.5393403960E-02  -0.2000000000E+01   0.9990991634E+00   0.4985930040E-02   0.0000000000E+00  -0.9008366230E-03   0.0000000000E+00   0.0000000000E+00   0.0000000000E+00   0.1651197960E+00   0.6179362003E-01   0.1883105042E-03   0.3059112049E-04  -0.3345439594E-04  -0.6774778853E-03
  -0.2014564975E+00  -0.1784583314E+01   0.9990981908E+00   0.4716192520E-02  -0.5458449686E-04  -0.9018092406E-03   0.0000000000E+00   0.0000000000E+00   0.0000000000E+00   0.1676437654E+00   0.5747266758E-01  -0.2315701068E-03   0.1281171006E-02  -0.3725392407E-03  -0.4778849725E-03
  -0.2151540107E+00  -0.2000000000E+01   0.9991085212E+00   0.4703250268E-02   0.0000000000E+00  -0.8914787622E-03   0.0000000000E+00   0.0000000000E+00   0.0000000000E+00   0.1655701660E+00   0.5747070095E-01   0.1688060311E-04  -0.5726378863E-03  -0.3001789450E-03  -0.6870793901E-03
  -0.4109386457E+00  -0.1783981418E+01   0.9991239184E+00   0.4418884259E-02  -0.7972816533E-04  -0.8760816220E-03   0.0000000000E+00   0.0000000000E+00   0.0000000000E+00   0.1684309375E+00   0.4619735871E-01  -0.3849554283E-03   0.1493806945E-02  -0.6181487793E-03  -0.5005514137E-03
  -0.4214937581E+00  -0.2000000000E+01   0.9991316705E+00   0.4414598937E-02   0.0000000000E+00  -0.8683295432E-03   0.0000000000E+00   0.0000000000E+00   0.0000000000E+00   0.1671305362E+00   0.4688042358E-01   0.1797626473E-03  -0.8394652929E-03  -0.5207530103E-03  -0.3382720283E-03
   0.6502960638E+00  -0.1523331136E+01   0.9991519982E+00   0.5999059750E-02  -0.2683062336E-03  -0.8480017614E-03   0.0000000000E+00   0.0000000000E+00   0.0000000000E+00   0.1761290807E+00   0.2634078026E-01   0.5099479366E-03   0.2550476226E-02   0.1016188459E-02  -0.2975813875E-03
   0.4394094169E+00  -0.1542163870E+01   0.9991027391E+00   0.5656969948E-02  -0.1849100827E-03  -0.8972608933E-03   0.0000000000E+00   0.0000000000E+00   0.0000000000E+00   0.1785332237E+00   0.4300063305E-01   0.4196393351E-03  -0.2703108909E-03   0.8513799322E-03  -0.5833548597E-03
   0.2297555116E+00  -0.1559674894E+01   0.9990681760E+00   0.5332713647E-02  -0.1232935453E-03  -0.9318239607E-03   0.0000000000E+00   0.0000000000E+00   0.0000000000E+00   0.1785551945E+00   0.5569704283E-01   0.3013155614E-03  -0.7981240626E-03   0.6673160092E-03  -0.1069434352E-02
   0.2167240701E-01  -0.1569933259E+01   0.9990547316E+00   0.5024565206E-02  -0.9783897691E-04  -0.9452684439E-03   0.0000000000E+00   0.0000000000E+00   0.0000000000E+00   0.1785400904E+00   0.6106794870E-01   0.7027667023E-03  -0.5286368378E-04   0.3055712521E-04  -0.1195888606E-02
  -0.1858574831E+00  -0.1572668389E+01   0.9990665933E+00   0.4719963892E-02  -0.1127291750E-03  -0.9334066747E-03   0.0000000000E+00   0.0000000000E+00   0.0000000000E+00   0.1778996829E+00   0.5729245622E-01   0.3499630524E-03   0.8481224755E-03  -0.5995247195E-03  -0.1012695922E-02
  -0.3944843555E+00  -0.1568850041E+01   0.9990989185E+00   0.4404739545E-02  -0.1616506349E-03  -0.9010815349E-03   0.0000000000E+00   0.0000000000E+00   0.0000000000E+00   0.1776819065E+00   0.4610983506E-01   0.6076504268E-03   0.7313561622E-03  -0.7866642364E-03  -0.3757758257E-03
   0.6755903647E+00  -0.1279967694E+01   0.9991505596E+00   0.6197659673E-02  -0.4476640491E-03  -0.8494403663E-03   0.0000000000E+00   0.0000000000E+00   0.0000000000E+00   0.1831956788E+00   0.1513548113E-01  -0.9172897158E-03   0.1242200951E-01   0.1810660756E-02  -0.7493848010E-03
   0.4549306800E+00  -0.1319003516E+01   0.9990733018E+00   0.5787360032E-02  -0.3096363219E-03  -0.9266982365E-03   0.0000000000E+00   0.0000000000E+00   0.0000000000E+00   0.1900169250E+00   0.3498608569E-01  -0.1319248370E-02   0.7000375278E-02   0.2461418449E-02  -0.2295539234E-02
   0.2420765434E+00  -0.1350447037E+01   0.9990194369E+00   0.5408120424E-02  -0.2124073118E-03  -0.9805631152E-03   0.0000000000E+00   0.0000000000E+00   0.0000000000E+00   0.1954537687E+00   0.4893244746E-01  -0.8463798501E-03   0.3543190111E-02   0.1408721322E-02  -0.3572012802E-02
   0.3418547052E-01  -0.1366953952E+01   0.9989997596E+00   0.5049876421E-02  -0.1734321359E-03  -0.1000240376E-02   0.0000000000E+00   0.0000000000E+00   0.0000000000E+00   0.1971344087E+00   0.5378696966E-01  -0.1308337741E-02   0.1801297033E-03   0.2171390229E-03  -0.3833959968E-02
  -0.1743488862E+00  -0.1367752823E+01   0.9990139229E+00   0.4696373785E-02  -0.1895734458E-03  -0.9860771117E-03   0.0000000000E+00   0.0000000000E+00   0.0000000000E+00   0.1943562851E+00   0.5184522704E-01  -0.9340752180E-03  -0.2734807253E-02  -0.1050195566E-02  -0.3781943545E-02
  -0.3837036297E+00  -0.1355263990E+01   0.9990613927E+00   0.4340072285E-02  -0.2613501351E-03  -0.9386073259E-03   0.0000000000E+00   0.0000000000E+00   0.0000000000E+00   0.1885638321E+00   0.4014667103E-01  -0.1818085028E-02  -0.4467459205E-02  -0.2190979307E-02  -0.2830406572E-02
   0.7082609391E+00  -0.1013777706E+01   0.9991717941E+00   0.6603525059E-02  -0.6673061961E-03  -0.8282058914E-03   0.0000000000E+00   0.0000000000E+00   0.0000000000E+00   0.1703312335E+00   0.1899215832E-01   0.1472705216E-02   0.4247072138E-01   0.3514483214E-02  -0.5551465221E-04
   0.4623661715E+00  -0.1104336646E+01   0.9990321830E+00   0.6030597496E-02  -0.4560062635E-03  -0.9678170428E-03   0.0000000000E+00   0.0000000000E+00   0.0000000000E+00   0.2084096799E+00   0.3436842640E-01   0.3784420238E-02   0.3691641892E-01   0.4212212689E-02  -0.2299469280E-02
   0.2469988555E+00  -0.1157456715E+01   0.9989502662E+00   0.5535790521E-02  -0.3403047662E-03  -0.1049733798E-02   0.0000000000E+00   0.0000000000E+00   0.0000000000E+00   0.2367283166E+00   0.3543955282E-01   0.4000849916E-02   0.2452231475E-01   0.2248014890E-02  -0.3046005568E-02
   0.4220395558E-01  -0.1180174965E+01   0.9989198761E+00   0.5081996578E-02  -0.2927953914E-03  -0.1080123940E-02   0.0000000000E+00   0.0000000000E+00   0.0000000000E+00   0.2462753632E+00   0.3579989088E-01   0.4188746840E-02   0.4476743942E-02   0.3951239970E-03  -0.3731460773E-02
  -0.1620582137E+00  -0.1176223096E+01   0.9989357683E+00   0.4637232259E-02  -0.3092858664E-03  -0.1064231661E-02   0.0000000000E+00   0.0000000000E+00   0.0000000000E+00   0.2410252549E+00   0.3571855143E-01   0.4257619390E-02  -0.1600802149E-01  -0.1401831234E-02  -0.3349456124E-02
  -0.3746313445E+00  -0.1145700216E+01   0.9989996246E+00   0.4176170483E-02  -0.3890958597E-03  -0.1000375381E-02   0.0000000000E+00   0.0000000000E+00   0.0000000000E+00   0.2171436699E+00   0.3529071449E-01   0.4331354189E-02  -0.2955743414E-01  -0.3375349990E-02  -0.2783030207E-02
  -0.1294929961E+00  -0.9915108464E+00   0.9988753621E+00   0.4564853924E-02  -0.5373144266E-03  -0.1124637920E-02   0.0000000000E+00   0.0000000000E+00   0.0000000000E+00   0.3104317972E+00   0.8685273853E-02   0.2115851233E-02  -0.3672532387E-01  -0.2966375046E-02   0.1036144130E-02
  -0.3064446873E+00  -0.9511698020E+00   0.9989436731E+00   0.3984170676E-02  -0.5731709711E-03  -0.1056326854E-02   0.0000000000E+00   0.0000000000E+00   0.0000000000E+00   0.2655000457E+00   0.2269445641E-01   0.1698220658E-02  -0.7264228947E-01  -0.5971035985E-02   0.3472518633E-02
   0.4575575920E-01  -0.9997041092E+00   0.9988595550E+00   0.5135037298E-02  -0.5294551733E-03  -0.1140445003E-02   0.0000000000E+00   0.0000000000E+00   0.0000000000E+00   0.3209321939E+00   0.4932778676E-02   0.2773570513E-02   0.1025385004E-01   0.5330685743E-03   0.4487238242E-03
   0.2220110828E+00  -0.9768747999E+00   0.9988970002E+00   0.5711071758E-02  -0.5478578874E-03  -0.1102999809E-02   0.0000000000E+00   0.0000000000E+00   0.0000000000E+00   0.2967078230E+00   0.1436866276E-01   0.2324711405E-02   0.5521227711E-01   0.4251662877E-02   0.1213057345E-02
   0.4014065226E+00  -0.9192367164E+00   0.9989905038E+00   0.6306465593E-02  -0.5986063950E-03  -0.1009496204E-02   0.0000000000E+00   0.0000000000E+00   0.0000000000E+00   0.2378325204E+00   0.3155769062E-01   0.1791212128E-02   0.8380938380E-01   0.7001051682E-02   0.4032843737E-02
   0.5804739881E+00  -0.8198585959E+00   0.9991465585E+00   0.6923466051E-02  -0.6884188738E-03  -0.8534415390E-03   0.0000000000E+00   0.0000000000E+00   0.0000000000E+00   0.1696224156E+00   0.4734321834E-01   0.7282218809E-03   0.8965531623E-01   0.8927585565E-02   0.6815705245E-02
   0.8643293912E+00  -0.7845434036E+00   0.9993337876E+00   0.7342153167E-02  -0.9262055542E-03  -0.6662123630E-03   0.0000000000E+00   0.0000000000E+00   0.0000000000E+00   0.1091995730E+00   0.1682702646E-01   0.2401567373E-02   0.5632560798E-01   0.2418485851E-02   0.4854077178E-02
   0.7402507576E+00  -0.6813432344E+00   0.9993366929E+00   0.7541826618E-02  -0.8011233585E-03  -0.6633070600E-03   0.0000000000E+00   0.0000000000E+00   0.0000000000E+00   0.9033765859E-01   0.5098181360E-01  -0.5705395911E-03   0.6398413322E-01   0.7840192947E-02   0.9023878608E-02
   0.9854410661E+00  -0.5800698982E+00   0.9995167814E+00   0.7948137131E-02  -0.1108526167E-02  -0.4832186040E-03   0.0000000000E+00   0.0000000000E+00   0.0000000000E+00   0.5817821755E-01   0.1800038832E-02  -0.2031470229E-02   0.4453809854E-01   0.1377849131E-02   0.7007753440E-02
   0.8628721988E+00  -0.5198576521E+00   0.9995351216E+00   0.8046880822E-02  -0.9417601007E-03  -0.4648784349E-03   0.0000000000E+00   0.0000000000E+00   0.0000000000E+00   0.3141925356E-01   0.2215873583E-01  -0.2056057248E-02   0.3036655262E-01   0.6747295424E-02   0.1210238529E-01
   0.1071631490E+01  -0.3840620338E+00   0.9996628766E+00   0.8397160262E-02  -0.1239668805E-02  -0.3371234082E-03   0.0000000000E+00   0.0000000000E+00   0.0000000000E+00   0.2445115590E-01  -0.1677832794E-01  -0.2553644905E-02   0.3059648410E-01  -0.1629604359E-02   0.5971347704E-02
   0.9461226268E+00  -0.3485244869E+00   0.9997033201E+00   0.8419970806E-02  -0.1085733861E-02  -0.2966798980E-03   0.0000000000E+00   0.0000000000E+00   0.0000000000E+00   0.1002713620E-01  -0.2394063997E-01  -0.3842483236E-02   0.4508249163E-02   0.2955678248E-02   0.1070458605E-01
   0.1120799904E+01  -0.1929028010E+00   0.9997634296E+00   0.8686543545E-02  -0.1324814962E-02  -0.2365704091E-03   0.0000000000E+00   0.0000000000E+00   0.0000000000E+00   0.4620573465E-02  -0.3415825164E-01  -0.4209831600E-02   0.1889694693E-01  -0.3652477735E-02   0.4291554417E-02
   0.9933688251E+00  -0.1754226323E+00   0.9998220134E+00   0.8657297082E-02  -0.1229682326E-02  -0.1779866261E-03   0.0000000000E+00   0.0000000000E+00   0.0000000000E+00   0.3717582587E-02  -0.6653049538E-01  -0.4925597962E-02  -0.2155390781E-02   0.4084602751E-03   0.7797628983E-02
   0.1256482522E+01  -0.1990769323E+00   0.9996963929E+00   0.8710902309E-02  -0.1350265303E-02  -0.3036071314E-03   0.0000000000E+00   0.0000000000E+00   0.0000000000E+00   0.1389691668E-01  -0.1175700783E-01   0.3805309670E-03   0.3385746330E-01  -0.4250128518E-02   0.2539251176E-02
   0.1411444742E+01  -0.2034262927E+00   0.9996346060E+00   0.8741691975E-02  -0.1332646669E-02  -0.3653939538E-03   0.0000000000E+00   0.0000000000E+00   0.0000000000E+00   0.2231171920E-01  -0.1877932620E-02  -0.3736111235E-03   0.3474020782E-01  -0.2262938458E-02   0.1250659214E-02
   0.1580504030E+01  -0.2067715800E+00   0.9995815067E+00   0.8784260208E-02  -0.1289722960E-02  -0.4184933202E-03   0.0000000000E+00   0.0000000000E+00   0.0000000000E+00   0.3306365461E-01   0.4925787963E-02   0.2294862584E-03   0.3238286060E-01  -0.1699491206E-02   0.7892970125E-03
   0.1754408067E+01  -0.2092170347E+00   0.9995406695E+00   0.8843366865E-02  -0.1236431704E-02  -0.4593304724E-03   0.0000000000E+00   0.0000000000E+00   0.0000000000E+00   0.4322239955E-01   0.7865580461E-02   0.9671356577E-04   0.2832477381E-01  -0.9501638763E-03   0.4392939937E-03
   0.1928641509E+01  -0.2109357755E+00   0.9995101309E+00   0.8917519180E-02  -0.1181844454E-02  -0.4898690799E-03   0.0000000000E+00   0.0000000000E+00   0.0000000000E+00   0.5246510342E-01   0.9822798831E-02   0.1166718461E-03   0.2425239002E-01  -0.6402034993E-03   0.2870588745E-03
   0.2111206747E+01  -0.2135813539E+00   0.9994864217E+00   0.9010056642E-02  -0.1127421903E-02  -0.5135783048E-03   0.0000000000E+00   0.0000000000E+00   0.0000000000E+00   0.6048691498E-01   0.1070485597E-01   0.3137371526E-04   0.2031644187E-01  -0.4071091097E-03   0.1731488770E-03
   0.2294985375E+01  -0.2159030286E+00   0.9994686895E+00   0.9116254538E-02  -0.1077904583E-02  -0.5313105370E-03   0.0000000000E+00   0.0000000000E+00   0.0000000000E+00   0.6684805005E-01   0.1124294159E-01   0.9792974341E-05   0.1680886065E-01  -0.3297810216E-03   0.1176083712E-03
   0.2457714303E+01  -0.2152996387E+00   0.9994567843E+00   0.9219872549E-02  -0.1039790742E-02  -0.5432157443E-03   0.0000000000E+00   0.0000000000E+00   0.0000000000E+00   0.7166868402E-01   0.1134699320E-01  -0.1530804640E-06   0.1387049761E-01  -0.2246437106E-03   0.7015793217E-04
   0.2628082896E+01  -0.2157902077E+00   0.9994471364E+00   0.9335185854E-02  -0.1005078723E-02  -0.5528635893E-03   0.0000000000E+00   0.0000000000E+00   0.0000000000E+00   0.7547217219E-01   0.1138459188E-01   0.7946863015E-06   0.1115499909E-01  -0.1911115615E-03   0.2188157681E-04
   0.2802943465E+01  -0.2169827710E+00   0.9994396852E+00   0.9459734820E-02  -0.9756579518E-03  -0.5603147533E-03   0.0000000000E+00   0.0000000000E+00   0.0000000000E+00   0.7859884275E-01   0.1126467084E-01  -0.1598140835E-05   0.8635386664E-02  -0.1406067631E-03   0.1044140578E-05
   0.2978612238E+01  -0.2182282844E+00   0.9994342488E+00   0.9589727550E-02  -0.9523963726E-03  -0.5657511826E-03   0.0000000000E+00   0.0000000000E+00   0.0000000000E+00   0.8092532696E-01   0.1114180305E-01   0.3192955775E-05   0.6298866933E-02  -0.9823989668E-04  -0.2075871285E-04
   0.3155234770E+01  -0.2194741222E+00   0.9994305591E+00   0.9724099740E-02  -0.9357041875E-03  -0.5694408767E-03   0.0000000000E+00   0.0000000000E+00   0.0000000000E+00   0.8253984146E-01   0.1100300675E-01  -0.3130874174E-05   0.4151161514E-02  -0.6886457241E-04  -0.2661737771E-04
   0.3332349550E+01  -0.2203487052E+00   0.9994284072E+00   0.9861239728E-02  -0.9255001919E-03  -0.5715928429E-03   0.0000000000E+00   0.0000000000E+00   0.0000000000E+00   0.8349348282E-01   0.1092150590E-01   0.1698671665E-05   0.1951309947E-02  -0.1156711716E-04  -0.3743841411E-04
   0.3510000000E+01  -0.2211465980E+00   0.9994277073E+00   0.1000000000E-01  -0.9220239567E-03  -0.5722927072E-03   0.0000000000E+00   0.0000000000E+00   0.0000000000E+00   0.8380546631E-01   0.1088242891E-01  -0.1666015751E-05   0.3352226950E-03  -0.7573974799E-04  -0.3497775599E-04
   0.1210741096E+01  -0.3972181536E+00   0.9996235353E+00   0.8435066051E-02  -0.1297340620E-02  -0.3764646829E-03   0.0000000000E+00   0.0000000000E+00   0.0000000000E+00   0.4091734344E-01  -0.1348897179E-01   0.3341477214E-03   0.4832189189E-01  -0.2405178166E-02   0.3667003216E-02
   0.1373649122E+01  -0.4071390392E+00   0.9995838459E+00   0.8501532090E-02  -0.1296109238E-02  -0.4161540761E-03   0.0000000000E+00   0.0000000000E+00   0.0000000000E+00   0.4653382154E-01  -0.8460175343E-02  -0.4735275133E-03   0.4899470182E-01  -0.1429943848E-02   0.2127585236E-02
   0.1544086976E+01  -0.4130610757E+00   0.9995485798E+00   0.8584545502E-02  -0.1258336664E-02  -0.4514201814E-03   0.0000000000E+00   0.0000000000E+00   0.0000000000E+00   0.5315458384E-01  -0.3347656732E-02   0.8253319476E-04   0.4547960784E-01  -0.1138262872E-02   0.1219151933E-02
   0.1719302612E+01  -0.4171963183E+00   0.9995195376E+00   0.8679582276E-02  -0.1204237343E-02  -0.4804624477E-03   0.0000000000E+00   0.0000000000E+00   0.0000000000E+00   0.5868580990E-01   0.4127585701E-03  -0.8910421128E-04   0.3952619340E-01  -0.6968562986E-03   0.6963334440E-03
   0.1896849831E+01  -0.4205123389E+00   0.9994961996E+00   0.8784250996E-02  -0.1145114876E-02  -0.5038004021E-03   0.0000000000E+00   0.0000000000E+00   0.0000000000E+00   0.6431476099E-01   0.3282722645E-02   0.2919131230E-04   0.3361142088E-01  -0.5067960565E-03   0.4387596450E-03
   0.2074568182E+01  -0.4234293749E+00   0.9994782135E+00   0.8897212418E-02  -0.1087372852E-02  -0.5217865064E-03   0.0000000000E+00   0.0000000000E+00   0.0000000000E+00   0.6931210634E-01   0.5077398419E-02  -0.1916505030E-04   0.2810322036E-01  -0.3337711551E-03   0.2781679993E-03
   0.2255451133E+01  -0.4264396488E+00   0.9994639643E+00   0.9019782696E-02  -0.1033013839E-02  -0.5360356989E-03   0.0000000000E+00   0.0000000000E+00   0.0000000000E+00   0.7370561702E-01   0.6250065040E-02   0.2571960695E-04   0.2321317340E-01  -0.2747681063E-03   0.1883697481E-03
   0.2432013190E+01  -0.4287470041E+00   0.9994533056E+00   0.9145889573E-02  -0.9859261473E-03  -0.5466943509E-03   0.0000000000E+00   0.0000000000E+00   0.0000000000E+00   0.7733045199E-01   0.7020991519E-02   0.1890256744E-04   0.1893914844E-01  -0.1814293285E-03   0.1210754008E-03
   0.2609432025E+01  -0.4311341215E+00   0.9994451770E+00   0.9278344879E-02  -0.9454065345E-03  -0.5548229512E-03   0.0000000000E+00   0.0000000000E+00   0.0000000000E+00   0.8021842984E-01   0.7418883689E-02  -0.9167919455E-05   0.1514810909E-01  -0.1425274496E-03   0.9060656510E-04
   0.2788309766E+01  -0.4337162008E+00   0.9994389371E+00   0.9416296329E-02  -0.9113178136E-03  -0.5610629340E-03   0.0000000000E+00   0.0000000000E+00   0.0000000000E+00   0.8248464927E-01   0.7706281706E-02   0.3006554450E-05   0.1170349129E-01  -0.1135785877E-03   0.4670762501E-04
   0.2967880439E+01  -0.4362790767E+00   0.9994343671E+00   0.9558388599E-02  -0.8845507029E-03  -0.5656328946E-03   0.0000000000E+00   0.0000000000E+00   0.0000000000E+00   0.8419634947E-01   0.7836734692E-02  -0.4890488498E-05   0.8520818494E-02  -0.7973414512E-04   0.2777870204E-04
   0.3148033588E+01  -0.4385464997E+00   0.9994312373E+00   0.9703608215E-02  -0.8650627444E-03  -0.5687627261E-03   0.0000000000E+00   0.0000000000E+00   0.0000000000E+00   0.8539509055E-01   0.7913251285E-02   0.3952640136E-05   0.5603749421E-02  -0.5682721599E-04   0.7020587731E-05
   0.3328709716E+01  -0.4400993388E+00   0.9994294263E+00   0.9851095771E-02  -0.8533697938E-03  -0.5705736928E-03   0.0000000000E+00   0.0000000000E+00   0.0000000000E+00   0.8610165740E-01   0.7932722426E-02  -0.3877132977E-05   0.2641349617E-02  -0.8117800144E-05   0.2326438892E-05
   0.3510000000E+01  -0.4413147198E+00   0.9994288198E+00   0.1000000000E-01  -0.8491207504E-03  -0.5711801602E-03   0.0000000000E+00   0.0000000000E+00   0.0000000000E+00   0.8634024657E-01   0.7940003270E-02   0.4537438927E-05   0.4208989112E-03  -0.6584040548E-04  -0.4961149611E-05
   0.1137110531E+01  -0.5983537599E+00   0.9995183388E+00   0.8024040816E-02  -0.1194254894E-02  -0.4816611816E-03   0.0000000000E+00   0.0000000000E+00   0.0000000000E+00   0.7813733221E-01  -0.1516710983E-01   0.7974276108E-04   0.5498875205E-01  -0.2620854075E-03   0.4190904735E-02
   0.1306455956E+01  -0.6105501929E+00   0.9995122883E+00   0.8148536416E-02  -0.1212922946E-02  -0.4877116703E-03   0.0000000000E+00   0.0000000000E+00   0.0000000000E+00   0.8016522911E-01  -0.1567314313E-01   0.8794131721E-04   0.5448377617E-01  -0.2831483904E-03   0.2117087641E-02
   0.1483422918E+01  -0.6186009451E+00   0.9995009553E+00   0.8291167666E-02  -0.1188378074E-02  -0.4990447314E-03   0.0000000000E+00   0.0000000000E+00   0.0000000000E+00   0.8041821966E-01  -0.1248942407E-01   0.2545096575E-04   0.5059281912E-01  -0.4454737188E-03   0.1285464282E-02
   0.1664289963E+01  -0.6245234329E+00   0.9994873278E+00   0.8438122513E-02  -0.1141221939E-02  -0.5126721809E-03   0.0000000000E+00   0.0000000000E+00   0.0000000000E+00   0.8034140411E-01  -0.8259375011E-02   0.9707561630E-04   0.4494170584E-01  -0.3617656109E-03   0.8345129305E-03
   0.1847196264E+01  -0.6294445976E+00   0.9994743383E+00   0.8586334200E-02  -0.1083729576E-02  -0.5256617496E-03   0.0000000000E+00   0.0000000000E+00   0.0000000000E+00   0.8116702105E-01  -0.4687061999E-02   0.3904637566E-04   0.3882776254E-01  -0.2785230570E-03   0.5335218213E-03
   0.2031052266E+01  -0.6339175578E+00   0.9994630405E+00   0.8735806474E-02  -0.1024472834E-02  -0.5369595326E-03   0.0000000000E+00   0.0000000000E+00   0.0000000000E+00   0.8256418114E-01  -0.1919124647E-02   0.4489241007E-04   0.3285971079E-01  -0.2015080060E-03   0.3754237246E-03
   0.2215879489E+01  -0.6382237580E+00   0.9994537367E+00   0.8887579176E-02  -0.9675529604E-03  -0.5462633437E-03   0.0000000000E+00   0.0000000000E+00   0.0000000000E+00   0.8412734517E-01   0.9255486864E-04  -0.8970531565E-05   0.2733254300E-01  -0.1590862773E-03   0.2461527255E-03
   0.2399901102E+01  -0.6422903759E+00   0.9994461949E+00   0.9040782174E-02  -0.9162648659E-03  -0.5538050800E-03   0.0000000000E+00   0.0000000000E+00   0.0000000000E+00   0.8567281193E-01   0.1564431796E-02   0.2339167268E-05   0.2232600675E-01  -0.1386721067E-03   0.1737822628E-03
   0.2583954441E+01  -0.6462993009E+00   0.9994402470E+00   0.9195911375E-02  -0.8715379437E-03  -0.5597530090E-03   0.0000000000E+00   0.0000000000E+00   0.0000000000E+00   0.8706999648E-01   0.2603834945E-02   0.1671127123E-04   0.1781425413E-01  -0.9871372884E-04   0.1165531451E-03
   0.2768424817E+01  -0.6502955263E+00   0.9994357205E+00   0.9353467077E-02  -0.8343162652E-03  -0.5642795448E-03   0.0000000000E+00   0.0000000000E+00   0.0000000000E+00   0.8820647585E-01   0.3296220711E-02  -0.3879842267E-05   0.1375029042E-01  -0.7540970580E-04   0.8702901602E-04
   0.2953248065E+01  -0.6541039726E+00   0.9994323432E+00   0.9512944832E-02  -0.8047005907E-03  -0.5676567753E-03   0.0000000000E+00   0.0000000000E+00   0.0000000000E+00   0.8908849342E-01   0.3806712641E-02   0.7104364054E-05   0.1001195801E-01  -0.5591291127E-04   0.5273067188E-04
   0.3138429945E+01  -0.6573681515E+00   0.9994300338E+00   0.9674135105E-02  -0.7833524979E-03  -0.5699661522E-03   0.0000000000E+00   0.0000000000E+00   0.0000000000E+00   0.8970254794E-01   0.4118420620E-02  -0.3446008807E-05   0.6568835950E-02  -0.3920155122E-04   0.3918294309E-04
   0.3324002444E+01  -0.6596265468E+00   0.9994286740E+00   0.9836613949E-02  -0.7702737547E-03  -0.5713260100E-03   0.0000000000E+00   0.0000000000E+00   0.0000000000E+00   0.9008271598E-01   0.4303979797E-02   0.3393908225E-05   0.3122687784E-02  -0.6561381341E-05   0.2371953739E-04
   0.3510000000E+01  -0.6611756511E+00   0.9994282255E+00   0.1000000000E-01  -0.7656640838E-03  -0.5717744896E-03   0.0000000000E+00   0.0000000000E+00   0.0000000000E+00   0.9020372496E-01   0.4345594187E-02  -0.2826620690E-05   0.3985990565E-03  -0.4439589244E-04   0.2518494179E-04
   0.1045867617E+01  -0.8086526581E+00   0.9993927980E+00   0.7505116736E-02  -0.1024026142E-02  -0.6072019705E-03   0.0000000000E+00   0.0000000000E+00   0.0000000000E+00   0.1249427754E+00  -0.1569857612E-01   0.2305751361E-03   0.5029504324E-01   0.2793701890E-02   0.1754006760E-02
   0.1232325327E+01  -0.8217727141E+00   0.9994275137E+00   0.7721317410E-02  -0.1065393150E-02  -0.5724863217E-03   0.0000000000E+00   0.0000000000E+00   0.0000000000E+00   0.1161313765E+00  -0.1963689183E-01  -0.1253490053E-03   0.4883385800E-01   0.5169683488E-03   0.1613194530E-02
   0.1419679239E+01  -0.8301726785E+00   0.9994421830E+00   0.7939649257E-02  -0.1063248457E-02  -0.5578169801E-03   0.0000000000E+00   0.0000000000E+00   0.0000000000E+00   0.1098107371E+00  -0.1922224027E-01  -0.1546101945E-04   0.4728738469E-01   0.2053236920E-03   0.1152320395E-02
   0.1607875977E+01  -0.8366674181E+00   0.9994463249E+00   0.8148827270E-02  -0.1031219083E-02  -0.5536751344E-03   0.0000000000E+00   0.0000000000E+00   0.0000000000E+00   0.1040475838E+00  -0.1573314544E-01  -0.2078141706E-04   0.4372721504E-01  -0.3950462158E-04   0.7920097069E-03
   0.1796926230E+01  -0.8424026971E+00   0.9994455431E+00   0.8349029727E-02  -0.9835961239E-03  -0.5544569193E-03   0.0000000000E+00   0.0000000000E+00   0.0000000000E+00   0.1002681492E+00  -0.1221715424E-01  -0.7347016991E-05   0.3890194352E-01  -0.3882415518E-04   0.5692538150E-03
   0.1986616321E+01  -0.8478112248E+00   0.9994426877E+00   0.8542010532E-02  -0.9291797530E-03  -0.5573122502E-03   0.0000000000E+00   0.0000000000E+00   0.0000000000E+00   0.9789888808E-01  -0.8962587097E-02  -0.7703415773E-05   0.3365200805E-01  -0.6959421820E-04   0.3951889563E-03
   0.2176747630E+01  -0.8530616542E+00   0.9994392709E+00   0.8730240372E-02  -0.8746172423E-03  -0.5607290614E-03   0.0000000000E+00   0.0000000000E+00   0.0000000000E+00   0.9652725561E-01  -0.6351477241E-02   0.6393329151E-05   0.2839277732E-01  -0.5611346849E-04   0.2994391103E-03
   0.2366803486E+01  -0.8581885176E+00   0.9994359727E+00   0.8914785803E-02  -0.8235055511E-03  -0.5640273470E-03   0.0000000000E+00   0.0000000000E+00   0.0000000000E+00   0.9573881310E-01  -0.4262083546E-02   0.7778626471E-06   0.2341911720E-01  -0.5229720325E-04   0.2065455551E-03
   0.2556862487E+01  -0.8632364275E+00   0.9994330694E+00   0.9097236633E-02  -0.7783174586E-03  -0.5669306260E-03   0.0000000000E+00   0.0000000000E+00   0.0000000000E+00   0.9529095881E-01  -0.2674148993E-02  -0.1125810744E-04   0.1878184503E-01  -0.4924095919E-04   0.1497170860E-03
   0.2747054336E+01  -0.8681676153E+00   0.9994306430E+00   0.9278295591E-02  -0.7400273497E-03  -0.5693570080E-03   0.0000000000E+00   0.0000000000E+00   0.0000000000E+00   0.9507147560E-01  -0.1449440390E-02   0.6888741020E-05   0.1451760176E-01  -0.3838065349E-04   0.1013595974E-03
   0.2937423491E+01  -0.8727863033E+00   0.9994287981E+00   0.9458801121E-02  -0.7096722505E-03  -0.5712018803E-03   0.0000000000E+00   0.0000000000E+00   0.0000000000E+00   0.9494328116E-01  -0.5852449284E-03  -0.7973885089E-05   0.1057166480E-01  -0.2838174246E-04   0.7718496573E-04
   0.3128018641E+01  -0.8767293969E+00   0.9994274694E+00   0.9639050510E-02  -0.6874479203E-03  -0.5725306040E-03   0.0000000000E+00   0.0000000000E+00   0.0000000000E+00   0.9488619457E-01   0.2921422479E-04   0.6515326694E-05   0.6936796485E-02  -0.2134237040E-04   0.5158907837E-04
   0.3318883815E+01  -0.8795420694E+00   0.9994266972E+00   0.9819425469E-02  -0.6739664154E-03  -0.5733027803E-03   0.0000000000E+00   0.0000000000E+00   0.0000000000E+00   0.9485677468E-01   0.3624820057E-03  -0.6567284746E-05   0.3292276227E-02  -0.2406560108E-05   0.4471176304E-04
   0.3510000000E+01  -0.8813352416E+00   0.9994264129E+00   0.1000000000E-01  -0.6689855949E-03  -0.5735871165E-03   0.0000000000E+00   0.0000000000E+00   0.0000000000E+00   0.9485893815E-01   0.4773847226E-03   0.7584792477E-05   0.4293059813E-03  -0.2960119473E-04   0.3647327737E-04
   0.9515711315E+00  -0.1032702736E+01   0.9992895195E+00   0.6977105500E-02  -0.7945857851E-03  -0.7104805023E-03   0.0000000000E+00   0.0000000000E+00   0.0000000000E+00   0.1587294767E+00  -0.1026805203E-01  -0.9277723559E-03   0.3110402182E-01   0.2952472009E-02   0.2234865996E-03
   0.1159291634E+01  -0.1040615190E+01   0.9993488480E+00   0.7293713603E-02  -0.8661595713E-03  -0.6511519810E-03   0.0000000000E+00   0.0000000000E+00   0.0000000000E+00   0.1443329476E+00  -0.1720070848E-01   0.2362292223E-03   0.3635160329E-01   0.5884455373E-03   0.1201709744E-02
   0.1356927487E+01  -0.1046463400E+01   0.9993837447E+00   0.7581927082E-02  -0.8881398111E-03  -0.6162553486E-03   0.0000000000E+00   0.0000000000E+00   0.0000000000E+00   0.1343675008E+00  -0.2099749095E-01  -0.1054002029E-03   0.3737096471E-01   0.6931715434E-03   0.7409592873E-03
   0.1552152097E+01  -0.1052191271E+01   0.9994032347E+00   0.7848917145E-02  -0.8769209537E-03  -0.5967653209E-03   0.0000000000E+00   0.0000000000E+00   0.0000000000E+00   0.1254575976E+00  -0.1981602196E-01   0.6102291901E-04   0.3681425440E-01   0.2007847359E-03   0.7104451904E-03
   0.1747308738E+01  -0.1058070657E+01   0.9994141280E+00   0.8099447534E-02  -0.8438765547E-03  -0.5858720449E-03   0.0000000000E+00   0.0000000000E+00   0.0000000000E+00   0.1184056399E+00  -0.1764595731E-01  -0.5701475442E-05   0.3426429871E-01   0.1823379196E-03   0.4824874543E-03
   0.1942780171E+01  -0.1063973350E+01   0.9994198423E+00   0.8336460731E-02  -0.8000602322E-03  -0.5801577050E-03   0.0000000000E+00   0.0000000000E+00   0.0000000000E+00   0.1130738372E+00  -0.1477511624E-01   0.3047214256E-04   0.3059370499E-01   0.6623645874E-04   0.3917762945E-03
   0.2138444327E+01  -0.1069823572E+01   0.9994227901E+00   0.8562707375E-02  -0.7522819576E-03  -0.5772098579E-03   0.0000000000E+00   0.0000000000E+00   0.0000000000E+00   0.1090476773E+00  -0.1214012018E-01   0.1016079002E-05   0.2639012736E-01   0.5861304425E-04   0.2672818310E-03
   0.2334130802E+01  -0.1075614337E+01   0.9994240934E+00   0.8780521536E-02  -0.7058474849E-03  -0.5759066261E-03   0.0000000000E+00   0.0000000000E+00   0.0000000000E+00   0.1060824577E+00  -0.9731883909E-02   0.9096522349E-05   0.2205921472E-01   0.1563537563E-04   0.2103185695E-03
   0.2529845497E+01  -0.1081342869E+01   0.9994245455E+00   0.8991737110E-02  -0.6634486943E-03  -0.5754544763E-03   0.0000000000E+00   0.0000000000E+00   0.0000000000E+00   0.1038724212E+00  -0.7732180238E-02   0.1065349951E-04   0.1784904804E-01   0.1562347960E-04   0.1462451205E-03
   0.2725592593E+01  -0.1086939737E+01   0.9994245665E+00   0.9198172932E-02  -0.6272065569E-03  -0.5754335145E-03   0.0000000000E+00   0.0000000000E+00   0.0000000000E+00   0.1022360006E+00  -0.6115163182E-02  -0.2544227258E-05   0.1386003644E-01  -0.6914367101E-06   0.1110735135E-03
   0.2921406922E+01  -0.1092232657E+01   0.9994243823E+00   0.9401022293E-02  -0.5979065236E-03  -0.5756176526E-03   0.0000000000E+00   0.0000000000E+00   0.0000000000E+00   0.1010740501E+00  -0.4869137177E-02   0.9286842368E-05   0.1011340476E-01   0.9350220933E-06   0.7624276723E-04
   0.3117351087E+01  -0.1096898503E+01   0.9994241900E+00   0.9601626846E-02  -0.5764431484E-03  -0.5758099862E-03   0.0000000000E+00   0.0000000000E+00   0.0000000000E+00   0.1002814748E+00  -0.4005236846E-02  -0.5090989415E-05   0.6632584200E-02  -0.2126314373E-05   0.6167189326E-04
   0.3313513081E+01  -0.1100470785E+01   0.9994240258E+00   0.9800951072E-02  -0.5630251946E-03  -0.5759741630E-03   0.0000000000E+00   0.0000000000E+00   0.0000000000E+00   0.9984353302E-01  -0.3484774374E-02   0.5931844389E-05   0.3163703826E-02  -0.7278342318E-06   0.4619470394E-04
   0.3510000000E+01  -0.1102439108E+01   0.9994239683E+00   0.1000000000E-01  -0.5581978199E-03  -0.5760316728E-03   0.0000000000E+00   0.0000000000E+00   0.0000000000E+00   0.9969329024E-01  -0.3331365514E-02  -0.4898618043E-05   0.3606210082E-03  -0.1898147200E-05   0.4644447625E-04
   0.3309296070E+01  -0.1323138964E+01   0.9994212568E+00   0.9784160295E-02  -0.4377436501E-03  -0.5787431900E-03   0.0000000000E+00   0.0000000000E+00   0.0000000000E+00   0.1044412858E+00  -0.6924746236E-02  -0.8761718687E-05   0.2692237192E-02   0.3008790241E-05   0.4527773210E-04
   0.3510000000E+01  -0.1324969245E+01   0.9994213794E+00   0.1000000000E-01  -0.4333948307E-03  -0.5786205531E-03   0.0000000000E+00   0.0000000000E+00   0.0000000000E+00   0.1041698590E+00  -0.6695697217E-02   0.8261913909E-05   0.3222816985E-03   0.9954067528E-05   0.3903038893E-04
   0.3306328423E+01  -0.1547647344E+01   0.9994188335E+00   0.9770763343E-02  -0.2996836435E-03  -0.5811665108E-03   0.0000000000E+00   0.0000000000E+00   0.0000000000E+00   0.1081675056E+00  -0.9610118482E-02   0.7772729211E-05   0.1982134011E-02   0.3148934006E-05   0.3736524627E-04
   0.3510000000E+01  -0.1548985060E+01   0.9994191661E+00   0.1000000000E-01  -0.2965299056E-03  -0.5808338689E-03   0.0000000000E+00   0.0000000000E+00   0.0000000000E+00   0.1077614684E+00  -0.9361426207E-02  -0.8616789503E-05   0.2129562335E-03   0.3478843296E-04   0.3617832674E-04
   0.3304543579E+01  -0.1773481830E+01   0.9994172262E+00   0.9762129277E-02  -0.1523297523E-03  -0.5827737508E-03   0.0000000000E+00   0.0000000000E+00   0.0000000000E+00   0.1105651830E+00  -0.1134673259E-01  -0.9938599041E-05   0.9782322219E-03   0.6635067736E-05   0.4663703678E-05
   0.3510000000E+01  -0.1774160943E+01   0.9994176462E+00   0.1000000000E-01  -0.1506430908E-03  -0.5823538043E-03   0.0000000000E+00   0.0000000000E+00   0.0000000000E+00   0.1101054202E+00  -0.1104180441E-01   0.8462284990E-05   0.1190095571E-03   0.3520920906E-04   0.5455041951E-05
   0.3303420822E+01  -0.2000000000E+01   0.9994166351E+00   0.9758511874E-02   0.0000000000E+00  -0.5833649090E-03   0.0000000000E+00   0.0000000000E+00   0.0000000000E+00   0.1114102254E+00  -0.1192407916E-01   0.8490986846E-05   0.2020220114E-03   0.4834419269E-05   0.5403011139E-04
   0.3510000000E+01  -0.2000000000E+01   0.9994171351E+00   0.1000000000E-01   0.0000000000E+00  -0.5828648904E-03   0.0000000000E+00   0.0000000000E+00   0.0000000000E+00   0.1109001261E+00  -0.1163706938E-01  -0.9938093906E-05  -0.2400540209E-07   0.4911787051E-04   0.4190883425E-04
   0.3108942560E+01  -0.1319923966E+01   0.9994207654E+00   0.9567310276E-02  -0.4492661055E-03  -0.5792346208E-03   0.0000000000E+00   0.0000000000E+00   0.0000000000E+00   0.1053084943E+00  -0.7576273172E-02   0.7976036717E-05   0.5654231625E-02   0.1549685638E-04   0.5068069908E-04
   0.3102994495E+01  -0.1545305398E+01   0.9994178372E+00   0.9539894935E-02  -0.3081777284E-03  -0.5821627509E-03   0.0000000000E+00   0.0000000000E+00   0.0000000000E+00   0.1093542932E+00  -0.1040655623E-01  -0.9969665514E-05   0.4144494233E-02   0.2863101313E-04   0.4707756305E-04
   0.3099414737E+01  -0.1772288081E+01   0.9994158326E+00   0.9522107252E-02  -0.1567609022E-03  -0.5841674487E-03   0.0000000000E+00   0.0000000000E+00   0.0000000000E+00   0.1119959512E+00  -0.1219067212E-01   0.9302976482E-05   0.2055995862E-02   0.3857733986E-04   0.6954287919E-05
   0.3097150962E+01  -0.2000000000E+01   0.9994151481E+00   0.9514731630E-02   0.0000000000E+00  -0.5848518840E-03   0.0000000000E+00   0.0000000000E+00   0.0000000000E+00   0.1128983733E+00  -0.1282129692E-01  -0.1161379720E-04   0.3989621858E-03   0.4054118890E-04   0.5388028179E-04
   0.2908803383E+01  -0.1315777786E+01   0.9994198740E+00   0.9347833267E-02  -0.4677863092E-03  -0.5801260153E-03   0.0000000000E+00   0.0000000000E+00   0.0000000000E+00   0.1067738176E+00  -0.8693274772E-02  -0.9709499932E-05   0.8607846376E-02   0.2279254175E-04   0.7000607588E-04
   0.2899868775E+01  -0.1542283521E+01   0.9994159628E+00   0.9305045071E-02  -0.3216109956E-03  -0.5840372054E-03   0.0000000000E+00   0.0000000000E+00   0.0000000000E+00   0.1113966540E+00  -0.1166660077E-01   0.8278142868E-05   0.6306171743E-02   0.4536085022E-04   0.5927367976E-04
   0.2894493145E+01  -0.1770740078E+01   0.9994133595E+00   0.9277384543E-02  -0.1638379506E-03  -0.5866404867E-03   0.0000000000E+00   0.0000000000E+00   0.0000000000E+00   0.1143700372E+00  -0.1357873658E-01  -0.1014825418E-04   0.3111268339E-02   0.5709966049E-04   0.7462941872E-05
   0.2891074306E+01  -0.2000000000E+01   0.9994124042E+00   0.9265785718E-02   0.0000000000E+00  -0.5875958220E-03   0.0000000000E+00   0.0000000000E+00   0.0000000000E+00   0.1154266719E+00  -0.1421177741E-01   0.7400297909E-05   0.6428971004E-03   0.6313378820E-04   0.7954750664E-04
   0.2708786785E+01  -0.1311076241E+01   0.9994183338E+00   0.9123865421E-02  -0.4926513443E-03  -0.5816662196E-03   0.0000000000E+00   0.0000000000E+00   0.0000000000E+00   0.1089255415E+00  -0.1019938412E-01   0.7665621199E-05   0.1176254237E-01   0.4105727414E-04   0.8954289949E-04
   0.2696861879E+01  -0.1538845133E+01   0.9994130206E+00   0.9064098636E-02  -0.3397030522E-03  -0.5869793593E-03   0.0000000000E+00   0.0000000000E+00   0.0000000000E+00   0.1142859095E+00  -0.1337864638E-01  -0.1247119334E-04   0.8583938244E-02   0.6829678807E-04   0.8249650675E-04
   0.2689692644E+01  -0.1768969698E+01   0.9994094155E+00   0.9025243520E-02  -0.1732579112E-03  -0.5905844872E-03   0.0000000000E+00   0.0000000000E+00   0.0000000000E+00   0.1177610410E+00  -0.1535499798E-01   0.1228309113E-04   0.4227078217E-02   0.9169504069E-04   0.1166089988E-04
   0.2685109158E+01  -0.2000000000E+01   0.9994081510E+00   0.9009138305E-02   0.0000000000E+00  -0.5918490394E-03   0.0000000000E+00   0.0000000000E+00   0.0000000000E+00   0.1189625820E+00  -0.1604548019E-01  -0.1644972359E-04   0.8646751843E-03   0.9468965088E-04   0.9239346542E-04
   0.2508832728E+01  -0.1306079870E+01   0.9994159206E+00   0.8893768296E-02  -0.5233304381E-03  -0.5840794088E-03   0.0000000000E+00   0.0000000000E+00   0.0000000000E+00   0.1117948942E+00  -0.1209860930E-01  -0.1104779517E-04   0.1505080419E-01   0.5879420656E-04   0.1279457100E-03
   0.2493916081E+01  -0.1535173976E+01   0.9994085352E+00   0.8814620856E-02  -0.3616464763E-03  -0.5914648239E-03   0.0000000000E+00   0.0000000000E+00   0.0000000000E+00   0.1181192624E+00  -0.1537574569E-01   0.8393337579E-05   0.1092337192E-01   0.1052168656E-03   0.1086985494E-03
   0.2484956403E+01  -0.1767070695E+01   0.9994036276E+00   0.8763452741E-02  -0.1846951078E-03  -0.5963724321E-03   0.0000000000E+00   0.0000000000E+00   0.0000000000E+00   0.1221300373E+00  -0.1741619250E-01  -0.1009360071E-04   0.5327668325E-02   0.1292207530E-03   0.1469654605E-04
   0.2479201265E+01  -0.2000000000E+01   0.9994018177E+00   0.8742044531E-02   0.0000000000E+00  -0.5981822775E-03   0.0000000000E+00   0.0000000000E+00   0.0000000000E+00   0.1235609938E+00  -0.1807450361E-01   0.5874735770E-05   0.1173937013E-02   0.1416641811E-03   0.1356761344E-03
   0.2308907598E+01  -0.1300939645E+01   0.9994121264E+00   0.8655398078E-02  -0.5583446631E-03  -0.5878736003E-03   0.0000000000E+00   0.0000000000E+00   0.0000000000E+00   0.1155285645E+00  -0.1426123489E-01   0.5206814218E-05   0.1841350533E-01   0.9578089698E-04   0.1657503490E-03
   0.2290997774E+01  -0.1531382560E+01   0.9994020313E+00   0.8554724261E-02  -0.3864796543E-03  -0.5979687326E-03   0.0000000000E+00   0.0000000000E+00   0.0000000000E+00   0.1228831407E+00  -0.1753399708E-01  -0.1597860154E-04   0.1321895386E-01   0.1474318379E-03   0.1512436786E-03
   0.2280249032E+01  -0.1765101894E+01   0.9993952862E+00   0.8489522173E-02  -0.1973940742E-03  -0.6047138104E-03   0.0000000000E+00   0.0000000000E+00   0.0000000000E+00   0.1275154186E+00  -0.1943842712E-01   0.1846017620E-04   0.6395141358E-02   0.1883604859E-03   0.2133474378E-04
   0.2273317738E+01  -0.2000000000E+01   0.9993928632E+00   0.8462587973E-02   0.0000000000E+00  -0.6071367736E-03   0.0000000000E+00   0.0000000000E+00   0.0000000000E+00   0.1291163489E+00  -0.2007788484E-01  -0.2441906234E-04   0.1425694568E-02   0.1952224866E-03   0.1634855503E-03
   0.2108999180E+01  -0.1295729835E+01   0.9994063612E+00   0.8407039844E-02  -0.5958846399E-03  -0.5936387870E-03   0.0000000000E+00   0.0000000000E+00   0.0000000000E+00   0.1202093880E+00  -0.1658248716E-01  -0.1126580363E-04   0.2165207231E-01   0.1371079303E-03   0.2373740254E-03
   0.2088089149E+01  -0.1527529766E+01   0.9993926609E+00   0.8282108730E-02  -0.4121562259E-03  -0.6073390552E-03   0.0000000000E+00   0.0000000000E+00   0.0000000000E+00   0.1286524523E+00  -0.1950637632E-01   0.1025343524E-04   0.1530788629E-01   0.2134036100E-03   0.1915527911E-03
   0.2075551025E+01  -0.1763096654E+01   0.9993837203E+00   0.8202065019E-02  -0.2103635330E-03  -0.6162796802E-03   0.0000000000E+00   0.0000000000E+00   0.0000000000E+00   0.1337644848E+00  -0.2110043379E-01  -0.1159476185E-04   0.7265304774E-02   0.2540941338E-03   0.2976353440E-04
   0.2067438892E+01  -0.2000000000E+01   0.9993803877E+00   0.8168752246E-02   0.0000000000E+00  -0.6196122623E-03   0.0000000000E+00   0.0000000000E+00   0.0000000000E+00   0.1355639979E+00  -0.2155071653E-01   0.7788335377E-05   0.1787101954E-02   0.2747887867E-03   0.2266177086E-03
   0.1909106515E+01  -0.1290472617E+01   0.9993976030E+00   0.8146304599E-02  -0.6322772199E-03  -0.6023969852E-03   0.0000000000E+00   0.0000000000E+00   0.0000000000E+00   0.1260168739E+00  -0.1876136759E-01   0.6131158699E-05   0.2448129024E-01   0.2058268881E-03   0.2938466603E-03
   0.1885186684E+01  -0.1523640506E+01   0.9993795408E+00   0.7995613525E-02  -0.4360564944E-03  -0.6204592099E-03   0.0000000000E+00   0.0000000000E+00   0.0000000000E+00   0.1353200687E+00  -0.2092833308E-01  -0.2629931655E-04   0.1687430021E-01   0.2929802268E-03   0.2587699321E-03
   0.1870853926E+01  -0.1761069872E+01   0.9993678832E+00   0.7899665874E-02  -0.2218217846E-03  -0.6321167619E-03   0.0000000000E+00   0.0000000000E+00   0.0000000000E+00   0.1407509912E+00  -0.2176926470E-01   0.3187858464E-04   0.7840701290E-02   0.3505282319E-03   0.3981998728E-04
   0.1861556552E+01  -0.2000000000E+01   0.9993636417E+00   0.7860321533E-02   0.0000000000E+00  -0.6363583414E-03   0.0000000000E+00   0.0000000000E+00   0.0000000000E+00   0.1425636529E+00  -0.2198527047E-01  -0.3695073978E-04   0.2015576253E-02   0.3607654287E-03   0.2586898127E-03
   0.1709306243E+01  -0.1285232643E+01   0.9993844968E+00   0.7871632698E-02  -0.6629028196E-03  -0.6155031799E-03   0.0000000000E+00   0.0000000000E+00   0.0000000000E+00   0.1330202653E+00  -0.2040562075E-01  -0.3273356757E-04   0.2641436421E-01   0.3031717258E-03   0.4079721646E-03
   0.1682329317E+01  -0.1519805367E+01   0.9993612682E+00   0.7693906579E-02  -0.4536468575E-03  -0.6387317849E-03   0.0000000000E+00   0.0000000000E+00   0.0000000000E+00   0.1428315769E+00  -0.2107629506E-01   0.2554963675E-04   0.1756598740E-01   0.4050364199E-03   0.3054908650E-03
   0.1666182431E+01  -0.1759108019E+01   0.9993469639E+00   0.7583171069E-02  -0.2295491381E-03  -0.6530360651E-03   0.0000000000E+00   0.0000000000E+00   0.0000000000E+00   0.1480274857E+00  -0.2081492971E-01  -0.2345551676E-04   0.7834961398E-02   0.4492293025E-03   0.5354520469E-04
   0.1655667523E+01  -0.2000000000E+01   0.9993415670E+00   0.7537462679E-02   0.0000000000E+00  -0.6584330026E-03   0.0000000000E+00   0.0000000000E+00   0.0000000000E+00   0.1497718921E+00  -0.2050913541E-01   0.2332819419E-04   0.2344855637E-02   0.4822813548E-03   0.3310588588E-03
   0.1509643285E+01  -0.1280306239E+01   0.9993647748E+00   0.7580845044E-02  -0.6798688969E-03  -0.6352252140E-03   0.0000000000E+00   0.0000000000E+00   0.0000000000E+00   0.1413374415E+00  -0.2064568441E-01   0.1441609213E-04   0.2691225225E-01   0.4548179407E-03   0.4723690214E-03
   0.1479556229E+01  -0.1516420379E+01   0.9993365409E+00   0.7377768559E-02  -0.4596894223E-03  -0.6634590958E-03   0.0000000000E+00   0.0000000000E+00   0.0000000000E+00   0.1507688334E+00  -0.1925963800E-01  -0.5604695181E-04   0.1692675491E-01   0.5451271606E-03   0.3719377300E-03
   0.1461597567E+01  -0.1757473341E+01   0.9993198497E+00   0.7253887149E-02  -0.2301813724E-03  -0.6801503121E-03   0.0000000000E+00   0.0000000000E+00   0.0000000000E+00   0.1551823041E+00  -0.1725904125E-01   0.4798066912E-04   0.7124861360E-02   0.5975642428E-03   0.6833913123E-04
   0.1449853058E+01  -0.2000000000E+01   0.9993138244E+00   0.7203807762E-02   0.0000000000E+00  -0.6861756193E-03   0.0000000000E+00   0.0000000000E+00   0.0000000000E+00   0.1564260502E+00  -0.1640470489E-01  -0.4402264054E-04   0.2378006159E-02   0.5781743056E-03   0.3064827526E-03
   0.1309643364E+01  -0.1276372562E+01   0.9993356129E+00   0.7272574117E-02  -0.6749719916E-03  -0.6643871203E-03   0.0000000000E+00   0.0000000000E+00   0.0000000000E+00   0.1506592019E+00  -0.1850315362E-01  -0.8975453445E-04   0.2549351551E-01   0.6817588183E-03   0.6131693233E-03
   0.1276603067E+01  -0.1514230825E+01   0.9993032891E+00   0.7047497498E-02  -0.4468954417E-03  -0.6967108845E-03   0.0000000000E+00   0.0000000000E+00   0.0000000000E+00   0.1588356202E+00  -0.1425005892E-01   0.3966098876E-04   0.1462038209E-01   0.7781976772E-03   0.3580144075E-03
   0.1257013452E+01  -0.1756590307E+01   0.9992864308E+00   0.6916652101E-02  -0.2207173202E-03  -0.7135692089E-03   0.0000000000E+00   0.0000000000E+00   0.0000000000E+00   0.1613649672E+00  -0.1038729808E-01  -0.2294798454E-04   0.5524956093E-02   0.6840063883E-03   0.5762095462E-04
   0.1244191629E+01  -0.2000000000E+01   0.9992802128E+00   0.6863459074E-02   0.0000000000E+00  -0.7197871945E-03   0.0000000000E+00   0.0000000000E+00   0.0000000000E+00   0.1619914447E+00  -0.8797234769E-02   0.3516902700E-04   0.2512845053E-02   0.7092222068E-03   0.2968913458E-03
   0.1107374447E+01  -0.1274249798E+01   0.9992922256E+00   0.6943007396E-02  -0.6369384025E-03  -0.7077744375E-03   0.0000000000E+00   0.0000000000E+00   0.0000000000E+00   0.1609536477E+00  -0.1224367437E-01  -0.6395660297E-04   0.2175998985E-01   0.1210916877E-02   0.5300921912E-03
   0.1072442987E+01  -0.1514155512E+01   0.9992606275E+00   0.6706457486E-02  -0.4104419438E-03  -0.7393724809E-03   0.0000000000E+00   0.0000000000E+00   0.0000000000E+00   0.1659807906E+00  -0.5120467608E-02  -0.1858847294E-04   0.1093505288E-01   0.9534629954E-03   0.2700147892E-03
   0.1051946481E+01  -0.1756954846E+01   0.9992469901E+00   0.6575540945E-02  -0.1987757888E-03  -0.7530099290E-03   0.0000000000E+00   0.0000000000E+00   0.0000000000E+00   0.1660947240E+00   0.2961306093E-03   0.5955368756E-05   0.3346175672E-02   0.8483999068E-03   0.2664361527E-05
   0.1038455579E+01  -0.2000000000E+01   0.9992422229E+00   0.6524059006E-02   0.0000000000E+00  -0.7577770814E-03   0.0000000000E+00   0.0000000000E+00   0.0000000000E+00   0.1657157284E+00   0.2442656528E-02  -0.1335661979E-04   0.2160771243E-02   0.6922916352E-03   0.1278173943E-03
   0.8986433857E+00  -0.1275103619E+01   0.9992301459E+00   0.6589066734E-02  -0.5603288546E-03  -0.7698541314E-03   0.0000000000E+00   0.0000000000E+00   0.0000000000E+00   0.1710271759E+00   0.1075487090E-02   0.2730659156E-03   0.1806100397E-01   0.1565021759E-02   0.5980386208E-03
   0.8653078642E+00  -0.1517413733E+01   0.9992089859E+00   0.6356176197E-02  -0.3485628781E-03  -0.7910140740E-03   0.0000000000E+00   0.0000000000E+00   0.0000000000E+00   0.1721856096E+00   0.8175757920E-02  -0.3082227861E-04   0.6176065803E-02   0.1230999973E-02  -0.2061426405E-03
   0.8457063909E+00  -0.1759143790E+01   0.9992038500E+00   0.6238268941E-02  -0.1654200593E-03  -0.7961500278E-03   0.0000000000E+00   0.0000000000E+00   0.0000000000E+00   0.1688573249E+00   0.1477160036E-01   0.7548248974E-04   0.1104365101E-02   0.7220153551E-03  -0.2098180750E-04
   0.8319598466E+00  -0.2000000000E+01   0.9992020075E+00   0.6190124606E-02   0.0000000000E+00  -0.7979924731E-03   0.0000000000E+00   0.0000000000E+00   0.0000000000E+00   0.1675919936E+00   0.1654188373E-01  -0.7899839995E-04   0.2034179157E-02   0.7754927503E-03  -0.1353038740E-03
  -0.6207973070E+00  -0.1083782481E+01   0.9991198851E+00   0.3649800007E-02  -0.5625911576E-03  -0.8801148977E-03   0.0000000000E+00   0.0000000000E+00   0.0000000000E+00   0.1844782994E+00   0.2292006246E-01   0.1937431716E-02  -0.3604104518E-01  -0.3468377528E-02  -0.9891365375E-03
  -0.4847937640E+00  -0.8733868926E+00   0.9990697766E+00   0.3382015971E-02  -0.6415575947E-03  -0.9302233681E-03   0.0000000000E+00   0.0000000000E+00   0.0000000000E+00   0.2065426813E+00   0.4167402343E-01   0.7647123199E-03  -0.9060918272E-01  -0.7607833620E-02   0.5425928972E-02
  -0.6117362257E+00  -0.1336689654E+01   0.9991333778E+00   0.3941369336E-02  -0.3773641135E-03  -0.8666221613E-03   0.0000000000E+00   0.0000000000E+00   0.0000000000E+00   0.1828470578E+00   0.2184725387E-01  -0.1188687543E-02  -0.7669977199E-02  -0.1524039150E-02  -0.1384884292E-02
  -0.6097290768E+00  -0.1562912133E+01   0.9991463226E+00   0.4066442151E-02  -0.2323628054E-03  -0.8536774384E-03   0.0000000000E+00   0.0000000000E+00   0.0000000000E+00   0.1756253500E+00   0.2996387025E-01   0.6500231857E-03  -0.1521807113E-02  -0.9579560208E-03  -0.1164715969E-03
  -0.6173161994E+00  -0.1782167204E+01   0.9991601629E+00   0.4109905570E-02  -0.1132535108E-03  -0.8398371389E-03   0.0000000000E+00   0.0000000000E+00   0.0000000000E+00   0.1690600614E+00   0.3124394292E-01  -0.4194424634E-03   0.8295492416E-03  -0.7481819491E-03  -0.3866991250E-03
  -0.6248458932E+00  -0.2000000000E+01   0.9991646290E+00   0.4115550772E-02   0.0000000000E+00  -0.8353709897E-03   0.0000000000E+00   0.0000000000E+00   0.0000000000E+00   0.1679976214E+00   0.3254213956E-01   0.2305976231E-03  -0.1559248307E-02  -0.6338923400E-03  -0.5655037542E-04
  -0.8242814975E+00  -0.1781434934E+01   0.9992015136E+00   0.3785149452E-02  -0.1475042057E-03  -0.7984864242E-03   0.0000000000E+00   0.0000000000E+00   0.0000000000E+00   0.1687475833E+00   0.1598144448E-01   0.1229249191E-03  -0.8223211483E-03  -0.7164924171E-03  -0.8278635552E-05
  -0.8280164692E+00  -0.2000000000E+01   0.9992033065E+00   0.3800203797E-02   0.0000000000E+00  -0.7966934817E-03   0.0000000000E+00   0.0000000000E+00   0.0000000000E+00   0.1673920900E+00   0.1670339386E-01  -0.1315519966E-03  -0.1760883434E-02  -0.7621864766E-03  -0.1636170025E-03
  -0.1030705606E+01  -0.1781975985E+01   0.9992442704E+00   0.3449043502E-02  -0.1764346039E-03  -0.7557296158E-03   0.0000000000E+00   0.0000000000E+00   0.0000000000E+00   0.1661731225E+00   0.1323243826E-02  -0.1801949673E-04  -0.2751727009E-02  -0.8327132622E-03  -0.6131868601E-05
  -0.1031849055E+01  -0.2000000000E+01   0.9992428430E+00   0.3470864840E-02   0.0000000000E+00  -0.7571570467E-03   0.0000000000E+00   0.0000000000E+00   0.0000000000E+00   0.1656448605E+00   0.2704176110E-02   0.2744845682E-04  -0.2008784465E-02  -0.6884681535E-03   0.1274523288E-03
  -0.1236579786E+01  -0.1783166093E+01   0.9992836935E+00   0.3107654189E-02  -0.1955434901E-03  -0.7163064860E-03   0.0000000000E+00   0.0000000000E+00   0.0000000000E+00   0.1617194252E+00  -0.9676191539E-02   0.5617905143E-05  -0.4762735169E-02  -0.6867258673E-03   0.5843124571E-04
  -0.1236371011E+01  -0.2000000000E+01   0.9992805780E+00   0.3133209192E-02   0.0000000000E+00  -0.7194220077E-03   0.0000000000E+00   0.0000000000E+00   0.0000000000E+00   0.1619123405E+00  -0.8658084467E-02   0.9166606079E-05  -0.2223508310E-02  -0.7056806119E-03   0.2575884173E-03
  -0.1442214591E+01  -0.1784595262E+01   0.9993174716E+00   0.2768299469E-02  -0.2041020618E-03  -0.6825284260E-03   0.0000000000E+00   0.0000000000E+00   0.0000000000E+00   0.1556791303E+00  -0.1688421393E-01   0.2521942101E-04  -0.6216763542E-02  -0.6011571174E-03   0.6638284388E-04
  -0.1441422921E+01  -0.2000000000E+01   0.9993139100E+00   0.2794169390E-02   0.0000000000E+00  -0.6860900173E-03   0.0000000000E+00   0.0000000000E+00   0.0000000000E+00   0.1563949090E+00  -0.1629699715E-01  -0.1318173520E-04  -0.2176211162E-02  -0.5718589708E-03   0.2903107709E-03
  -0.1647824727E+01  -0.1786107248E+01   0.9993449452E+00   0.2436673411E-02  -0.2039179980E-03  -0.6550548247E-03   0.0000000000E+00   0.0000000000E+00   0.0000000000E+00   0.1486182818E+00  -0.2066240451E-01  -0.6874964504E-05  -0.6924188526E-02  -0.4522988400E-03   0.5543906325E-04
  -0.1646834567E+01  -0.2000000000E+01   0.9993415297E+00   0.2461122974E-02   0.0000000000E+00  -0.6584702824E-03   0.0000000000E+00   0.0000000000E+00   0.0000000000E+00   0.1497347491E+00  -0.2048138256E-01   0.1119328899E-04  -0.2072368836E-02  -0.4804060622E-03   0.2964848350E-03
  -0.1853485329E+01  -0.1787654538E+01   0.9993663288E+00   0.2117291139E-02  -0.1975476456E-03  -0.6336712387E-03   0.0000000000E+00   0.0000000000E+00   0.0000000000E+00   0.1413128800E+00  -0.2181375546E-01   0.2388600212E-05  -0.6953738298E-02  -0.3581745420E-03   0.3281221778E-04
  -0.1852468048E+01  -0.2000000000E+01   0.9993634457E+00   0.2138942020E-02   0.0000000000E+00  -0.6365543021E-03   0.0000000000E+00   0.0000000000E+00   0.0000000000E+00   0.1425818073E+00  -0.2195897595E-01  -0.3029675483E-05  -0.1832305878E-02  -0.3563874744E-03   0.2547158447E-03
  -0.2059198444E+01  -0.1789219656E+01   0.9993825078E+00   0.1812155709E-02  -0.1876757574E-03  -0.6174922328E-03   0.0000000000E+00   0.0000000000E+00   0.0000000000E+00   0.1343165562E+00  -0.2122372575E-01  -0.3855262327E-05  -0.6483891455E-02  -0.2558695582E-03   0.2922046265E-04
  -0.2058225756E+01  -0.2000000000E+01   0.9993801893E+00   0.1830693523E-02   0.0000000000E+00  -0.6198106578E-03   0.0000000000E+00   0.0000000000E+00   0.0000000000E+00   0.1355760805E+00  -0.2157784511E-01   0.3981605567E-05  -0.1592055327E-02  -0.2790009759E-03   0.2084221093E-03
  -0.2264945461E+01  -0.1790793826E+01   0.9993944162E+00   0.1521869168E-02  -0.1763557450E-03  -0.6055838377E-03   0.0000000000E+00   0.0000000000E+00   0.0000000000E+00   0.1279887426E+00  -0.1962686448E-01   0.4727361608E-05  -0.5724715532E-02  -0.1961038645E-03   0.2085007848E-04
  -0.2264046226E+01  -0.2000000000E+01   0.9993926417E+00   0.1537054039E-02   0.0000000000E+00  -0.6073582595E-03   0.0000000000E+00   0.0000000000E+00   0.0000000000E+00   0.1291589308E+00  -0.2010294723E-01  -0.6222621975E-05  -0.1294548380E-02  -0.1941553837E-03   0.1595042486E-03
  -0.2470711779E+01  -0.1792367840E+01   0.9994029842E+00   0.1245430690E-02  -0.1651296398E-03  -0.5970157538E-03   0.0000000000E+00   0.0000000000E+00   0.0000000000E+00   0.1225386958E+00  -0.1760183674E-01  -0.6926524466E-05  -0.4789239864E-02  -0.1303215046E-03   0.1571519888E-04
  -0.2469896645E+01  -0.2000000000E+01   0.9994016383E+00   0.1257565098E-02   0.0000000000E+00  -0.5983617308E-03   0.0000000000E+00   0.0000000000E+00   0.0000000000E+00   0.1236005127E+00  -0.1812075846E-01   0.4369093855E-05  -0.1046175421E-02  -0.1459300823E-03   0.1259818139E-03
  -0.2676500385E+01  -0.1793908020E+01   0.9994089620E+00   0.9812652671E-03  -0.1549897951E-03  -0.5910379871E-03   0.0000000000E+00   0.0000000000E+00   0.0000000000E+00   0.1180904311E+00  -0.1554627369E-01   0.3396922532E-05  -0.3800569278E-02  -0.9522889661E-04   0.1024674106E-04
  -0.2675773264E+01  -0.2000000000E+01   0.9994079821E+00   0.9905061193E-03   0.0000000000E+00  -0.5920179327E-03   0.0000000000E+00   0.0000000000E+00   0.0000000000E+00   0.1190154662E+00  -0.1607780921E-01  -0.5967846234E-05  -0.7859026817E-03  -0.9479028843E-04   0.9019945635E-04
  -0.2882337213E+01  -0.1795328613E+01   0.9994130135E+00   0.7270573599E-03  -0.1466231174E-03  -0.5869865295E-03   0.0000000000E+00   0.0000000000E+00   0.0000000000E+00   0.1146527630E+00  -0.1374428205E-01  -0.5381317183E-05  -0.2804246889E-02  -0.5760585884E-04   0.8377922511E-05
  -0.2881707737E+01  -0.2000000000E+01   0.9994122720E+00   0.7337828679E-03   0.0000000000E+00  -0.5877279661E-03   0.0000000000E+00   0.0000000000E+00   0.0000000000E+00   0.1154709960E+00  -0.1425404731E-01   0.3294163753E-05  -0.5716395715E-03  -0.6532256209E-04   0.7142626014E-04
  -0.3088244179E+01  -0.1796500306E+01   0.9994155772E+00   0.4804307848E-03  -0.1404063263E-03  -0.5844227775E-03   0.0000000000E+00   0.0000000000E+00   0.0000000000E+00   0.1122292242E+00  -0.1235395162E-01   0.2762143246E-05  -0.1852046995E-02  -0.4032878839E-04   0.5633699244E-05
  -0.3087744124E+01  -0.2000000000E+01   0.9994150191E+00   0.4848162081E-03   0.0000000000E+00  -0.5849809437E-03   0.0000000000E+00   0.0000000000E+00   0.0000000000E+00   0.1129534055E+00  -0.1284972346E-01  -0.4579475001E-05  -0.3624157222E-03  -0.4045909634E-04   0.5241262436E-04
  -0.3294181377E+01  -0.1797308173E+01   0.9994170002E+00   0.2388634080E-03  -0.1365834713E-03  -0.5829998259E-03   0.0000000000E+00   0.0000000000E+00   0.0000000000E+00   0.1107844066E+00  -0.1148981785E-01  -0.4300139117E-05  -0.8836884391E-03  -0.5619151798E-05   0.5393043538E-05
  -0.3293877098E+01  -0.2000000000E+01   0.9994165281E+00   0.2410724498E-03   0.0000000000E+00  -0.5834719313E-03   0.0000000000E+00   0.0000000000E+00   0.0000000000E+00   0.1114588921E+00  -0.1196365611E-01   0.2977153745E-05  -0.1794144751E-03  -0.6400489241E-05   0.4676618817E-04
  -0.3500000000E+01  -0.1797703536E+01   0.9994174455E+00   0.0000000000E+00  -0.1352162589E-03  -0.5825544528E-03   0.0000000000E+00   0.0000000000E+00   0.0000000000E+00   0.1103089558E+00  -0.1119306214E-01   0.2575202612E-05  -0.1045096027E-03  -0.3974255868E-04   0.4195133184E-05
  -0.3500000000E+01  -0.2000000000E+01   0.9994170172E+00   0.0000000000E+00   0.0000000000E+00  -0.5829827995E-03   0.0000000000E+00   0.0000000000E+00   0.0000000000E+00   0.1109591925E+00  -0.1166603505E-01  -0.3857137508E-05   0.6303767497E-08  -0.4575420249E-04   0.4082344550E-04
  -0.8246059450E+00  -0.1563489106E+01   0.9992007833E+00   0.3716823042E-02  -0.3029360700E-03  -0.7992166827E-03   0.0000000000E+00   0.0000000000E+00   0.0000000000E+00   0.1718614042E+00   0.1167815843E-01  -0.1750480279E-03  -0.4298799336E-02  -0.1148694777E-02  -0.3029713844E-03
  -0.1035719678E+01  -0.1566592646E+01   0.9992516959E+00   0.3365832302E-02  -0.3580558353E-03  -0.7483041284E-03   0.0000000000E+00   0.0000000000E+00   0.0000000000E+00   0.1668273359E+00  -0.2427179795E-02   0.4020335570E-04  -0.8608968891E-02  -0.9227571137E-03   0.1979464536E-03
  -0.1243137857E+01  -0.1569894614E+01   0.9992948905E+00   0.3020503491E-02  -0.3919041803E-03  -0.7051095053E-03   0.0000000000E+00   0.0000000000E+00   0.0000000000E+00   0.1602973911E+00  -0.1258176756E-01  -0.1638666647E-04  -0.1215712119E-01  -0.7867641159E-03   0.2824940596E-03
  -0.1449293953E+01  -0.1573034360E+01   0.9993292738E+00   0.2683297225E-02  -0.4052698586E-03  -0.6707261847E-03   0.0000000000E+00   0.0000000000E+00   0.0000000000E+00   0.1527022237E+00  -0.1846379945E-01  -0.3871987952E-04  -0.1449975967E-01  -0.5557860048E-03   0.3019453533E-03
  -0.1654242408E+01  -0.1575737144E+01   0.9993554484E+00   0.2359502011E-02  -0.4023542266E-03  -0.6445516155E-03   0.0000000000E+00   0.0000000000E+00   0.0000000000E+00   0.1448886757E+00  -0.2099757210E-01  -0.3214061597E-05  -0.1534043128E-01  -0.4290735034E-03   0.2504387192E-03
  -0.1859701043E+01  -0.1578637240E+01   0.9993750654E+00   0.2049206575E-02  -0.3882602981E-03  -0.6249345712E-03   0.0000000000E+00   0.0000000000E+00   0.0000000000E+00   0.1373679439E+00  -0.2125366427E-01   0.4416732499E-05  -0.1495288841E-01  -0.3100835978E-03   0.2264651290E-03
  -0.2064915941E+01  -0.1581436264E+01   0.9993894122E+00   0.1754478503E-02  -0.3681036846E-03  -0.6105878478E-03   0.0000000000E+00   0.0000000000E+00   0.0000000000E+00   0.1304629781E+00  -0.2008527072E-01   0.2217232062E-05  -0.1370593165E-01  -0.2379793296E-03   0.1721096811E-03
  -0.2269982172E+01  -0.1584173164E+01   0.9993996830E+00   0.1474548403E-02  -0.3457835166E-03  -0.6003169882E-03   0.0000000000E+00   0.0000000000E+00   0.0000000000E+00   0.1244395056E+00  -0.1817916043E-01  -0.7563474325E-05  -0.1191743130E-01  -0.1568281606E-03   0.1353459484E-03
  -0.2474994703E+01  -0.1586868722E+01   0.9994068755E+00   0.1208027282E-02  -0.3239718607E-03  -0.5931244814E-03   0.0000000000E+00   0.0000000000E+00   0.0000000000E+00   0.1194088410E+00  -0.1603585615E-01   0.4577781607E-05  -0.9884330618E-02  -0.1164287334E-03   0.9616400767E-04
  -0.2680004317E+01  -0.1589472617E+01   0.9994118358E+00   0.9527633689E-03  -0.3045469772E-03  -0.5881641943E-03   0.0000000000E+00   0.0000000000E+00   0.0000000000E+00   0.1153593955E+00  -0.1398899620E-01  -0.5012521918E-05  -0.7794083531E-02  -0.7411188506E-04   0.7574410259E-04
  -0.2885044163E+01  -0.1591848937E+01   0.9994151261E+00   0.7066068956E-03  -0.2885769384E-03  -0.5848738993E-03   0.0000000000E+00   0.0000000000E+00   0.0000000000E+00   0.1122777087E+00  -0.1223382373E-01   0.3400570881E-05  -0.5736417518E-02  -0.5069905319E-04   0.5316564818E-04
  -0.3090121372E+01  -0.1593805911E+01   0.9994172039E+00   0.4671979654E-03  -0.2768010493E-03  -0.5827960963E-03   0.0000000000E+00   0.0000000000E+00   0.0000000000E+00   0.1101113056E+00  -0.1091337771E-01  -0.3692692087E-05  -0.3776443080E-02  -0.3086515024E-04   0.4430459073E-04
  -0.3295169932E+01  -0.1595172060E+01   0.9994183315E+00   0.2323584434E-03  -0.2695399205E-03  -0.5816685175E-03   0.0000000000E+00   0.0000000000E+00   0.0000000000E+00   0.1088354719E+00  -0.1009285349E-01   0.2738239664E-05  -0.1805747204E-02  -0.4893549118E-05   0.3423643676E-04
  -0.3500000000E+01  -0.1595819566E+01   0.9994186931E+00   0.0000000000E+00  -0.2670059619E-03  -0.5813069410E-03   0.0000000000E+00   0.0000000000E+00   0.0000000000E+00   0.1084109188E+00  -0.9819603899E-02  -0.2815407912E-05  -0.1976518555E-03  -0.3447729593E-04   0.3477722611E-04
  -0.8379245121E+00  -0.1345116702E+01   0.9992084899E+00   0.3559855879E-02  -0.4778823821E-03  -0.7915100607E-03   0.0000000000E+00   0.0000000000E+00   0.0000000000E+00   0.1738834514E+00   0.6618269252E-02   0.5361343676E-03  -0.1320832825E-01  -0.1485312163E-02   0.3908435605E-03
  -0.1052765546E+01  -0.1354492549E+01   0.9992713279E+00   0.3201783768E-02  -0.5503889711E-03  -0.7286721360E-03   0.0000000000E+00   0.0000000000E+00   0.0000000000E+00   0.1649191605E+00  -0.8374366759E-02  -0.1381380599E-03  -0.1680118668E-01  -0.1244340193E-02   0.3996455446E-03
  -0.1262452205E+01  -0.1361680301E+01   0.9993174495E+00   0.2858085025E-02  -0.5896413530E-03  -0.6825504820E-03   0.0000000000E+00   0.0000000000E+00   0.0000000000E+00   0.1555841974E+00  -0.1639199105E-01   0.8373605555E-05  -0.2092179457E-01  -0.7177448188E-03   0.5335929273E-03
  -0.1465629578E+01  -0.1366002778E+01   0.9993499638E+00   0.2536062332E-02  -0.6007980917E-03  -0.6500361706E-03   0.0000000000E+00   0.0000000000E+00   0.0000000000E+00   0.1464914691E+00  -0.2016463206E-01   0.1563724292E-04  -0.2305621071E-01  -0.5342141289E-03   0.4531307884E-03
  -0.1668693553E+01  -0.1369554790E+01   0.9993730948E+00   0.2229087432E-02  -0.5910698082E-03  -0.6269052099E-03   0.0000000000E+00   0.0000000000E+00   0.0000000000E+00   0.1379677222E+00  -0.2089999034E-01   0.1012289735E-04  -0.2337542195E-01  -0.3576639707E-03   0.4092275376E-03
  -0.1873331435E+01  -0.1373513215E+01   0.9993893407E+00   0.1936185170E-02  -0.5668347465E-03  -0.6106592695E-03   0.0000000000E+00   0.0000000000E+00   0.0000000000E+00   0.1303720188E+00  -0.1988858513E-01  -0.1411475377E-04  -0.2204711517E-01  -0.2614897214E-03   0.3018298577E-03
  -0.2078489648E+01  -0.1377614004E+01   0.9994004389E+00   0.1658091750E-02  -0.5352344305E-03  -0.5995610859E-03   0.0000000000E+00   0.0000000000E+00   0.0000000000E+00   0.1239430790E+00  -0.1793836938E-01  -0.4242524186E-05  -0.1971495523E-01  -0.1617922856E-03   0.2351564987E-03
  -0.2282006514E+01  -0.1381038989E+01   0.9994079073E+00   0.1395925806E-02  -0.5024289946E-03  -0.5920926970E-03   0.0000000000E+00   0.0000000000E+00   0.0000000000E+00   0.1186367712E+00  -0.1568394438E-01   0.4980615224E-05  -0.1689451916E-01  -0.1218218971E-03   0.1635137994E-03
  -0.2485091630E+01  -0.1384247374E+01   0.9994129447E+00   0.1145899919E-02  -0.4714238737E-03  -0.5870553121E-03   0.0000000000E+00   0.0000000000E+00   0.0000000000E+00   0.1143645078E+00  -0.1345876861E-01  -0.5526080122E-05  -0.1390094765E-01  -0.7631196944E-04   0.1298803748E-03
  -0.2688078772E+01  -0.1387287343E+01   0.9994162527E+00   0.9056175977E-03  -0.4441434216E-03  -0.5837473126E-03   0.0000000000E+00   0.0000000000E+00   0.0000000000E+00   0.1110234943E+00  -0.1145783486E-01   0.2274893137E-05  -0.1090711114E-01  -0.5357353633E-04   0.8809677192E-04
  -0.2891072277E+01  -0.1390044209E+01   0.9994183836E+00   0.6728130605E-03  -0.4219994738E-03  -0.5816164011E-03   0.0000000000E+00   0.0000000000E+00   0.0000000000E+00   0.1085185303E+00  -0.9822186601E-02  -0.4044791292E-05  -0.8005389840E-02  -0.3034201671E-04   0.7039493117E-04
  -0.3094101528E+01  -0.1392330190E+01   0.9994196733E+00   0.4455023323E-03  -0.4056898222E-03  -0.5803267088E-03   0.0000000000E+00   0.0000000000E+00   0.0000000000E+00   0.1067859009E+00  -0.8612133463E-02   0.1766450570E-05  -0.5266270859E-02  -0.2119103720E-04   0.4889551347E-04
  -0.3297131009E+01  -0.1393960164E+01   0.9994203688E+00   0.2217810416E-03  -0.3957035037E-03  -0.5796312141E-03   0.0000000000E+00   0.0000000000E+00   0.0000000000E+00   0.1057667497E+00  -0.7878587859E-02  -0.3698427671E-05  -0.2512643322E-02  -0.2898803412E-05   0.4456859915E-04
  -0.3500000000E+01  -0.1394737491E+01   0.9994205785E+00   0.0000000000E+00  -0.3922113396E-03  -0.5794215131E-03   0.0000000000E+00   0.0000000000E+00   0.0000000000E+00   0.1054339355E+00  -0.7631877918E-02   0.1639685897E-05  -0.2898046545E-03  -0.1918313510E-04   0.3730706255E-04
  -0.8666100380E+00  -0.1126996057E+01   0.9992421649E+00   0.3280473001E-02  -0.6749769336E-03  -0.7578351023E-03   0.0000000000E+00   0.0000000000E+00   0.0000000000E+00   0.1687570808E+00  -0.3893978950E-02  -0.1372639907E-02  -0.2278275783E-01  -0.3176143467E-02  -0.1482553743E-03
  -0.1081940514E+01  -0.1146971384E+01   0.9993087170E+00   0.2947466254E-02  -0.7498640569E-03  -0.6912829908E-03   0.0000000000E+00   0.0000000000E+00   0.0000000000E+00   0.1555943210E+00  -0.1337951502E-01   0.3210251456E-03  -0.2889581254E-01  -0.6435750255E-03   0.9450207884E-03
  -0.1292433587E+01  -0.1158151253E+01   0.9993531930E+00   0.2624662901E-02  -0.7837830398E-03  -0.6468070107E-03   0.0000000000E+00   0.0000000000E+00   0.0000000000E+00   0.1450489187E+00  -0.1995914541E-01  -0.1964457200E-03  -0.3088788827E-01  -0.9449478234E-03   0.5833769641E-03
  -0.1486772357E+01  -0.1161914244E+01   0.9993798512E+00   0.2336203017E-02  -0.7869144065E-03  -0.6201488289E-03   0.0000000000E+00   0.0000000000E+00   0.0000000000E+00   0.1354727524E+00  -0.2061305477E-01   0.3387978544E-04  -0.3213251406E-01  -0.2956974471E-03   0.6344482842E-03
  -0.1685172146E+01  -0.1164728028E+01   0.9993973161E+00   0.2058083808E-02  -0.7670981464E-03  -0.6026838725E-03   0.0000000000E+00   0.0000000000E+00   0.0000000000E+00   0.1271210894E+00  -0.1958896347E-01  -0.3421353259E-04  -0.3097182609E-01  -0.2974960912E-03   0.4236114508E-03
  -0.1891013634E+01  -0.1170373332E+01   0.9994079800E+00   0.1788965732E-02  -0.7294524293E-03  -0.5920200298E-03   0.0000000000E+00   0.0000000000E+00   0.0000000000E+00   0.1203375529E+00  -0.1718141005E-01   0.1548011411E-04  -0.2829323452E-01  -0.1289023160E-03   0.3532664414E-03
  -0.2097995314E+01  -0.1176440090E+01   0.9994144175E+00   0.1532996160E-02  -0.6850695488E-03  -0.5855824984E-03   0.0000000000E+00   0.0000000000E+00   0.0000000000E+00   0.1149900231E+00  -0.1463718069E-01  -0.8315550655E-05  -0.2467847926E-01  -0.1097926477E-03   0.2497049796E-03
  -0.2298137396E+01  -0.1179781220E+01   0.9994182131E+00   0.1295593985E-02  -0.6435100712E-03  -0.5817869141E-03   0.0000000000E+00   0.0000000000E+00   0.0000000000E+00   0.1109209398E+00  -0.1212616186E-01   0.5186994548E-05  -0.2087035033E-01  -0.5014445626E-04   0.2059738652E-03
  -0.2498258868E+01  -0.1183070420E+01   0.9994204492E+00   0.1067362104E-02  -0.6048704896E-03  -0.5795507900E-03   0.0000000000E+00   0.0000000000E+00   0.0000000000E+00   0.1077867516E+00  -0.9945808990E-02  -0.1025301277E-05  -0.1700268472E-01  -0.4024901136E-04   0.1373433599E-03
  -0.2698393934E+01  -0.1186248295E+01   0.9994216904E+00   0.8462759121E-03  -0.5714851869E-03  -0.5783096330E-03   0.0000000000E+00   0.0000000000E+00   0.0000000000E+00   0.1054316653E+00  -0.8097251355E-02   0.7297371979E-06  -0.1326190215E-01  -0.1586880502E-04   0.1093940418E-03
  -0.2898572274E+01  -0.1189191793E+01   0.9994223520E+00   0.6305464897E-03  -0.5445230662E-03  -0.5776480225E-03   0.0000000000E+00   0.0000000000E+00   0.0000000000E+00   0.1037119182E+00  -0.6659715264E-02   0.1159598918E-05  -0.9703944957E-02  -0.1239083641E-04   0.7322167714E-04
  -0.3098835086E+01  -0.1191715044E+01   0.9994226763E+00   0.4185635339E-03  -0.5248040137E-03  -0.5773237059E-03   0.0000000000E+00   0.0000000000E+00   0.0000000000E+00   0.1025422966E+00  -0.5622710273E-02  -0.6682180991E-06  -0.6375263346E-02  -0.4104944591E-05   0.6144946741E-04
  -0.3299252484E+01  -0.1193598328E+01   0.9994228155E+00   0.2088755399E-03  -0.5126584545E-03  -0.5771845259E-03   0.0000000000E+00   0.0000000000E+00   0.0000000000E+00   0.1018661160E+00  -0.5005070686E-02   0.1217172943E-05  -0.3042418231E-02  -0.1469733713E-05   0.4491566302E-04
  -0.3500000000E+01  -0.1194632249E+01   0.9994228504E+00   0.0000000000E+00  -0.5083894283E-03  -0.5771496103E-03   0.0000000000E+00   0.0000000000E+00   0.0000000000E+00   0.1016440140E+00  -0.4801930623E-02  -0.1467141543E-05  -0.3519353652E-03  -0.4309087173E-05   0.4665584304E-04
  -0.3304248510E+01  -0.9948085384E+00   0.9994253396E+00   0.1919904192E-03  -0.6183224042E-03  -0.5746604053E-03   0.0000000000E+00   0.0000000000E+00   0.0000000000E+00   0.9748103568E-01  -0.1683209895E-02  -0.1309031619E-05  -0.3297738347E-02   0.1535733439E-05   0.4959799614E-04
  -0.3500000000E+01  -0.9956235499E+00   0.9994251776E+00   0.0000000000E+00  -0.6138298822E-03  -0.5748224414E-03   0.0000000000E+00   0.0000000000E+00   0.0000000000E+00   0.9738996439E-01  -0.1526829806E-02   0.3140631700E-05  -0.4060084134E-03   0.1601402473E-04   0.3971674499E-04
  -0.3310329617E+01  -0.7966484336E+00   0.9994275530E+00   0.1743430010E-03  -0.7123256223E-03  -0.5724469775E-03   0.0000000000E+00   0.0000000000E+00   0.0000000000E+00   0.9300230198E-01   0.1864824330E-02   0.1066124723E-05  -0.3276609146E-02   0.4404800559E-05   0.3475400017E-04
  -0.3500000000E+01  -0.7971666575E+00   0.9994272173E+00   0.0000000000E+00  -0.7079954522E-03  -0.5727827462E-03   0.0000000000E+00   0.0000000000E+00   0.0000000000E+00   0.9303388564E-01   0.1964891620E-02   0.1238361701E-06  -0.4123294131E-03   0.3349258570E-04   0.3721548925E-04
  -0.3316374474E+01  -0.5983962190E+00   0.9994290498E+00   0.1581355781E-03  -0.7951029670E-03  -0.5709502286E-03   0.0000000000E+00   0.0000000000E+00   0.0000000000E+00   0.8886156958E-01   0.5366601829E-02  -0.5521667940E-07  -0.2994233078E-02   0.7014212680E-05   0.2358301540E-04
  -0.3500000000E+01  -0.5986648520E+00   0.9994285596E+00   0.0000000000E+00  -0.7910450070E-03  -0.5714403790E-03   0.0000000000E+00   0.0000000000E+00   0.0000000000E+00   0.8900840705E-01   0.5417671224E-02   0.1504425969E-05  -0.4181652046E-03   0.5118916962E-04   0.1436875173E-04
  -0.3321199099E+01  -0.3995769969E+00   0.9994294099E+00   0.1452813653E-03  -0.8676999411E-03  -0.5705901434E-03   0.0000000000E+00   0.0000000000E+00   0.0000000000E+00   0.8550171698E-01   0.8554524423E-02   0.3271626197E-06  -0.2506999899E-02   0.9489992774E-05  -0.8181786247E-05
  -0.3500000000E+01  -0.3997665897E+00   0.9994287993E+00   0.0000000000E+00  -0.8640547041E-03  -0.5712007450E-03   0.0000000000E+00   0.0000000000E+00   0.0000000000E+00   0.8574285691E-01   0.8556222704E-02  -0.4266735363E-06  -0.3804419104E-03   0.6500993867E-04  -0.5035394472E-05
  -0.3323336621E+01  -0.1997607830E+00   0.9994282476E+00   0.1375490527E-03  -0.9322050027E-03  -0.5717524431E-03   0.0000000000E+00   0.0000000000E+00   0.0000000000E+00   0.8334095364E-01   0.1115388124E-01  -0.1260587090E-05  -0.1856047878E-02   0.1038207870E-04  -0.3612324308E-04
  -0.3500000000E+01  -0.2001024496E+00   0.9994275434E+00   0.0000000000E+00  -0.9288646280E-03  -0.5724565960E-03   0.0000000000E+00   0.0000000000E+00   0.0000000000E+00   0.8365725351E-01   0.1112228267E-01  -0.6929830183E-07  -0.3561919646E-03   0.7660255920E-04  -0.4313981730E-04
  -0.3108813145E+01  -0.9933336862E+00   0.9994257859E+00   0.3842352449E-03  -0.6312021792E-03  -0.5742140512E-03   0.0000000000E+00   0.0000000000E+00   0.0000000000E+00   0.9777435340E-01  -0.2152989633E-02   0.2455226252E-05  -0.6930376617E-02   0.1161852214E-04   0.5559965259E-04
  -0.3120760417E+01  -0.7956947938E+00   0.9994285598E+00   0.3485927841E-03  -0.7251158037E-03  -0.5714402426E-03   0.0000000000E+00   0.0000000000E+00   0.0000000000E+00   0.9290850618E-01   0.1550420420E-02  -0.7558903676E-07  -0.6897476469E-02   0.2920960815E-04   0.5243524905E-04
  -0.3132590749E+01  -0.5978826870E+00   0.9994305326E+00   0.3159307817E-03  -0.8071049789E-03  -0.5694673895E-03   0.0000000000E+00   0.0000000000E+00   0.0000000000E+00   0.8842069623E-01   0.5210727911E-02   0.1107843330E-05  -0.6333077331E-02   0.4486384147E-04   0.2826501509E-04
  -0.3141987461E+01  -0.3992938078E+00   0.9994312784E+00   0.2900191288E-03  -0.8786598089E-03  -0.5687216452E-03   0.0000000000E+00   0.0000000000E+00   0.0000000000E+00   0.8476705157E-01   0.8533612444E-02  -0.1749323592E-05  -0.5323758932E-02   0.5853831371E-04   0.5130045644E-05
  -0.3146327265E+01  -0.1994562739E+00   0.9994304085E+00   0.2741753276E-03  -0.9419608962E-03  -0.5695914628E-03   0.0000000000E+00   0.0000000000E+00   0.0000000000E+00   0.8238220576E-01   0.1124341846E-01   0.1199529996E-05  -0.3982703115E-02   0.6924728152E-04  -0.3599072052E-04
  -0.2913535500E+01  -0.9913678721E+00   0.9994265014E+00   0.5775397981E-03  -0.6523681006E-03  -0.5734986425E-03   0.0000000000E+00   0.0000000000E+00   0.0000000000E+00   0.9829240984E-01  -0.2964992180E-02  -0.6531952154E-06  -0.1056048222E-01   0.1396090349E-04   0.8320159784E-04
  -0.2931247462E+01  -0.7944076799E+00   0.9994302520E+00   0.5228581045E-03  -0.7462049179E-03  -0.5697479594E-03   0.0000000000E+00   0.0000000000E+00   0.0000000000E+00   0.9276967687E-01   0.1005959911E-02   0.7002404955E-06  -0.1052624482E-01   0.3898771817E-04   0.6585201256E-04
  -0.2948719201E+01  -0.5971703472E+00   0.9994330696E+00   0.4728486343E-03  -0.8271281867E-03  -0.5669303861E-03   0.0000000000E+00   0.0000000000E+00   0.0000000000E+00   0.8767735429E-01   0.4927079642E-02   0.8612355706E-06  -0.9671145716E-02   0.6272801076E-04   0.5223724716E-04
  -0.2962587415E+01  -0.3989045709E+00   0.9994344937E+00   0.4331448353E-03  -0.8969098571E-03  -0.5655063329E-03   0.0000000000E+00   0.0000000000E+00   0.0000000000E+00   0.8352001950E-01   0.8485470070E-02  -0.2826891689E-06  -0.8126368627E-02   0.8271660071E-04   0.1422277303E-04
  -0.2969347764E+01  -0.1990739232E+00   0.9994341522E+00   0.4083656102E-03  -0.9582762303E-03  -0.5658477926E-03   0.0000000000E+00   0.0000000000E+00   0.0000000000E+00   0.8074410840E-01   0.1136785497E-01  -0.4951748486E-06  -0.6059719116E-02   0.9844694729E-04  -0.2008619332E-04
  -0.2718340095E+01  -0.9890742788E+00   0.9994274089E+00   0.7727752266E-03  -0.6814488389E-03  -0.5725911187E-03   0.0000000000E+00   0.0000000000E+00   0.0000000000E+00   0.9909010182E-01  -0.4119075720E-02   0.2806161188E-05  -0.1448372430E-01   0.1736059907E-04   0.1069948833E-03
  -0.2741767261E+01  -0.7928904370E+00   0.9994326560E+00   0.6972788504E-03  -0.7755239900E-03  -0.5673439744E-03   0.0000000000E+00   0.0000000000E+00   0.0000000000E+00   0.9260806509E-01   0.1952904621E-03   0.9769768108E-06  -0.1447733413E-01   0.5439869009E-04   0.1035443914E-03
  -0.2764803238E+01  -0.5963138007E+00   0.9994367634E+00   0.6284018708E-03  -0.8550547121E-03  -0.5632365584E-03   0.0000000000E+00   0.0000000000E+00   0.0000000000E+00   0.8662318031E-01   0.4486893977E-02   0.1363187961E-05  -0.1332652798E-01   0.8817660646E-04   0.7357128766E-04
  -0.2783116365E+01  -0.3984356246E+00   0.9994392236E+00   0.5736149461E-03  -0.9225325664E-03  -0.5607763662E-03   0.0000000000E+00   0.0000000000E+00   0.0000000000E+00   0.8171258150E-01   0.8371901247E-02  -0.2700267698E-05  -0.1119564981E-01   0.1162885783E-03   0.4009992242E-04
  -0.2792786373E+01  -0.1987090045E+00   0.9994396620E+00   0.5385774612E-03  -0.9809965397E-03  -0.5603380352E-03   0.0000000000E+00   0.0000000000E+00   0.0000000000E+00   0.7838133570E-01   0.1150955309E-01   0.3181239808E-05  -0.8323455173E-02   0.1380438415E-03  -0.8129268729E-05
  -0.2523186890E+01  -0.9865869905E+00   0.9994284097E+00   0.9708696393E-03  -0.7180004556E-03  -0.5715903332E-03   0.0000000000E+00   0.0000000000E+00   0.0000000000E+00   0.1002341477E+00  -0.5672059202E-02   0.3927476521E-06  -0.1867949448E-01   0.1325564197E-04   0.1595273659E-03
  -0.2552306671E+01  -0.7912303418E+00   0.9994357942E+00   0.8721191136E-03  -0.8126708462E-03  -0.5642058327E-03   0.0000000000E+00   0.0000000000E+00   0.0000000000E+00   0.9246667443E-01  -0.9315513919E-03  -0.8884675479E-07  -0.1876022680E-01   0.6545498619E-04   0.1382947350E-03
  -0.2580867642E+01  -0.5953637154E+00   0.9994417615E+00   0.7821383151E-03  -0.8908303799E-03  -0.5582385398E-03   0.0000000000E+00   0.0000000000E+00   0.0000000000E+00   0.8525996384E-01   0.3827653049E-02   0.2558289541E-05  -0.1733009470E-01   0.1158307300E-03   0.1204080833E-03
  -0.2603685018E+01  -0.3979370596E+00   0.9994457129E+00   0.7103724648E-03  -0.9554026190E-03  -0.5542870594E-03   0.0000000000E+00   0.0000000000E+00   0.0000000000E+00   0.7929584435E-01   0.8159231447E-02  -0.4698231046E-06  -0.1455864275E-01   0.1578593050E-03   0.6206957989E-04
  -0.2617922756E+01  -0.1987210701E+00   0.9994471833E+00   0.6625938238E-03  -0.1009811121E-02  -0.5528166636E-03   0.0000000000E+00   0.0000000000E+00   0.0000000000E+00   0.7522487698E-01   0.1161561433E-01   0.1064659906E-04  -0.1076537737E-01   0.1855799663E-03   0.2316483767E-04
  -0.2328051980E+01  -0.9839982069E+00   0.9994292814E+00   0.1173079735E-02  -0.7609399359E-03  -0.5707185534E-03   0.0000000000E+00   0.0000000000E+00   0.0000000000E+00   0.1018801872E+00  -0.7620476372E-02   0.3195844942E-05  -0.2316236716E-01   0.1524497960E-04   0.2104763248E-03
  -0.2362856207E+01  -0.7894909406E+00   0.9994396589E+00   0.1047792721E-02  -0.8571175827E-03  -0.5603411176E-03   0.0000000000E+00   0.0000000000E+00   0.0000000000E+00   0.9243219182E-01  -0.2447088257E-02   0.5520514876E-05  -0.2345561709E-01   0.8038004271E-04   0.2039336529E-03
  -0.2396924913E+01  -0.5943592007E+00   0.9994482519E+00   0.9337070211E-03  -0.9340456763E-03  -0.5517481039E-03   0.0000000000E+00   0.0000000000E+00   0.0000000000E+00   0.8359376510E-01   0.2872778135E-02   0.4844426881E-05  -0.2177092811E-01   0.1421582144E-03   0.1727883783E-03
  -0.2424566166E+01  -0.3975188982E+00   0.9994543287E+00   0.8421941771E-03  -0.9953632462E-03  -0.5456713173E-03   0.0000000000E+00   0.0000000000E+00   0.0000000000E+00   0.7620576144E-01   0.7734823597E-02  -0.1201008018E-04  -0.1831487845E-01   0.2051571966E-03   0.1077788647E-03
  -0.2443508302E+01  -0.1989830714E+00   0.9994571993E+00   0.7799484397E-03  -0.1044688430E-02  -0.5428006840E-03   0.0000000000E+00   0.0000000000E+00   0.0000000000E+00   0.7113722484E-01   0.1163613178E-01   0.2561937491E-04  -0.1346373515E-01   0.2436407587E-03   0.5250762192E-04
  -0.2132917888E+01  -0.9813613273E+00   0.9994296575E+00   0.1380912388E-02  -0.8086542803E-03  -0.5703425496E-03   0.0000000000E+00   0.0000000000E+00   0.0000000000E+00   0.1042032621E+00  -0.1008600014E-01  -0.2563906312E-05  -0.2785274390E-01  -0.2437974533E-04   0.3011726475E-03
  -0.2173409441E+01  -0.7877120637E+00   0.9994442221E+00   0.1225019486E-02  -0.9076256650E-03  -0.5557778580E-03   0.0000000000E+00   0.0000000000E+00   0.0000000000E+00   0.9263675599E-01  -0.4455993065E-02  -0.2887616825E-05  -0.2857222217E-01   0.9304641506E-04   0.2765333777E-03
  -0.2212981040E+01  -0.5933269233E+00   0.9994564799E+00   0.1082839975E-02  -0.9840692902E-03  -0.5435200555E-03   0.0000000000E+00   0.0000000000E+00   0.0000000000E+00   0.8166570646E-01   0.1522468885E-02   0.2428507563E-04  -0.2672912424E-01   0.1896147289E-03   0.2555933029E-03
  -0.2245298891E+01  -0.3970340581E+00   0.9994655393E+00   0.9684290002E-03  -0.1042077090E-02  -0.5344606781E-03   0.0000000000E+00   0.0000000000E+00   0.0000000000E+00   0.7240519938E-01   0.7049107733E-02  -0.1021527571E-04  -0.2254085524E-01   0.2598811225E-03   0.1660183949E-03
  -0.2267907550E+01  -0.1988533224E+00   0.9994705307E+00   0.8898502939E-03  -0.1086020388E-02  -0.5294693031E-03   0.0000000000E+00   0.0000000000E+00   0.0000000000E+00   0.6593528223E-01   0.1148880610E-01   0.4077670253E-04  -0.1648008503E-01   0.3378571735E-03   0.1074505147E-03
  -0.1935501879E+01  -0.9777895216E+00   0.9994289197E+00   0.1598291010E-02  -0.8592606327E-03  -0.5710803093E-03   0.0000000000E+00   0.0000000000E+00   0.0000000000E+00   0.1075528713E+00  -0.1291115717E-01   0.3839702720E-04  -0.3266241743E-01  -0.6572176254E-05   0.4143884194E-03
  -0.1983267920E+01  -0.7856112139E+00   0.9994492897E+00   0.1405459816E-02  -0.9624979325E-03  -0.5507103270E-03   0.0000000000E+00   0.0000000000E+00   0.0000000000E+00   0.9335153894E-01  -0.7046741420E-02   0.9884231464E-05  -0.3403864496E-01   0.1076046451E-03   0.4137425292E-03
  -0.2028850171E+01  -0.5921660538E+00   0.9994668243E+00   0.1229668827E-02  -0.1039730812E-02  -0.5331756632E-03   0.0000000000E+00   0.0000000000E+00   0.0000000000E+00   0.7958266077E-01  -0.4395784496E-03   0.1506900578E-05  -0.3227369505E-01   0.2402492875E-03   0.3536096377E-03
  -0.2065913569E+01  -0.3964515665E+00   0.9994800648E+00   0.1087771166E-02  -0.1094792522E-02  -0.5199351742E-03   0.0000000000E+00   0.0000000000E+00   0.0000000000E+00   0.6776292553E-01   0.5909773776E-02   0.1542227717E-04  -0.2731963823E-01   0.3492890775E-03   0.2543122682E-03
  -0.2096755982E+01  -0.1994402813E+00   0.9994876416E+00   0.9875280894E-03  -0.1131575327E-02  -0.5123583903E-03   0.0000000000E+00   0.0000000000E+00   0.0000000000E+00   0.5979278405E-01   0.1101225306E-01   0.4361426380E-04  -0.1979608860E-01   0.4166533955E-03   0.1742134713E-03
  -0.1738626184E+01  -0.9742290708E+00   0.9994259973E+00   0.1825276309E-02  -0.9065598492E-03  -0.5740027414E-03   0.0000000000E+00   0.0000000000E+00   0.0000000000E+00   0.1121772266E+00  -0.1626910866E-01  -0.4479367834E-04  -0.3702472309E-01  -0.1216086759E-03   0.5788988507E-03
  -0.1793389541E+01  -0.7832707523E+00   0.9994543211E+00   0.1590028843E-02  -0.1017725274E-02  -0.5456789140E-03   0.0000000000E+00   0.0000000000E+00   0.0000000000E+00   0.9499513606E-01  -0.1035723800E-01   0.1622329793E-04  -0.3964542825E-01   0.1149779182E-03   0.5525166702E-03
  -0.1844947013E+01  -0.5906900796E+00   0.9994793995E+00   0.1374327051E-02  -0.1098516611E-02  -0.5206005330E-03   0.0000000000E+00   0.0000000000E+00   0.0000000000E+00   0.7761945787E-01  -0.3140344120E-02   0.2506045838E-04  -0.3834576725E-01   0.3205545945E-03   0.5423062509E-03
  -0.1889004035E+01  -0.3959310280E+00   0.9994987367E+00   0.1197655274E-02  -0.1151286022E-02  -0.5012633447E-03   0.0000000000E+00   0.0000000000E+00   0.0000000000E+00   0.6255003223E-01   0.4176912868E-02   0.6471829394E-04  -0.3265223168E-01   0.5216274900E-03   0.4017183295E-03
  -0.1930473721E+01  -0.2006499991E+00   0.9995092940E+00   0.1072129442E-02  -0.1179926080E-02  -0.4907059985E-03   0.0000000000E+00   0.0000000000E+00   0.0000000000E+00   0.5211799024E-01   0.1017074186E-01   0.3951692025E-04  -0.2346473472E-01   0.6942551225E-03   0.2980994109E-03
  -0.1543712752E+01  -0.9704446204E+00   0.9994181933E+00   0.2063618215E-02  -0.9427073796E-03  -0.5818066979E-03   0.0000000000E+00   0.0000000000E+00   0.0000000000E+00   0.1186749335E+00  -0.1902306168E-01   0.6533857190E-04  -0.4039764670E-01  -0.1223095744E-03   0.7816412388E-03
  -0.1604621579E+01  -0.7798540755E+00   0.9994580450E+00   0.1779741421E-02  -0.1067654528E-02  -0.5419549638E-03   0.0000000000E+00   0.0000000000E+00   0.0000000000E+00   0.9788726804E-01  -0.1418693057E-01   0.1380878755E-04  -0.4503640329E-01   0.1038040623E-03   0.8493992307E-03
  -0.1662077562E+01  -0.5879957450E+00   0.9994943666E+00   0.1516088017E-02  -0.1156128984E-02  -0.5056333583E-03   0.0000000000E+00   0.0000000000E+00   0.0000000000E+00   0.7595819483E-01  -0.6664835598E-02   0.3487623793E-04  -0.4462024916E-01   0.4349490235E-03   0.8189334005E-03
  -0.1714639316E+01  -0.3959089000E+00   0.9995223177E+00   0.1298773562E-02  -0.1208343033E-02  -0.4776822536E-03   0.0000000000E+00   0.0000000000E+00   0.0000000000E+00   0.5665922006E-01   0.1453681309E-02  -0.2824270057E-04  -0.3843293270E-01   0.7488499922E-03   0.6587294290E-03
  -0.1748959707E+01  -0.1988235402E+00   0.9995410726E+00   0.1149012790E-02  -0.1236050182E-02  -0.4589274141E-03   0.0000000000E+00   0.0000000000E+00   0.0000000000E+00   0.4307777491E-01   0.8227037745E-02   0.7821906398E-04  -0.2754586897E-01   0.8815854269E-03   0.4275035423E-03
  -0.1351493051E+01  -0.9641225335E+00   0.9994028348E+00   0.2311179342E-02  -0.9596945062E-03  -0.5971651909E-03   0.0000000000E+00   0.0000000000E+00   0.0000000000E+00   0.1268957293E+00  -0.2120346825E-01  -0.1346100110E-03  -0.4175789057E-01  -0.6307771148E-03   0.9380744809E-03
  -0.1418505570E+01  -0.7732413796E+00   0.9994582743E+00   0.1972300430E-02  -0.1103499633E-02  -0.5417256883E-03   0.0000000000E+00   0.0000000000E+00   0.0000000000E+00   0.1022485904E+00  -0.1796052117E-01  -0.3347018642E-04  -0.4936427631E-01  -0.6279379142E-04   0.1230288627E-02
  -0.1482055178E+01  -0.5823367993E+00   0.9995112208E+00   0.1652721971E-02  -0.1205341279E-02  -0.4887792363E-03   0.0000000000E+00   0.0000000000E+00   0.0000000000E+00   0.7492871272E-01  -0.1082133782E-01   0.7529767743E-04  -0.5057349767E-01   0.6158370213E-03   0.1363727318E-02
  -0.1537027120E+01  -0.3907447171E+00   0.9995537314E+00   0.1389269640E-02  -0.1263620096E-02  -0.4462686450E-03   0.0000000000E+00   0.0000000000E+00   0.0000000000E+00   0.5031101752E-01  -0.2201235602E-02   0.7823798492E-04  -0.4410394465E-01   0.1220134927E-02   0.1137517502E-02
  -0.1582804463E+01  -0.1991244601E+00   0.9995798744E+00   0.1206377061E-02  -0.1286571100E-02  -0.4201256363E-03   0.0000000000E+00   0.0000000000E+00   0.0000000000E+00   0.3277996635E-01   0.5351143100E-02   0.1466018096E-03  -0.3163488279E-01   0.1746609589E-02   0.7968515025E-03
  -0.1156970680E+01  -0.9505828962E+00   0.9993737119E+00   0.2568659701E-02  -0.9473902345E-03  -0.6262880632E-03   0.0000000000E+00   0.0000000000E+00   0.0000000000E+00   0.1358098228E+00  -0.1852775132E-01   0.2268536084E-03  -0.4180974435E-01  -0.7899127501E-03   0.1320071741E-02
  -0.1235868660E+01  -0.7601137322E+00   0.9994514920E+00   0.2159989966E-02  -0.1114623214E-02  -0.5485080457E-03   0.0000000000E+00   0.0000000000E+00   0.0000000000E+00   0.1061104186E+00  -0.1904202975E-01   0.1226190150E-03  -0.5220197231E-01  -0.4416022826E-03   0.1973800330E-02
  -0.1307802095E+01  -0.5714793541E+00   0.9995289469E+00   0.1777034957E-02  -0.1233552064E-02  -0.4710531441E-03   0.0000000000E+00   0.0000000000E+00   0.0000000000E+00   0.7270391394E-01  -0.1422911344E-01  -0.2342675400E-03  -0.5417019232E-01   0.6270688991E-03   0.2302962745E-02
  -0.1366090231E+01  -0.3823558521E+00   0.9995926744E+00   0.1463359121E-02  -0.1302762113E-02  -0.4073256413E-03   0.0000000000E+00   0.0000000000E+00   0.0000000000E+00   0.4284743147E-01  -0.7488917861E-02  -0.3074595788E-03  -0.4746730416E-01   0.1611249711E-02   0.1886407725E-02
  -0.1408053766E+01  -0.1918846476E+00   0.9996352971E+00   0.1247274275E-02  -0.1332383648E-02  -0.3647028615E-03   0.0000000000E+00   0.0000000000E+00   0.0000000000E+00   0.2166330398E-01  -0.1292240695E-02  -0.4224365051E-03  -0.3373370553E-01   0.2184828410E-02   0.1318060836E-02
  -0.9645337463E+00  -0.9252154208E+00   0.9993244864E+00   0.2811610709E-02  -0.8984187561E-03  -0.6755136258E-03   0.0000000000E+00   0.0000000000E+00   0.0000000000E+00   0.1465360283E+00  -0.1254454128E-01  -0.3276391456E-03  -0.4236752405E-01  -0.3427954944E-02   0.5199881772E-03
  -0.1061605193E+01  -0.7372605586E+00   0.9994353207E+00   0.2318167049E-02  -0.1086034614E-02  -0.5646792909E-03   0.0000000000E+00   0.0000000000E+00   0.0000000000E+00   0.1076670371E+00  -0.1534458813E-01  -0.3861473020E-04  -0.5342560972E-01  -0.1359828432E-02   0.3465849394E-02
  -0.1144797919E+01  -0.5535843325E+00   0.9995452450E+00   0.1873970883E-02  -0.1221711529E-02  -0.4547549531E-03   0.0000000000E+00   0.0000000000E+00   0.0000000000E+00   0.6958820472E-01  -0.1470927739E-01   0.1227652427E-03  -0.5396001433E-01   0.6293539415E-03   0.3853732071E-02
  -0.1208414424E+01  -0.3696767125E+00   0.9996369534E+00   0.1517185834E-02  -0.1307252540E-02  -0.3630465608E-03   0.0000000000E+00   0.0000000000E+00   0.0000000000E+00   0.3614186880E-01  -0.1356584151E-01   0.1625538249E-03  -0.4639009304E-01   0.2763780088E-02   0.3603853783E-02
  -0.1251109679E+01  -0.1845468194E+00   0.9996994433E+00   0.1274150599E-02  -0.1352301448E-02  -0.3005567011E-03   0.0000000000E+00   0.0000000000E+00   0.0000000000E+00   0.1255639632E-01  -0.1084056342E-01   0.5248372299E-03  -0.3292596880E-01   0.4355436285E-02   0.2381354764E-02
  -0.7755181105E+00  -0.8821247416E+00   0.9992460108E+00   0.2992817491E-02  -0.8114776138E-03  -0.7539892026E-03   0.0000000000E+00   0.0000000000E+00   0.0000000000E+00   0.1374978150E+00   0.2083248104E-01   0.3750791279E-02  -0.5580326462E-01  -0.3313269147E-02   0.3050758102E-02
  -0.9013344090E+00  -0.7057828032E+00   0.9994068304E+00   0.2413269026E-02  -0.9989462010E-03  -0.5931695955E-03   0.0000000000E+00   0.0000000000E+00   0.0000000000E+00   0.8880605399E-01   0.1195505333E-01  -0.6169577819E-03  -0.5282812259E-01  -0.3070466064E-02   0.6145262296E-02
  -0.9998300245E+00  -0.5319200790E+00   0.9995566950E+00   0.1927355516E-02  -0.1145903017E-02  -0.4433049533E-03   0.0000000000E+00   0.0000000000E+00   0.0000000000E+00   0.4879075865E-01  -0.1761931524E-02  -0.1188659061E-02  -0.4112695624E-01  -0.5073908133E-03   0.6328619636E-02
  -0.1070612246E+01  -0.3558990096E+00   0.9996816238E+00   0.1550504076E-02  -0.1253936623E-02  -0.3183761571E-03   0.0000000000E+00   0.0000000000E+00   0.0000000000E+00   0.2044165435E-01  -0.2003890946E-01  -0.3196031300E-02  -0.2831787139E-01   0.1720737355E-02   0.5904120347E-02
  -0.1114084178E+01  -0.1774571570E+00   0.9997690944E+00   0.1295992367E-02  -0.1332093002E-02  -0.2309055703E-03   0.0000000000E+00   0.0000000000E+00   0.0000000000E+00   0.3746710261E-02  -0.3431551016E-01  -0.3965009397E-02  -0.1855871451E-01   0.3785167657E-02   0.3997963631E-02
  -0.9854381119E+00  -0.1633829748E+00   0.9998282727E+00   0.1329180129E-02  -0.1240131828E-02  -0.1717272899E-03   0.0000000000E+00   0.0000000000E+00   0.0000000000E+00   0.3670854339E-02  -0.6909730871E-01  -0.5014581868E-02   0.2217130721E-02  -0.1920763429E-03   0.7184974314E-02
  -0.9440791707E+00  -0.3263769440E+00   0.9997222267E+00   0.1541306320E-02  -0.1104949989E-02  -0.2777733427E-03   0.0000000000E+00   0.0000000000E+00   0.0000000000E+00   0.8176901121E-02  -0.3031131815E-01  -0.3973404826E-02  -0.3233270554E-02  -0.2487818328E-02   0.1053332171E-01
  -0.8746486078E+00  -0.4823661158E+00   0.9995773628E+00   0.1857065243E-02  -0.9746257866E-03  -0.4226371845E-03   0.0000000000E+00   0.0000000000E+00   0.0000000000E+00   0.2512243377E-01   0.1226822153E-01  -0.2643092684E-02  -0.2264109593E-01  -0.5311423593E-02   0.1178244878E-01
  -0.7758263436E+00  -0.6289899781E+00   0.9994059341E+00   0.2272180450E-02  -0.8477400606E-03  -0.5940658628E-03   0.0000000000E+00   0.0000000000E+00   0.0000000000E+00   0.6197371306E-01   0.4454902357E-01  -0.8891702830E-03  -0.5360383155E-01  -0.8149295944E-02   0.1116689453E-01
  -0.6464804047E+00  -0.7612977255E+00   0.9992290790E+00   0.2779162275E-02  -0.7308355077E-03  -0.7709210475E-03   0.0000000000E+00   0.0000000000E+00   0.0000000000E+00   0.1282592413E+00   0.5549506520E-01  -0.6095389636E-04  -0.7963506320E-01  -0.7270371603E-02   0.7700288763E-02
     1     2     3     4     5     6     7     8
     2     9    10     3     6    11    12     7
     9    13    14    10    11    15    16    12
    13    17    18    14    15    19    20    16
    17    21    22    18    19    23    24    20
    25    26     2     1    27    28     6     5
    26    29     9     2    28    30    11     6
    29    31    13     9    30    32    15    11
    31    33    17    13    32    34    19    15
    33    35    21    17    34    36    23    19
    33    37    38    35    34    39    40    36
    37    41    42    38    39    43    44    40
    41    45    46    42    43    47    48    44
    45    49    50    46    47    51    52    48
    31    53    37    33    32    54    39    34
    53    55    41    37    54    56    43    39
    55    57    45    41    56    58    47    43
    57    59    49    45    58    60    51    47
    29    61    53    31    30    62    54    32
    61    63    55    53    62    64    56    54
    63    65    57    55    64    66    58    56
    65    67    59    57    66    68    60    58
    26    69    61    29    28    70    62    30
    69    71    63    61    70    72    64    62
    71    73    65    63    72    74    66    64
    73    75    67    65    74    76    68    66
    25    77    69    26    27    78    70    28
    77    79    71    69    78    80    72    70
    79    81    73    71    80    82    74    72
    81    83    75    73    82    84    76    74
    81    85    86    83    82    87    88    84
    85    89    90    86    87    91    92    88
    89    93    94    90    91    95    96    92
    93    97    98    94    95    99   100    96
    97   101   102    98    99   103   104   100
   101   105   106   102   103   107   108   104
   105   109   110   106   107   111   112   108
   109   113   114   110   111   115   116   112
   113   117   118   114   115   119   120   116
   117   121   122   118   119   123   124   120
   121   125   126   122   123   127   128   124
   125   129   130   126   127   131   132   128
   129   133   134   130   131   135   136   132
    79   137    85    81    80   138    87    82
   137   139    89    85   138   140    91    87
   139   141    93    89   140   142    95    91
   141   143    97    93   142   144    99    95
   143   145   101    97   144   146   103    99
   145   147   105   101   146   148   107   103
   147   149   109   105   148   150   111   107
   149   151   113   109   150   152   115   111
   151   153   117   113   152   154   119   115
   153   155   121   117   154   156   123   119
   155   157   125   121   156   158   127   123
   157   159   129   125   158   160   131   127
   159   161   133   129   160   162   135   131
    77   163   137    79    78   164   138    80
   163   165   139   137   164   166   140   138
   165   167   141   139   166   168   142   140
   167   169   143   141   168   170   144   142
   169   171   145   143   170   172   146   144
   171   173   147   145   172   174   148   146
   173   175   149   147   174   176   150   148
   175   177   151   149   176   178   152   150
   177   179   153   151   178   180   154   152
   179   181   155   153   180   182   156   154
   181   183   157   155   182   184   158   156
   183   185   159   157   184   186   160   158
   185   187   161   159   186   188   162   160
    25   189   163    77    27   190   164    78
   189   191   165   163   190   192   166   164
   191   193   167   165   192   194   168   166
   193   195   169   167   194   196   170   168
   195   197   171   169   196   198   172   170
   197   199   173   171   198   200   174   172
   199   201   175   173   200   202   176   174
   201   203   177   175   202   204   178   176
   203   205   179   177   204   206   180   178
   205   207   181   179   206   208   182   180
   207   209   183   181   208   210   184   182
   209   211   185   183   210   212   186   184
   211   213   187   185   212   214   188   186
   211   215   216   213   212   217   218   214
   215   219   220   216   217   221   222   218
   219   223   224   220   221   225   226   222
   223   227   228   224   225   229   230   226
   227   231   232   228   229   233   234   230
   209   235   215   211   210   236   217   212
   235   237   219   215   236   238   221   217
   237   239   223   219   238   240   225   221
   239   241   227   223   240   242   229   225
   241   243   231   227   242   244   233   229
   207   245   235   209   208   246   236   210
   245   247   237   235   246   248   238   236
   247   249   239   237   248   250   240   238
   249   251   241   239   250   252   242   240
   251   253   243   241   252   254   244   242
   205   255   245   207   206   256   246   208
   255   257   247   245   256   258   248   246
   257   259   249   247   258   260   250   248
   259   261   251   249   260   262   252   250
   261   263   253   251   262   264   254   252
   203   265   255   205   204   266   256   206
   265   267   257   255   266   268   258   256
   267   269   259   257   268   270   260   258
   269   271   261   259   270   272   262   260
   271   273   263   261   272   274   264   262
   201   275   265   203   202   276   266   204
   275   277   267   265   276   278   268   266
   277   279   269   267   278   280   270   268
   279   281   271   269   280   282   272   270
   281   283   273   271   282   284   274   272
   199   285   275   201   200   286   276   202
   285   287   277   275   286   288   278   276
   287   289   279   277   288   290   280   278
   289   291   281   279   290   292   282   280
   291   293   283   281   292   294   284   282
   197   295   285   199   198   296   286   200
   295   297   287   285   296   298   288   286
   297   299   289   287   298   300   290   288
   299   301   291   289   300   302   292   290
   301   303   293   291   302   304   294   292
   195   305   295   197   196   306   296   198
   305   307   297   295   306   308   298   296
   307   309   299   297   308   310   300   298
   309   311   301   299   310   312   302   300
   311   313   303   301   312   314   304   302
   193   315   305   195   194   316   306   196
   315   317   307   305   316   318   308   306
   317   319   309   307   318   320   310   308
   319   321   311   309   320   322   312   310
   321   323   313   311   322   324   314   312
   191   325   315   193   192   326   316   194
   325   327   317   315   326   328   318   316
   327   329   319   317   328   330   320   318
   329   331   321   319   330   332   322   320
   331   333   323   321   332   334   324   322
   189   335   325   191   190   336   326   192
   335   337   327   325   336   338   328   326
   337   339   329   327   338   340   330   328
   339   341   331   329   340   342   332   330
   341   343   333   331   342   344   334   332
    25   345   335   189    27   346   336   190
   345   347   337   335   346   348   338   336
   347   349   339   337   348   350   340   338
   349   351   341   339   350   352   342   340
   351   353   343   341   352   354   344   342
   351   355   356   353   352   357   358   354
   355   359   360   356   357   361   362   358
   349   363   355   351   350   364   357   352
   363   365   359   355   364   366   361   357
   347   367   363   349   348   368   364   350
   367   369   365   363   368   370   366   364
   345   371   367   347   346   372   368   348
   371   373   369   367   372   374   370   368
    25     1   371   345    27     5   372   346
     1     4   373   371     5     8   374   372
   375    46    50   376   377    48    52   378
   379    42    46   375   380    44    48   377
   381    38    42   379   382    40    44   380
   383    35    38   381   384    36    40   382
   385    21    35   383   386    23    36   384
   385   387    22    21   386   388    24    23
   385   389   390   387   386   391   392   388
   389   393   394   390   391   395   396   392
   393   397   398   394   395   399   400   396
   397   401   402   398   399   403   404   400
   401   405   406   402   403   407   408   404
   401   409   410   405   403   411   412   407
   409   413   414   410   411   415   416   412
   413   417   418   414   415   419   420   416
   417   421   422   418   419   423   424   420
   421   425   426   422   423   427   428   424
   425   429   430   426   427   431   432   428
   429   433   434   430   431   435   436   432
   433   437   438   434   435   439   440   436
   437   441   442   438   439   443   444   440
   441   445   446   442   443   447   448   444
   445   449   450   446   447   451   452   448
   449   453   454   450   451   455   456   452
   453   457   458   454   455   459   460   456
   457   461   462   458   459   463   464   460
   397   465   409   401   399   466   411   403
   465   467   413   409   466   468   415   411
   467   469   417   413   468   470   419   415
   469   471   421   417   470   472   423   419
   471   473   425   421   472   474   427   423
   473   475   429   425   474   476   431   427
   475   477   433   429   476   478   435   431
   477   479   437   433   478   480   439   435
   479   481   441   437   480   482   443   439
   481   483   445   441   482   484   447   443
   483   485   449   445   484   486   451   447
   485   487   453   449   486   488   455   451
   487   489   457   453   488   490   459   455
   489   491   461   457   490   492   463   459
   393   493   465   397   395   494   466   399
   493   495   467   465   494   496   468   466
   495   497   469   467   496   498   470   468
   497   499   471   469   498   500   472   470
   499   501   473   471   500   502   474   472
   501   503   475   473   502   504   476   474
   503   505   477   475   504   506   478   476
   505   507   479   477   506   508   480   478
   507   509   481   479   508   510   482   480
   509   511   483   481   510   512   484   482
   511   513   485   483   512   514   486   484
   513   515   487   485   514   516   488   486
   515   517   489   487   516   518   490   488
   517   519   491   489   518   520   492   490
   389   521   493   393   391   522   494   395
   521   523   495   493   522   524   496   494
   523   525   497   495   524   526   498   496
   525   527   499   497   526   528   500   498
   527   529   501   499   528   530   502   500
   529   531   503   501   530   532   504   502
   531   533   505   503   532   534   506   504
   533   535   507   505   534   536   508   506
   535   537   509   507   536   538   510   508
   537   539   511   509   538   540   512   510
   539   541   513   511   540   542   514   512
   541   543   515   513   542   544   516   514
   543   545   517   515   544   546   518   516
   545   547   519   517   546   548   520   518
   385   549   521   389   386   550   522   391
   549   551   523   521   550   552   524   522
   551   553   525   523   552   554   526   524
   553   555   527   525   554   556   528   526
   555   557   529   527   556   558   530   528
   557   559   531   529   558   560   532   530
   559   561   533   531   560   562   534   532
   561   563   535   533   562   564   536   534
   563   565   537   535   564   566   538   536
   565   567   539   537   566   568   540   538
   567   569   541   539   568   570   542   540
   569   571   543   541   570   572   544   542
   571   573   545   543   572   574   546   544
   573   575   547   545   574   576   548   546
   573   577   578   575   574   579   580   576
   577   581   582   578   579   583   584   580
   581   585   586   582   583   587   588   584
   585   589   590   586   587   591   592   588
   589   593   594   590   591   595   596   592
   571   597   577   573   572   598   579   574
   597   599   581   577   598   600   583   579
   599   601   585   581   600   602   587   583
   601   603   589   585   602   604   591   587
   603   605   593   589   604   606   595   591
   569   607   597   571   570   608   598   572
   607   609   599   597   608   610   600   598
   609   611   601   599   610   612   602   600
   611   613   603   601   612   614   604   602
   613   615   605   603   614   616   606   604
   567   617   607   569   568   618   608   570
   617   619   609   607   618   620   610   608
   619   621   611   609   620   622   612   610
   621   623   613   611   622   624   614   612
   623   625   615   613   624   626   616   614
   565   627   617   567   566   628   618   568
   627   629   619   617   628   630   620   618
   629   631   621   619   630   632   622   620
   631   633   623   621   632   634   624   622
   633   635   625   623   634   636   626   624
   563   637   627   565   564   638   628   566
   637   639   629   627   638   640   630   628
   639   641   631   629   640   642   632   630
   641   643   633   631   642   644   634   632
   643   645   635   633   644   646   636   634
   561   647   637   563   562   648   638   564
   647   649   639   637   648   650   640   638
   649   651   641   639   650   652   642   640
   651   653   643   641   652   654   644   642
   653   655   645   643   654   656   646   644
   559   657   647   561   560   658   648   562
   657   659   649   647   658   660   650   648
   659   661   651   649   660   662   652   650
   661   663   653   651   662   664   654   652
   663   665   655   653   664   666   656   654
   557   667   657   559   558   668   658   560
   667   669   659   657   668   670   660   658
   669   671   661   659   670   672   662   660
   671   673   663   661   672   674   664   662
   673   675   665   663   674   676   666   664
   555   677   667   557   556   678   668   558
   677   679   669   667   678   680   670   668
   679   681   671   669   680   682   672   670
   681   683   673   671   682   684   674   672
   683   685   675   673   684   686   676   674
   553   687   677   555   554   688   678   556
   687   689   679   677   688   690   680   678
   689   691   681   679   690   692   682   680
   691   693   683   681   692   694   684   682
   693   695   685   683   694   696   686   684
   551   697   687   553   552   698   688   554
   697   699   689   687   698   700   690   688
   699   701   691   689   700   702   692   690
   701   703   693   691   702   704   694   692
   703   705   695   693   704   706   696   694
   549   707   697   551   550   708   698   552
   707   709   699   697   708   710   700   698
   709   711   701   699   710   712   702   700
   711   713   703   701   712   714   704   702
   713   715   705   703   714   716   706   704
   385   383   707   549   386   384   708   550
   383   381   709   707   384   382   710   708
   381   379   711   709   382   380   712   710
   379   375   713   711   380   377   714   712
   375   376   715   713   377   378   716   714
   717   718   719   720   721   722   723   724
   718   725   726   719   722   727   728   723
   725   729   730   726   727   731   732   728
   729   733   734   730   731   735   736   732
   733   737   738   734   735   739   740   736
   741   742   718   717   743   744   722   721
   742   745   725   718   744   746   727   722
   745   747   729   725   746   748   731   727
   747   749   733   729   748   750   735   731
   749   751   737   733   750   752   739   735
   753   754   742   741   755   756   744   743
   754   757   745   742   756   758   746   744
   757   759   747   745   758   760   748   746
   759   761   749   747   760   762   750   748
   761   763   751   749   762   764   752   750
   765   766   754   753   767   768   756   755
   766   769   757   754   768   770   758   756
   769   771   759   757   770   772   760   758
   771   773   761   759   772   774   762   760
   773   775   763   761   774   776   764   762
   773   777   778   775   774   779   780   776
   771   781   777   773   772   782   779   774
   769   783   781   771   770   784   782   772
   766   785   783   769   768   786   784   770
   765   787   785   766   767   788   786   768
   765   789   790   787   767   791   792   788
   789   793   794   790   791   795   796   792
   793   797   798   794   795   799   800   796
   797   801   802   798   799   803   804   800
   801   356   360   802   803   358   362   804
   801   805   353   356   803   806   354   358
   805   807   343   353   806   808   344   354
   807   809   333   343   808   810   334   344
   809   811   323   333   810   812   324   334
   811   813   313   323   812   814   314   324
   813   815   303   313   814   816   304   314
   815   817   293   303   816   818   294   304
   817   819   283   293   818   820   284   294
   819   821   273   283   820   822   274   284
   821   823   263   273   822   824   264   274
   823   825   253   263   824   826   254   264
   825   827   243   253   826   828   244   254
   827   829   231   243   828   830   233   244
   829   831   232   231   830   832   234   233
   797   833   805   801   799   834   806   803
   833   835   807   805   834   836   808   806
   835   837   809   807   836   838   810   808
   837   839   811   809   838   840   812   810
   839   841   813   811   840   842   814   812
   841   843   815   813   842   844   816   814
   843   845   817   815   844   846   818   816
   845   847   819   817   846   848   820   818
   847   849   821   819   848   850   822   820
   849   851   823   821   850   852   824   822
   851   853   825   823   852   854   826   824
   853   855   827   825   854   856   828   826
   855   857   829   827   856   858   830   828
   857   859   831   829   858   860   832   830
   793   861   833   797   795   862   834   799
   861   863   835   833   862   864   836   834
   863   865   837   835   864   866   838   836
   865   867   839   837   866   868   840   838
   867   869   841   839   868   870   842   840
   869   871   843   841   870   872   844   842
   871   873   845   843   872   874   846   844
   873   875   847   845   874   876   848   846
   875   877   849   847   876   878   850   848
   877   879   851   849   878   880   852   850
   879   881   853   851   880   882   854   852
   881   883   855   853   882   884   856   854
   883   885   857   855   884   886   858   856
   885   887   859   857   886   888   860   858
   789   889   861   793   791   890   862   795
   889   891   863   861   890   892   864   862
   891   893   865   863   892   894   866   864
   893   895   867   865   894   896   868   866
   895   897   869   867   896   898   870   868
   897   899   871   869   898   900   872   870
   899   901   873   871   900   902   874   872
   901   903   875   873   902   904   876   874
   903   905   877   875   904   906   878   876
   905   907   879   877   906   908   880   878
   907   909   881   879   908   910   882   880
   909   911   883   881   910   912   884   882
   911   913   885   883   912   914   886   884
   913   915   887   885   914   916   888   886
   765   917   889   789   767   918   890   791
   917   919   891   889   918   920   892   890
   919   921   893   891   920   922   894   892
   921   923   895   893   922   924   896   894
   923   925   897   895   924   926   898   896
   925   927   899   897   926   928   900   898
   927   929   901   899   928   930   902   900
   929   931   903   901   930   932   904   902
   931   933   905   903   932   934   906   904
   933   935   907   905   934   936   908   906
   935   937   909   907   936   938   910   908
   937   939   911   909   938   940   912   910
   939   941   913   911   940   942   914   912
   941   943   915   913   942   944   916   914
   941   945   946   943   942   947   948   944
   945   949   950   946   947   951   952   948
   949   953   954   950   951   955   956   952
   953   957   958   954   955   959   960   956
   939   961   945   941   940   962   947   942
   961   963   949   945   962   964   951   947
   963   965   953   949   964   966   955   951
   965   967   957   953   966   968   959   955
   937   969   961   939   938   970   962   940
   969   971   963   961   970   972   964   962
   971   973   965   963   972   974   966   964
   973   975   967   965   974   976   968   966
   935   977   969   937   936   978   970   938
   977   979   971   969   978   980   972   970
   979   981   973   971   980   982   974   972
   981   983   975   973   982   984   976   974
   933   985   977   935   934   986   978   936
   985   987   979   977   986   988   980   978
   987   989   981   979   988   990   982   980
   989   991   983   981   990   992   984   982
   931   993   985   933   932   994   986   934
   993   995   987   985   994   996   988   986
   995   997   989   987   996   998   990   988
   997   999   991   989   998  1000   992   990
   929  1001   993   931   930  1002   994   932
  1001  1003   995   993  1002  1004   996   994
  1003  1005   997   995  1004  1006   998   996
  1005  1007   999   997  1006  1008  1000   998
   927  1009  1001   929   928  1010  1002   930
  1009  1011  1003  1001  1010  1012  1004  1002
  1011  1013  1005  1003  1012  1014  1006  1004
  1013  1015  1007  1005  1014  1016  1008  1006
   925  1017  1009   927   926  1018  1010   928
  1017  1019  1011  1009  1018  1020  1012  1010
  1019  1021  1013  1011  1020  1022  1014  1012
  1021  1023  1015  1013  1022  1024  1016  1014
   923  1025  1017   925   924  1026  1018   926
  1025  1027  1019  1017  1026  1028  1020  1018
  1027  1029  1021  1019  1028  1030  1022  1020
  1029  1031  1023  1021  1030  1032  1024  1022
   921  1033  1025   923   922  1034  1026   924
  1033  1035  1027  1025  1034  1036  1028  1026
  1035  1037  1029  1027  1036  1038  1030  1028
  1037  1039  1031  1029  1038  1040  1032  1030
   919  1041  1033   921   920  1042  1034   922
  1041  1043  1035  1033  1042  1044  1036  1034
  1043  1045  1037  1035  1044  1046  1038  1036
  1045  1047  1039  1037  1046  1048  1040  1038
   917  1049  1041   919   918  1050  1042   920
  1049  1051  1043  1041  1050  1052  1044  1042
  1051  1053  1045  1043  1052  1054  1046  1044
  1053  1055  1047  1045  1054  1056  1048  1046
   765   753  1049   917   767   755  1050   918
   753   741  1051  1049   755   743  1052  1050
   741   717  1053  1051   743   721  1054  1052
   717   720  1055  1053   721   724  1056  1054
  1057   775   778  1058  1059   776   780  1060
  1057  1061   763   775  1059  1062   764   776
  1061  1063   751   763  1062  1064   752   764
  1063  1065   737   751  1064  1066   739   752
  1065  1067   738   737  1066  1068   740   739
  1065  1069  1070  1067  1066  1071  1072  1068
  1069  1073  1074  1070  1071  1075  1076  1072
  1073  1077  1078  1074  1075  1079  1080  1076
  1077  1081  1082  1078  1079  1083  1084  1080
  1081  1085  1086  1082  1083  1087  1088  1084
  1085  1089  1090  1086  1087  1091  1092  1088
  1089  1093  1094  1090  1091  1095  1096  1092
  1093  1097  1098  1094  1095  1099  1100  1096
  1097  1101  1102  1098  1099  1103  1104  1100
  1101  1105  1106  1102  1103  1107  1108  1104
  1105  1109  1110  1106  1107  1111  1112  1108
  1109  1113  1114  1110  1111  1115  1116  1112
  1113  1117  1118  1114  1115  1119  1120  1116
  1117  1121  1122  1118  1119  1123  1124  1120
  1063  1125  1069  1065  1064  1126  1071  1066
  1125  1127  1073  1069  1126  1128  1075  1071
  1127  1129  1077  1073  1128  1130  1079  1075
  1129  1131  1081  1077  1130  1132  1083  1079
  1131  1133  1085  1081  1132  1134  1087  1083
  1133  1135  1089  1085  1134  1136  1091  1087
  1135  1137  1093  1089  1136  1138  1095  1091
  1137  1139  1097  1093  1138  1140  1099  1095
  1139  1141  1101  1097  1140  1142  1103  1099
  1141  1143  1105  1101  1142  1144  1107  1103
  1143  1145  1109  1105  1144  1146  1111  1107
  1145  1147  1113  1109  1146  1148  1115  1111
  1147  1149  1117  1113  1148  1150  1119  1115
  1149  1151  1121  1117  1150  1152  1123  1119
  1061  1153  1125  1063  1062  1154  1126  1064
  1153  1155  1127  1125  1154  1156  1128  1126
  1155  1157  1129  1127  1156  1158  1130  1128
  1157  1159  1131  1129  1158  1160  1132  1130
  1159  1161  1133  1131  1160  1162  1134  1132
  1161  1163  1135  1133  1162  1164  1136  1134
  1163  1165  1137  1135  1164  1166  1138  1136
  1165  1167  1139  1137  1166  1168  1140  1138
  1167  1169  1141  1139  1168  1170  1142  1140
  1169  1171  1143  1141  1170  1172  1144  1142
  1171  1173  1145  1143  1172  1174  1146  1144
  1173  1175  1147  1145  1174  1176  1148  1146
  1175  1177  1149  1147  1176  1178  1150  1148
  1177  1179  1151  1149  1178  1180  1152  1150
  1057  1181  1153  1061  1059  1182  1154  1062
  1181  1183  1155  1153  1182  1184  1156  1154
  1183  1185  1157  1155  1184  1186  1158  1156
  1185  1187  1159  1157  1186  1188  1160  1158
  1187  1189  1161  1159  1188  1190  1162  1160
  1189  1191  1163  1161  1190  1192  1164  1162
  1191  1193  1165  1163  1192  1194  1166  1164
  1193  1195  1167  1165  1194  1196  1168  1166
  1195  1197  1169  1167  1196  1198  1170  1168
  1197  1199  1171  1169  1198  1200  1172  1170
  1199  1201  1173  1171  1200  1202  1174  1172
  1201  1203  1175  1173  1202  1204  1176  1174
  1203  1205  1177  1175  1204  1206  1178  1176
  1205  1207  1179  1177  1206  1208  1180  1178
  1205  1209  1210  1207  1206  1211  1212  1208
  1209  1213  1214  1210  1211  1215  1216  1212
  1213  1217  1218  1214  1215  1219  1220  1216
  1217  1221  1222  1218  1219  1223  1224  1220
  1221  1225  1226  1222  1223  1227  1228  1224
  1225   458   462  1226  1227   460   464  1228
  1203  1229  1209  1205  1204  1230  1211  1206
  1229  1231  1213  1209  1230  1232  1215  1211
  1231  1233  1217  1213  1232  1234  1219  1215
  1233  1235  1221  1217  1234  1236  1223  1219
  1235  1237  1225  1221  1236  1238  1227  1223
  1237   454   458  1225  1238   456   460  1227
  1201  1239  1229  1203  1202  1240  1230  1204
  1239  1241  1231  1229  1240  1242  1232  1230
  1241  1243  1233  1231  1242  1244  1234  1232
  1243  1245  1235  1233  1244  1246  1236  1234
  1245  1247  1237  1235  1246  1248  1238  1236
  1247   450   454  1237  1248   452   456  1238
  1199  1249  1239  1201  1200  1250  1240  1202
  1249  1251  1241  1239  1250  1252  1242  1240
  1251  1253  1243  1241  1252  1254  1244  1242
  1253  1255  1245  1243  1254  1256  1246  1244
  1255  1257  1247  1245  1256  1258  1248  1246
  1257   446   450  1247  1258   448   452  1248
  1197  1259  1249  1199  1198  1260  1250  1200
  1259  1261  1251  1249  1260  1262  1252  1250
  1261  1263  1253  1251  1262  1264  1254  1252
  1263  1265  1255  1253  1264  1266  1256  1254
  1265  1267  1257  1255  1266  1268  1258  1256
  1267   442   446  1257  1268   444   448  1258
  1195  1269  1259  1197  1196  1270  1260  1198
  1269  1271  1261  1259  1270  1272  1262  1260
  1271  1273  1263  1261  1272  1274  1264  1262
  1273  1275  1265  1263  1274  1276  1266  1264
  1275  1277  1267  1265  1276  1278  1268  1266
  1277   438   442  1267  1278   440   444  1268
  1193  1279  1269  1195  1194  1280  1270  1196
  1279  1281  1271  1269  1280  1282  1272  1270
  1281  1283  1273  1271  1282  1284  1274  1272
  1283  1285  1275  1273  1284  1286  1276  1274
  1285  1287  1277  1275  1286  1288  1278  1276
  1287   434   438  1277  1288   436   440  1278
  1191  1289  1279  1193  1192  1290  1280  1194
  1289  1291  1281  1279  1290  1292  1282  1280
  1291  1293  1283  1281  1292  1294  1284  1282
  1293  1295  1285  1283  1294  1296  1286  1284
  1295  1297  1287  1285  1296  1298  1288  1286
  1297   430   434  1287  1298   432   436  1288
  1189  1299  1289  1191  1190  1300  1290  1192
  1299  1301  1291  1289  1300  1302  1292  1290
  1301  1303  1293  1291  1302  1304  1294  1292
  1303  1305  1295  1293  1304  1306  1296  1294
  1305  1307  1297  1295  1306  1308  1298  1296
  1307   426   430  1297  1308   428   432  1298
  1187  1309  1299  1189  1188  1310  1300  1190
  1309  1311  1301  1299  1310  1312  1302  1300
  1311  1313  1303  1301  1312  1314  1304  1302
  1313  1315  1305  1303  1314  1316  1306  1304
  1315  1317  1307  1305  1316  1318  1308  1306
  1317   422   426  1307  1318   424   428  1308
  1185  1319  1309  1187  1186  1320  1310  1188
  1319  1321  1311  1309  1320  1322  1312  1310
  1321  1323  1313  1311  1322  1324  1314  1312
  1323  1325  1315  1313  1324  1326  1316  1314
  1325  1327  1317  1315  1326  1328  1318  1316
  1327   418   422  1317  1328   420   424  1318
  1183  1329  1319  1185  1184  1330  1320  1186
  1329  1331  1321  1319  1330  1332  1322  1320
  1331  1333  1323  1321  1332  1334  1324  1322
  1333  1335  1325  1323  1334  1336  1326  1324
  1335  1337  1327  1325  1336  1338  1328  1326
  1337   414   418  1327  1338   416   420  1328
  1181  1339  1329  1183  1182  1340  1330  1184
  1339  1341  1331  1329  1340  1342  1332  1330
  1341  1343  1333  1331  1342  1344  1334  1332
  1343  1345  1335  1333  1344  1346  1336  1334
  1345  1347  1337  1335  1346  1348  1338  1336
  1347   410   414  1337  1348   412   416  1338
  1057  1349  1339  1181  1059  1350  1340  1182
  1349  1351  1341  1339  1350  1352  1342  1340
  1351  1353  1343  1341  1352  1354  1344  1342
  1353  1355  1345  1343  1354  1356  1346  1344
  1355  1357  1347  1345  1356  1358  1348  1346
  1357   405   410  1347  1358   407   412  1348
  1357  1359   406   405  1358  1360   408   407
  1355  1361  1359  1357  1356  1362  1360  1358
  1353  1363  1361  1355  1354  1364  1362  1356
  1351  1365  1363  1353  1352  1366  1364  1354
  1349  1367  1365  1351  1350  1368  1366  1352
  1057  1058  1367  1349  1059  1060  1368  1350
     5     6     7     8  1369  1370  1371  1372
     6    11    12     7  1370  1373  1374  1371
    11    15    16    12  1373  1375  1376  1374
    15    19    20    16  1375  1377  1378  1376
    19    23    24    20  1377  1379  1380  1378
    27    28     6     5  1381  1382  1370  1369
    28    30    11     6  1382  1383  1373  1370
    30    32    15    11  1383  1384  1375  1373
    32    34    19    15  1384  1385  1377  1375
    34    36    23    19  1385  1386  1379  1377
    34    39    40    36  1385  1387  1388  1386
    39    43    44    40  1387  1389  1390  1388
    43    47    48    44  1389  1391  1392  1390
    47    51    52    48  1391  1393  1394  1392
    32    54    39    34  1384  1395  1387  1385
    54    56    43    39  1395  1396  1389  1387
    56    58    47    43  1396  1397  1391  1389
    58    60    51    47  1397  1398  1393  1391
    30    62    54    32  1383  1399  1395  1384
    62    64    56    54  1399  1400  1396  1395
    64    66    58    56  1400  1401  1397  1396
    66    68    60    58  1401  1402  1398  1397
    28    70    62    30  1382  1403  1399  1383
    70    72    64    62  1403  1404  1400  1399
    72    74    66    64  1404  1405  1401  1400
    74    76    68    66  1405  1406  1402  1401
    27    78    70    28  1381  1407  1403  1382
    78    80    72    70  1407  1408  1404  1403
    80    82    74    72  1408  1409  1405  1404
    82    84    76    74  1409  1410  1406  1405
    82    87    88    84  1409  1411  1412  1410
    87    91    92    88  1411  1413  1414  1412
    91    95    96    92  1413  1415  1416  1414
    95    99   100    96  1415  1417  1418  1416
    99   103   104   100  1417  1419  1420  1418
   103   107   108   104  1419  1421  1422  1420
   107   111   112   108  1421  1423  1424  1422
   111   115   116   112  1423  1425  1426  1424
   115   119   120   116  1425  1427  1428  1426
   119   123   124   120  1427  1429  1430  1428
   123   127   128   124  1429  1431  1432  1430
   127   131   132   128  1431  1433  1434  1432
   131   135   136   132  1433  1435  1436  1434
    80   138    87    82  1408  1437  1411  1409
   138   140    91    87  1437  1438  1413  1411
   140   142    95    91  1438  1439  1415  1413
   142   144    99    95  1439  1440  1417  1415
   144   146   103    99  1440  1441  1419  1417
   146   148   107   103  1441  1442  1421  1419
   148   150   111   107  1442  1443  1423  1421
   150   152   115   111  1443  1444  1425  1423
   152   154   119   115  1444  1445  1427  1425
   154   156   123   119  1445  1446  1429  1427
   156   158   127   123  1446  1447  1431  1429
   158   160   131   127  1447  1448  1433  1431
   160   162   135   131  1448  1449  1435  1433
    78   164   138    80  1407  1450  1437  1408
   164   166   140   138  1450  1451  1438  1437
   166   168   142   140  1451  1452  1439  1438
   168   170   144   142  1452  1453  1440  1439
   170   172   146   144  1453  1454  1441  1440
   172   174   148   146  1454  1455  1442  1441
   174   176   150   148  1455  1456  1443  1442
   176   178   152   150  1456  1457  1444  1443
   178   180   154   152  1457  1458  1445  1444
   180   182   156   154  1458  1459  1446  1445
   182   184   158   156  1459  1460  1447  1446
   184   186   160   158  1460  1461  1448  1447
   186   188   162   160  1461  1462  1449  1448
    27   190   164    78  1381  1463  1450  1407
   190   192   166   164  1463  1464  1451  1450
   192   194   168   166  1464  1465  1452  1451
   194   196   170   168  1465  1466  1453  1452
   196   198   172   170  1466  1467  1454  1453
   198   200   174   172  1467  1468  1455  1454
   200   202   176   174  1468  1469  1456  1455
   202   204   178   176  1469  1470  1457  1456
   204   206   180   178  1470  1471  1458  1457
   206   208   182   180  1471  1472  1459  1458
   208   210   184   182  1472  1473  1460  1459
   210   212   186   184  1473  1474  1461  1460
   212   214   188   186  1474  1475  1462  1461
   212   217   218   214  1474  1476  1477  1475
   217   221   222   218  1476  1478  1479  1477
   221   225   226   222  1478  1480  1481  1479
   225   229   230   226  1480  1482  1483  1481
   229   233   234   230  1482  1484  1485  1483
   210   236   217   212  1473  1486  1476  1474
   236   238   221   217  1486  1487  1478  1476
   238   240   225   221  1487  1488  1480  1478
   240   242   229   225  1488  1489  1482  1480
   242   244   233   229  1489  1490  1484  1482
   208   246   236   210  1472  1491  1486  1473
   246   248   238   236  1491  1492  1487  1486
   248   250   240   238  1492  1493  1488  1487
   250   252   242   240  1493  1494  1489  1488
   252   254   244   242  1494  1495  1490  1489
   206   256   246   208  1471  1496  1491  1472
   256   258   248   246  1496  1497  1492  1491
   258   260   250   248  1497  1498  1493  1492
   260   262   252   250  1498  1499  1494  1493
   262   264   254   252  1499  1500  1495  1494
   204   266   256   206  1470  1501  1496  1471
   266   268   258   256  1501  1502  1497  1496
   268   270   260   258  1502  1503  1498  1497
   270   272   262   260  1503  1504  1499  1498
   272   274   264   262  1504  1505  1500  1499
   202   276   266   204  1469  1506  1501  1470
   276   278   268   266  1506  1507  1502  1501
   278   280   270   268  1507  1508  1503  1502
   280   282   272   270  1508  1509  1504  1503
   282   284   274   272  1509  1510  1505  1504
   200   286   276   202  1468  1511  1506  1469
   286   288   278   276  1511  1512  1507  1506
   288   290   280   278  1512  1513  1508  1507
   290   292   282   280  1513  1514  1509  1508
   292   294   284   282  1514  1515  1510  1509
   198   296   286   200  1467  1516  1511  1468
   296   298   288   286  1516  1517  1512  1511
   298   300   290   288  1517  1518  1513  1512
   300   302   292   290  1518  1519  1514  1513
   302   304   294   292  1519  1520  1515  1514
   196   306   296   198  1466  1521  1516  1467
   306   308   298   296  1521  1522  1517  1516
   308   310   300   298  1522  1523  1518  1517
   310   312   302   300  1523  1524  1519  1518
   312   314   304   302  1524  1525  1520  1519
   194   316   306   196  1465  1526  1521  1466
   316   318   308   306  1526  1527  1522  1521
   318   320   310   308  1527  1528  1523  1522
   320   322   312   310  1528  1529  1524  1523
   322   324   314   312  1529  1530  1525  1524
   192   326   316   194  1464  1531  1526  1465
   326   328   318   316  1531  1532  1527  1526
   328   330   320   318  1532  1533  1528  1527
   330   332   322   320  1533  1534  1529  1528
   332   334   324   322  1534  1535  1530  1529
   190   336   326   192  1463  1536  1531  1464
   336   338   328   326  1536  1537  1532  1531
   338   340   330   328  1537  1538  1533  1532
   340   342   332   330  1538  1539  1534  1533
   342   344   334   332  1539  1540  1535  1534
    27   346   336   190  1381  1541  1536  1463
   346   348   338   336  1541  1542  1537  1536
   348   350   340   338  1542  1543  1538  1537
   350   352   342   340  1543  1544  1539  1538
   352   354   344   342  1544  1545  1540  1539
   352   357   358   354  1544  1546  1547  1545
   357   361   362   358  1546  1548  1549  1547
   350   364   357   352  1543  1550  1546  1544
   364   366   361   357  1550  1551  1548  1546
   348   368   364   350  1542  1552  1550  1543
   368   370   366   364  1552  1553  1551  1550
   346   372   368   348  1541  1554  1552  1542
   372   374   370   368  1554  1555  1553  1552
    27     5   372   346  1381  1369  1554  1541
     5     8   374   372  1369  1372  1555  1554
   377    48    52   378  1556  1392  1394  1557
   380    44    48   377  1558  1390  1392  1556
   382    40    44   380  1559  1388  1390  1558
   384    36    40   382  1560  1386  1388  1559
   386    23    36   384  1561  1379  1386  1560
   386   388    24    23  1561  1562  1380  1379
   386   391   392   388  1561  1563  1564  1562
   391   395   396   392  1563  1565  1566  1564
   395   399   400   396  1565  1567  1568  1566
   399   403   404   400  1567  1569  1570  1568
   403   407   408   404  1569  1571  1572  1570
   403   411   412   407  1569  1573  1574  1571
   411   415   416   412  1573  1575  1576  1574
   415   419   420   416  1575  1577  1578  1576
   419   423   424   420  1577  1579  1580  1578
   423   427   428   424  1579  1581  1582  1580
   427   431   432   428  1581  1583  1584  1582
   431   435   436   432  1583  1585  1586  1584
   435   439   440   436  1585  1587  1588  1586
   439   443   444   440  1587  1589  1590  1588
   443   447   448   444  1589  1591  1592  1590
   447   451   452   448  1591  1593  1594  1592
   451   455   456   452  1593  1595  1596  1594
   455   459   460   456  1595  1597  1598  1596
   459   463   464   460  1597  1599  1600  1598
   399   466   411   403  1567  1601  1573  1569
   466   468   415   411  1601  1602  1575  1573
   468   470   419   415  1602  1603  1577  1575
   470   472   423   419  1603  1604  1579  1577
   472   474   427   423  1604  1605  1581  1579
   474   476   431   427  1605  1606  1583  1581
   476   478   435   431  1606  1607  1585  1583
   478   480   439   435  1607  1608  1587  1585
   480   482   443   439  1608  1609  1589  1587
   482   484   447   443  1609  1610  1591  1589
   484   486   451   447  1610  1611  1593  1591
   486   488   455   451  1611  1612  1595  1593
   488   490   459   455  1612  1613  1597  1595
   490   492   463   459  1613  1614  1599  1597
   395   494   466   399  1565  1615  1601  1567
   494   496   468   466  1615  1616  1602  1601
   496   498   470   468  1616  1617  1603  1602
   498   500   472   470  1617  1618  1604  1603
   500   502   474   472  1618  1619  1605  1604
   502   504   476   474  1619  1620  1606  1605
   504   506   478   476  1620  1621  1607  1606
   506   508   480   478  1621  1622  1608  1607
   508   510   482   480  1622  1623  1609  1608
   510   512   484   482  1623  1624  1610  1609
   512   514   486   484  1624  1625  1611  1610
   514   516   488   486  1625  1626  1612  1611
   516   518   490   488  1626  1627  1613  1612
   518   520   492   490  1627  1628  1614  1613
   391   522   494   395  1563  1629  1615  1565
   522   524   496   494  1629  1630  1616  1615
   524   526   498   496  1630  1631  1617  1616
   526   528   500   498  1631  1632  1618  1617
   528   530   502   500  1632  1633  1619  1618
   530   532   504   502  1633  1634  1620  1619
   532   534   506   504  1634  1635  1621  1620
   534   536   508   506  1635  1636  1622  1621
   536   538   510   508  1636  1637  1623  1622
   538   540   512   510  1637  1638  1624  1623
   540   542   514   512  1638  1639  1625  1624
   542   544   516   514  1639  1640  1626  1625
   544   546   518   516  1640  1641  1627  1626
   546   548   520   518  1641  1642  1628  1627
   386   550   522   391  1561  1643  1629  1563
   550   552   524   522  1643  1644  1630  1629
   552   554   526   524  1644  1645  1631  1630
   554   556   528   526  1645  1646  1632  1631
   556   558   530   528  1646  1647  1633  1632
   558   560   532   530  1647  1648  1634  1633
   560   562   534   532  1648  1649  1635  1634
   562   564   536   534  1649  1650  1636  1635
   564   566   538   536  1650  1651  1637  1636
   566   568   540   538  1651  1652  1638  1637
   568   570   542   540  1652  1653  1639  1638
   570   572   544   542  1653  1654  1640  1639
   572   574   546   544  1654  1655  1641  1640
   574   576   548   546  1655  1656  1642  1641
   574   579   580   576  1655  1657  1658  1656
   579   583   584   580  1657  1659  1660  1658
   583   587   588   584  1659  1661  1662  1660
   587   591   592   588  1661  1663  1664  1662
   591   595   596   592  1663  1665  1666  1664
   572   598   579   574  1654  1667  1657  1655
   598   600   583   579  1667  1668  1659  1657
   600   602   587   583  1668  1669  1661  1659
   602   604   591   587  1669  1670  1663  1661
   604   606   595   591  1670  1671  1665  1663
   570   608   598   572  1653  1672  1667  1654
   608   610   600   598  1672  1673  1668  1667
   610   612   602   600  1673  1674  1669  1668
   612   614   604   602  1674  1675  1670  1669
   614   616   606   604  1675  1676  1671  1670
   568   618   608   570  1652  1677  1672  1653
   618   620   610   608  1677  1678  1673  1672
   620   622   612   610  1678  1679  1674  1673
   622   624   614   612  1679  1680  1675  1674
   624   626   616   614  1680  1681  1676  1675
   566   628   618   568  1651  1682  1677  1652
   628   630   620   618  1682  1683  1678  1677
   630   632   622   620  1683  1684  1679  1678
   632   634   624   622  1684  1685  1680  1679
   634   636   626   624  1685  1686  1681  1680
   564   638   628   566  1650  1687  1682  1651
   638   640   630   628  1687  1688  1683  1682
   640   642   632   630  1688  1689  1684  1683
   642   644   634   632  1689  1690  1685  1684
   644   646   636   634  1690  1691  1686  1685
   562   648   638   564  1649  1692  1687  1650
   648   650   640   638  1692  1693  1688  1687
   650   652   642   640  1693  1694  1689  1688
   652   654   644   642  1694  1695  1690  1689
   654   656   646   644  1695  1696  1691  1690
   560   658   648   562  1648  1697  1692  1649
   658   660   650   648  1697  1698  1693  1692
   660   662   652   650  1698  1699  1694  1693
   662   664   654   652  1699  1700  1695  1694
   664   666   656   654  1700  1701  1696  1695
   558   668   658   560  1647  1702  1697  1648
   668   670   660   658  1702  1703  1698  1697
   670   672   662   660  1703  1704  1699  1698
   672   674   664   662  1704  1705  1700  1699
   674   676   666   664  1705  1706  1701  1700
   556   678   668   558  1646  1707  1702  1647
   678   680   670   668  1707  1708  1703  1702
   680   682   672   670  1708  1709  1704  1703
   682   684   674   672  1709  1710  1705  1704
   684   686   676   674  1710  1711  1706  1705
   554   688   678   556  1645  1712  1707  1646
   688   690   680   678  1712  1713  1708  1707
   690   692   682   680  1713  1714  1709  1708
   692   694   684   682  1714  1715  1710  1709
   694   696   686   684  1715  1716  1711  1710
   552   698   688   554  1644  1717  1712  1645
   698   700   690   688  1717  1718  1713  1712
   700   702   692   690  1718  1719  1714  1713
   702   704   694   692  1719  1720  1715  1714
   704   706   696   694  1720  1721  1716  1715
   550   708   698   552  1643  1722  1717  1644
   708   710   700   698  1722  1723  1718  1717
   710   712   702   700  1723  1724  1719  1718
   712   714   704   702  1724  1725  1720  1719
   714   716   706   704  1725  1726  1721  1720
   386   384   708   550  1561  1560  1722  1643
   384   382   710   708  1560  1559  1723  1722
   382   380   712   710  1559  1558  1724  1723
   380   377   714   712  1558  1556  1725  1724
   377   378   716   714  1556  1557  1726  1725
   721   722   723   724  1727  1728  1729  1730
   722   727   728   723  1728  1731  1732  1729
   727   731   732   728  1731  1733  1734  1732
   731   735   736   732  1733  1735  1736  1734
   735   739   740   736  1735  1737  1738  1736
   743   744   722   721  1739  1740  1728  1727
   744   746   727   722  1740  1741  1731  1728
   746   748   731   727  1741  1742  1733  1731
   748   750   735   731  1742  1743  1735  1733
   750   752   739   735  1743  1744  1737  1735
   755   756   744   743  1745  1746  1740  1739
   756   758   746   744  1746  1747  1741  1740
   758   760   748   746  1747  1748  1742  1741
   760   762   750   748  1748  1749  1743  1742
   762   764   752   750  1749  1750  1744  1743
   767   768   756   755  1751  1752  1746  1745
   768   770   758   756  1752  1753  1747  1746
   770   772   760   758  1753  1754  1748  1747
   772   774   762   760  1754  1755  1749  1748
   774   776   764   762  1755  1756  1750  1749
   774   779   780   776  1755  1757  1758  1756
   772   782   779   774  1754  1759  1757  1755
   770   784   782   772  1753  1760  1759  1754
   768   786   784   770  1752  1761  1760  1753
   767   788   786   768  1751  1762  1761  1752
   767   791   792   788  1751  1763  1764  1762
   791   795   796   792  1763  1765  1766  1764
   795   799   800   796  1765  1767  1768  1766
   799   803   804   800  1767  1769  1770  1768
   803   358   362   804  1769  1547  1549  1770
   803   806   354   358  1769  1771  1545  1547
   806   808   344   354  1771  1772  1540  1545
   808   810   334   344  1772  1773  1535  1540
   810   812   324   334  1773  1774  1530  1535
   812   814   314   324  1774  1775  1525  1530
   814   816   304   314  1775  1776  1520  1525
   816   818   294   304  1776  1777  1515  1520
   818   820   284   294  1777  1778  1510  1515
   820   822   274   284  1778  1779  1505  1510
   822   824   264   274  1779  1780  1500  1505
   824   826   254   264  1780  1781  1495  1500
   826   828   244   254  1781  1782  1490  1495
   828   830   233   244  1782  1783  1484  1490
   830   832   234   233  1783  1784  1485  1484
   799   834   806   803  1767  1785  1771  1769
   834   836   808   806  1785  1786  1772  1771
   836   838   810   808  1786  1787  1773  1772
   838   840   812   810  1787  1788  1774  1773
   840   842   814   812  1788  1789  1775  1774
   842   844   816   814  1789  1790  1776  1775
   844   846   818   816  1790  1791  1777  1776
   846   848   820   818  1791  1792  1778  1777
   848   850   822   820  1792  1793  1779  1778
   850   852   824   822  1793  1794  1780  1779
   852   854   826   824  1794  1795  1781  1780
   854   856   828   826  1795  1796  1782  1781
   856   858   830   828  1796  1797  1783  1782
   858   860   832   830  1797  1798  1784  1783
   795   862   834   799  1765  1799  1785  1767
   862   864   836   834  1799  1800  1786  1785
   864   866   838   836  1800  1801  1787  1786
   866   868   840   838  1801  1802  1788  1787
   868   870   842   840  1802  1803  1789  1788
   870   872   844   842  1803  1804  1790  1789
   872   874   846   844  1804  1805  1791  1790
   874   876   848   846  1805  1806  1792  1791
   876   878   850   848  1806  1807  1793  1792
   878   880   852   850  1807  1808  1794  1793
   880   882   854   852  1808  1809  1795  1794
   882   884   856   854  1809  1810  1796  1795
   884   886   858   856  1810  1811  1797  1796
   886   888   860   858  1811  1812  1798  1797
   791   890   862   795  1763  1813  1799  1765
   890   892   864   862  1813  1814  1800  1799
   892   894   866   864  1814  1815  1801  1800
   894   896   868   866  1815  1816  1802  1801
   896   898   870   868  1816  1817  1803  1802
   898   900   872   870  1817  1818  1804  1803
   900   902   874   872  1818  1819  1805  1804
   902   904   876   874  1819  1820  1806  1805
   904   906   878   876  1820  1821  1807  1806
   906   908   880   878  1821  1822  1808  1807
   908   910   882   880  1822  1823  1809  1808
   910   912   884   882  1823  1824  1810  1809
   912   914   886   884  1824  1825  1811  1810
   914   916   888   886  1825  1826  1812  1811
   767   918   890   791  1751  1827  1813  1763
   918   920   892   890  1827  1828  1814  1813
   920   922   894   892  1828  1829  1815  1814
   922   924   896   894  1829  1830  1816  1815
   924   926   898   896  1830  1831  1817  1816
   926   928   900   898  1831  1832  1818  1817
   928   930   902   900  1832  1833  1819  1818
   930   932   904   902  1833  1834  1820  1819
   932   934   906   904  1834  1835  1821  1820
   934   936   908   906  1835  1836  1822  1821
   936   938   910   908  1836  1837  1823  1822
   938   940   912   910  1837  1838  1824  1823
   940   942   914   912  1838  1839  1825  1824
   942   944   916   914  1839  1840  1826  1825
   942   947   948   944  1839  1841  1842  1840
   947   951   952   948  1841  1843  1844  1842
   951   955   956   952  1843  1845  1846  1844
   955   959   960   956  1845  1847  1848  1846
   940   962   947   942  1838  1849  1841  1839
   962   964   951   947  1849  1850  1843  1841
   964   966   955   951  1850  1851  1845  1843
   966   968   959   955  1851  1852  1847  1845
   938   970   962   940  1837  1853  1849  1838
   970   972   964   962  1853  1854  1850  1849
   972   974   966   964  1854  1855  1851  1850
   974   976   968   966  1855  1856  1852  1851
   936   978   970   938  1836  1857  1853  1837
   978   980   972   970  1857  1858  1854  1853
   980   982   974   972  1858  1859  1855  1854
   982   984   976   974  1859  1860  1856  1855
   934   986   978   936  1835  1861  1857  1836
   986   988   980   978  1861  1862  1858  1857
   988   990   982   980  1862  1863  1859  1858
   990   992   984   982  1863  1864  1860  1859
   932   994   986   934  1834  1865  1861  1835
   994   996   988   986  1865  1866  1862  1861
   996   998   990   988  1866  1867  1863  1862
   998  1000   992   990  1867  1868  1864  1863
   930  1002   994   932  1833  1869  1865  1834
  1002  1004   996   994  1869  1870  1866  1865
  1004  1006   998   996  1870  1871  1867  1866
  1006  1008  1000   998  1871  1872  1868  1867
   928  1010  1002   930  1832  1873  1869  1833
  1010  1012  1004  1002  1873  1874  1870  1869
  1012  1014  1006  1004  1874  1875  1871  1870
  1014  1016  1008  1006  1875  1876  1872  1871
   926  1018  1010   928  1831  1877  1873  1832
  1018  1020  1012  1010  1877  1878  1874  1873
  1020  1022  1014  1012  1878  1879  1875  1874
  1022  1024  1016  1014  1879  1880  1876  1875
   924  1026  1018   926  1830  1881  1877  1831
  1026  1028  1020  1018  1881  1882  1878  1877
  1028  1030  1022  1020  1882  1883  1879  1878
  1030  1032  1024  1022  1883  1884  1880  1879
   922  1034  1026   924  1829  1885  1881  1830
  1034  1036  1028  1026  1885  1886  1882  1881
  1036  1038  1030  1028  1886  1887  1883  1882
  1038  1040  1032  1030  1887  1888  1884  1883
   920  1042  1034   922  1828  1889  1885  1829
  1042  1044  1036  1034  1889  1890  1886  1885
  1044  1046  1038  1036  1890  1891  1887  1886
  1046  1048  1040  1038  1891  1892  1888  1887
   918  1050  1042   920  1827  1893  1889  1828
  1050  1052  1044  1042  1893  1894  1890  1889
  1052  1054  1046  1044  1894  1895  1891  1890
  1054  1056  1048  1046  1895  1896  1892  1891
   767   755  1050   918  1751  1745  1893  1827
   755   743  1052  1050  1745  1739  1894  1893
   743   721  1054  1052  1739  1727  1895  1894
   721   724  1056  1054  1727  1730  1896  1895
  1059   776   780  1060  1897  1756  1758  1898
  1059  1062   764   776  1897  1899  1750  1756
  1062  1064   752   764  1899  1900  1744  1750
  1064  1066   739   752  1900  1901  1737  1744
  1066  1068   740   739  1901  1902  1738  1737
  1066  1071  1072  1068  1901  1903  1904  1902
  1071  1075  1076  1072  1903  1905  1906  1904
  1075  1079  1080  1076  1905  1907  1908  1906
  1079  1083  1084  1080  1907  1909  1910  1908
  1083  1087  1088  1084  1909  1911  1912  1910
  1087  1091  1092  1088  1911  1913  1914  1912
  1091  1095  1096  1092  1913  1915  1916  1914
  1095  1099  1100  1096  1915  1917  1918  1916
  1099  1103  1104  1100  1917  1919  1920  1918
  1103  1107  1108  1104  1919  1921  1922  1920
  1107  1111  1112  1108  1921  1923  1924  1922
  1111  1115  1116  1112  1923  1925  1926  1924
  1115  1119  1120  1116  1925  1927  1928  1926
  1119  1123  1124  1120  1927  1929  1930  1928
  1064  1126  1071  1066  1900  1931  1903  1901
  1126  1128  1075  1071  1931  1932  1905  1903
  1128  1130  1079  1075  1932  1933  1907  1905
  1130  1132  1083  1079  1933  1934  1909  1907
  1132  1134  1087  1083  1934  1935  1911  1909
  1134  1136  1091  1087  1935  1936  1913  1911
  1136  1138  1095  1091  1936  1937  1915  1913
  1138  1140  1099  1095  1937  1938  1917  1915
  1140  1142  1103  1099  1938  1939  1919  1917
  1142  1144  1107  1103  1939  1940  1921  1919
  1144  1146  1111  1107  1940  1941  1923  1921
  1146  1148  1115  1111  1941  1942  1925  1923
  1148  1150  1119  1115  1942  1943  1927  1925
  1150  1152  1123  1119  1943  1944  1929  1927
  1062  1154  1126  1064  1899  1945  1931  1900
  1154  1156  1128  1126  1945  1946  1932  1931
  1156  1158  1130  1128  1946  1947  1933  1932
  1158  1160  1132  1130  1947  1948  1934  1933
  1160  1162  1134  1132  1948  1949  1935  1934
  1162  1164  1136  1134  1949  1950  1936  1935
  1164  1166  1138  1136  1950  1951  1937  1936
  1166  1168  1140  1138  1951  1952  1938  1937
  1168  1170  1142  1140  1952  1953  1939  1938
  1170  1172  1144  1142  1953  1954  1940  1939
  1172  1174  1146  1144  1954  1955  1941  1940
  1174  1176  1148  1146  1955  1956  1942  1941
  1176  1178  1150  1148  1956  1957  1943  1942
  1178  1180  1152  1150  1957  1958  1944  1943
  1059  1182  1154  1062  1897  1959  1945  1899
  1182  1184  1156  1154  1959  1960  1946  1945
  1184  1186  1158  1156  1960  1961  1947  1946
  1186  1188  1160  1158  1961  1962  1948  1947
  1188  1190  1162  1160  1962  1963  1949  1948
  1190  1192  1164  1162  1963  1964  1950  1949
  1192  1194  1166  1164  1964  1965  1951  1950
  1194  1196  1168  1166  1965  1966  1952  1951
  1196  1198  1170  1168  1966  1967  1953  1952
  1198  1200  1172  1170  1967  1968  1954  1953
  1200  1202  1174  1172  1968  1969  1955  1954
  1202  1204  1176  1174  1969  1970  1956  1955
  1204  1206  1178  1176  1970  1971  1957  1956
  1206  1208  1180  1178  1971  1972  1958  1957
  1206  1211  1212  1208  1971  1973  1974  1972
  1211  1215  1216  1212  1973  1975  1976  1974
  1215  1219  1220  1216  1975  1977  1978  1976
  1219  1223  1224  1220  1977  1979  1980  1978
  1223  1227  1228  1224  1979  1981  1982  1980
  1227   460   464  1228  1981  1598  1600  1982
  1204  1230  1211  1206  1970  1983  1973  1971
  1230  1232  1215  1211  1983  1984  1975  1973
  1232  1234  1219  1215  1984  1985  1977  1975
  1234  1236  1223  1219  1985  1986  1979  1977
  1236  1238  1227  1223  1986  1987  1981  1979
  1238   456   460  1227  1987  1596  1598  1981
  1202  1240  1230  1204  1969  1988  1983  1970
  1240  1242  1232  1230  1988  1989  1984  1983
  1242  1244  1234  1232  1989  1990  1985  1984
  1244  1246  1236  1234  1990  1991  1986  1985
  1246  1248  1238  1236  1991  1992  1987  1986
  1248   452   456  1238  1992  1594  1596  1987
  1200  1250  1240  1202  1968  1993  1988  1969
  1250  1252  1242  1240  1993  1994  1989  1988
  1252  1254  1244  1242  1994  1995  1990  1989
  1254  1256  1246  1244  1995  1996  1991  1990
  1256  1258  1248  1246  1996  1997  1992  1991
  1258   448   452  1248  1997  1592  1594  1992
  1198  1260  1250  1200  1967  1998  1993  1968
  1260  1262  1252  1250  1998  1999  1994  1993
  1262  1264  1254  1252  1999  2000  1995  1994
  1264  1266  1256  1254  2000  2001  1996  1995
  1266  1268  1258  1256  2001  2002  1997  1996
  1268   444   448  1258  2002  1590  1592  1997
  1196  1270  1260  1198  1966  2003  1998  1967
  1270  1272  1262  1260  2003  2004  1999  1998
  1272  1274  1264  1262  2004  2005  2000  1999
  1274  1276  1266  1264  2005  2006  2001  2000
  1276  1278  1268  1266  2006  2007  2002  2001
  1278   440   444  1268  2007  1588  1590  2002
  1194  1280  1270  1196  1965  2008  2003  1966
  1280  1282  1272  1270  2008  2009  2004  2003
  1282  1284  1274  1272  2009  2010  2005  2004
  1284  1286  1276  1274  2010  2011  2006  2005
  1286  1288  1278  1276  2011  2012  2007  2006
  1288   436   440  1278  2012  1586  1588  2007
  1192  1290  1280  1194  1964  2013  2008  1965
  1290  1292  1282  1280  2013  2014  2009  2008
  1292  1294  1284  1282  2014  2015  2010  2009
  1294  1296  1286  1284  2015  2016  2011  2010
  1296  1298  1288  1286  2016  2017  2012  2011
  1298   432   436  1288  2017  1584  1586  2012
  1190  1300  1290  1192  1963  2018  2013  1964
  1300  1302  1292  1290  2018  2019  2014  2013
  1302  1304  1294  1292  2019  2020  2015  2014
  1304  1306  1296  1294  2020  2021  2016  2015
  1306  1308  1298  1296  2021  2022  2017  2016
  1308   428   432  1298  2022  1582  1584  2017
  1188  1310  1300  1190  1962  2023  2018  1963
  1310  1312  1302  1300  2023  2024  2019  2018
  1312  1314  1304  1302  2024  2025  2020  2019
  1314  1316  1306  1304  2025  2026  2021  2020
  1316  1318  1308  1306  2026  2027  2022  2021
  1318   424   428  1308  2027  1580  1582  2022
  1186  1320  1310  1188  1961  2028  2023  1962
  1320  1322  1312  1310  2028  2029  2024  2023
  1322  1324  1314  1312  2029  2030  2025  2024
  1324  1326  1316  1314  2030  2031  2026  2025
  1326  1328  1318  1316  2031  2032  2027  2026
  1328   420   424  1318  2032  1578  1580  2027
  1184  1330  1320  1186  1960  2033  2028  1961
  1330  1332  1322  1320  2033  2034  2029  2028
  1332  1334  1324  1322  2034  2035  2030  2029
  1334  1336  1326  1324  2035  2036  2031  2030
  1336  1338  1328  1326  2036  2037  2032  2031
  1338   416   420  1328  2037  1576  1578  2032
  1182  1340  1330  1184  1959  2038  2033  1960
  1340  1342  1332  1330  2038  2039  2034  2033
  1342  1344  1334  1332  2039  2040  2035  2034
  1344  1346  1336  1334  2040  2041  2036  2035
  1346  1348  1338  1336  2041  2042  2037  2036
  1348   412   416  1338  2042  1574  1576  2037
  1059  1350  1340  1182  1897  2043  2038  1959
  1350  1352  1342  1340  2043  2044  2039  2038
  1352  1354  1344  1342  2044  2045  2040  2039
  1354  1356  1346  1344  2045  2046  2041  2040
  1356  1358  1348  1346  2046  2047  2042  2041
  1358   407   412  1348  2047  1571  1574  2042
  1358  1360   408   407  2047  2048  1572  1571
  1356  1362  1360  1358  2046  2049  2048  2047
  1354  1364  1362  1356  2045  2050  2049  2046
  1352  1366  1364  1354  2044  2051  2050  2045
  1350  1368  1366  1352  2043  2052  2051  2044
  1059  1060  1368  1350  1897  1898  2052  2043
  1369  1370  1371  1372  2053  2054  2055  2056
  1370  1373  1374  1371  2054  2057  2058  2055
  1373  1375  1376  1374  2057  2059  2060  2058
  1375  1377  1378  1376  2059  2061  2062  2060
  1377  1379  1380  1378  2061  2063  2064  2062
  1381  1382  1370  1369  2065  2066  2054  2053
  1382  1383  1373  1370  2066  2067  2057  2054
  1383  1384  1375  1373  2067  2068  2059  2057
  1384  1385  1377  1375  2068  2069  2061  2059
  1385  1386  1379  1377  2069  2070  2063  2061
  1385  1387  1388  1386  2069  2071  2072  2070
  1387  1389  1390  1388  2071  2073  2074  2072
  1389  1391  1392  1390  2073  2075  2076  2074
  1391  1393  1394  1392  2075  2077  2078  2076
  1384  1395  1387  1385  2068  2079  2071  2069
  1395  1396  1389  1387  2079  2080  2073  2071
  1396  1397  1391  1389  2080  2081  2075  2073
  1397  1398  1393  1391  2081  2082  2077  2075
  1383  1399  1395  1384  2067  2083  2079  2068
  1399  1400  1396  1395  2083  2084  2080  2079
  1400  1401  1397  1396  2084  2085  2081  2080
  1401  1402  1398  1397  2085  2086  2082  2081
  1382  1403  1399  1383  2066  2087  2083  2067
  1403  1404  1400  1399  2087  2088  2084  2083
  1404  1405  1401  1400  2088  2089  2085  2084
  1405  1406  1402  1401  2089  2090  2086  2085
  1381  1407  1403  1382  2065  2091  2087  2066
  1407  1408  1404  1403  2091  2092  2088  2087
  1408  1409  1405  1404  2092  2093  2089  2088
  1409  1410  1406  1405  2093  2094  2090  2089
  1409  1411  1412  1410  2093  2095  2096  2094
  1411  1413  1414  1412  2095  2097  2098  2096
  1413  1415  1416  1414  2097  2099  2100  2098
  1415  1417  1418  1416  2099  2101  2102  2100
  1417  1419  1420  1418  2101  2103  2104  2102
  1419  1421  1422  1420  2103  2105  2106  2104
  1421  1423  1424  1422  2105  2107  2108  2106
  1423  1425  1426  1424  2107  2109  2110  2108
  1425  1427  1428  1426  2109  2111  2112  2110
  1427  1429  1430  1428  2111  2113  2114  2112
  1429  1431  1432  1430  2113  2115  2116  2114
  1431  1433  1434  1432  2115  2117  2118  2116
  1433  1435  1436  1434  2117  2119  2120  2118
  1408  1437  1411  1409  2092  2121  2095  2093
  1437  1438  1413  1411  2121  2122  2097  2095
  1438  1439  1415  1413  2122  2123  2099  2097
  1439  1440  1417  1415  2123  2124  2101  2099
  1440  1441  1419  1417  2124  2125  2103  2101
  1441  1442  1421  1419  2125  2126  2105  2103
  1442  1443  1423  1421  2126  2127  2107  2105
  1443  1444  1425  1423  2127  2128  2109  2107
  1444  1445  1427  1425  2128  2129  2111  2109
  1445  1446  1429  1427  2129  2130  2113  2111
  1446  1447  1431  1429  2130  2131  2115  2113
  1447  1448  1433  1431  2131  2132  2117  2115
  1448  1449  1435  1433  2132  2133  2119  2117
  1407  1450  1437  1408  2091  2134  2121  2092
  1450  1451  1438  1437  2134  2135  2122  2121
  1451  1452  1439  1438  2135  2136  2123  2122
  1452  1453  1440  1439  2136  2137  2124  2123
  1453  1454  1441  1440  2137  2138  2125  2124
  1454  1455  1442  1441  2138  2139  2126  2125
  1455  1456  1443  1442  2139  2140  2127  2126
  1456  1457  1444  1443  2140  2141  2128  2127
  1457  1458  1445  1444  2141  2142  2129  2128
  1458  1459  1446  1445  2142  2143  2130  2129
  1459  1460  1447  1446  2143  2144  2131  2130
  1460  1461  1448  1447  2144  2145  2132  2131
  1461  1462  1449  1448  2145  2146  2133  2132
  1381  1463  1450  1407  2065  2147  2134  2091
  1463  1464  1451  1450  2147  2148  2135  2134
  1464  1465  1452  1451  2148  2149  2136  2135
  1465  1466  1453  1452  2149  2150  2137  2136
  1466  1467  1454  1453  2150  2151  2138  2137
  1467  1468  1455  1454  2151  2152  2139  2138
  1468  1469  1456  1455  2152  2153  2140  2139
  1469  1470  1457  1456  2153  2154  2141  2140
  1470  1471  1458  1457  2154  2155  2142  2141
  1471  1472  1459  1458  2155  2156  2143  2142
  1472  1473  1460  1459  2156  2157  2144  2143
  1473  1474  1461  1460  2157  2158  2145  2144
  1474  1475  1462  1461  2158  2159  2146  2145
  1474  1476  1477  1475  2158  2160  2161  2159
  1476  1478  1479  1477  2160  2162  2163  2161
  1478  1480  1481  1479  2162  2164  2165  2163
  1480  1482  1483  1481  2164  2166  2167  2165
  1482  1484  1485  1483  2166  2168  2169  2167
  1473  1486  1476  1474  2157  2170  2160  2158
  1486  1487  1478  1476  2170  2171  2162  2160
  1487  1488  1480  1478  2171  2172  2164  2162
  1488  1489  1482  1480  2172  2173  2166  2164
  1489  1490  1484  1482  2173  2174  2168  2166
  1472  1491  1486  1473  2156  2175  2170  2157
  1491  1492  1487  1486  2175  2176  2171  2170
  1492  1493  1488  1487  2176  2177  2172  2171
  1493  1494  1489  1488  2177  2178  2173  2172
  1494  1495  1490  1489  2178  2179  2174  2173
  1471  1496  1491  1472  2155  2180  2175  2156
  1496  1497  1492  1491  2180  2181  2176  2175
  1497  1498  1493  1492  2181  2182  2177  2176
  1498  1499  1494  1493  2182  2183  2178  2177
  1499  1500  1495  1494  2183  2184  2179  2178
  1470  1501  1496  1471  2154  2185  2180  2155
  1501  1502  1497  1496  2185  2186  2181  2180
  1502  1503  1498  1497  2186  2187  2182  2181
  1503  1504  1499  1498  2187  2188  2183  2182
  1504  1505  1500  1499  2188  2189  2184  2183
  1469  1506  1501  1470  2153  2190  2185  2154
  1506  1507  1502  1501  2190  2191  2186  2185
  1507  1508  1503  1502  2191  2192  2187  2186
  1508  1509  1504  1503  2192  2193  2188  2187
  1509  1510  1505  1504  2193  2194  2189  2188
  1468  1511  1506  1469  2152  2195  2190  2153
  1511  1512  1507  1506  2195  2196  2191  2190
  1512  1513  1508  1507  2196  2197  2192  2191
  1513  1514  1509  1508  2197  2198  2193  2192
  1514  1515  1510  1509  2198  2199  2194  2193
  1467  1516  1511  1468  2151  2200  2195  2152
  1516  1517  1512  1511  2200  2201  2196  2195
  1517  1518  1513  1512  2201  2202  2197  2196
  1518  1519  1514  1513  2202  2203  2198  2197
  1519  1520  1515  1514  2203  2204  2199  2198
  1466  1521  1516  1467  2150  2205  2200  2151
  1521  1522  1517  1516  2205  2206  2201  2200
  1522  1523  1518  1517  2206  2207  2202  2201
  1523  1524  1519  1518  2207  2208  2203  2202
  1524  1525  1520  1519  2208  2209  2204  2203
  1465  1526  1521  1466  2149  2210  2205  2150
  1526  1527  1522  1521  2210  2211  2206  2205
  1527  1528  1523  1522  2211  2212  2207  2206
  1528  1529  1524  1523  2212  2213  2208  2207
  1529  1530  1525  1524  2213  2214  2209  2208
  1464  1531  1526  1465  2148  2215  2210  2149
  1531  1532  1527  1526  2215  2216  2211  2210
  1532  1533  1528  1527  2216  2217  2212  2211
  1533  1534  1529  1528  2217  2218  2213  2212
  1534  1535  1530  1529  2218  2219  2214  2213
  1463  1536  1531  1464  2147  2220  2215  2148
  1536  1537  1532  1531  2220  2221  2216  2215
  1537  1538  1533  1532  2221  2222  2217  2216
  1538  1539  1534  1533  2222  2223  2218  2217
  1539  1540  1535  1534  2223  2224  2219  2218
  1381  1541  1536  1463  2065  2225  2220  2147
  1541  1542  1537  1536  2225  2226  2221  2220
  1542  1543  1538  1537  2226  2227  2222  2221
  1543  1544  1539  1538  2227  2228  2223  2222
  1544  1545  1540  1539  2228  2229  2224  2223
  1544  1546  1547  1545  2228  2230  2231  2229
  1546  1548  1549  1547  2230  2232  2233  2231
  1543  1550  1546  1544  2227  2234  2230  2228
  1550  1551  1548  1546  2234  2235  2232  2230
  1542  1552  1550  1543  2226  2236  2234  2227
  1552  1553  1551  1550  2236  2237  2235  2234
  1541  1554  1552  1542  2225  2238  2236  2226
  1554  1555  1553  1552  2238  2239  2237  2236
  1381  1369  1554  1541  2065  2053  2238  2225
  1369  1372  1555  1554  2053  2056  2239  2238
  1556  1392  1394  1557  2240  2076  2078  2241
  1558  1390  1392  1556  2242  2074  2076  2240
  1559  1388  1390  1558  2243  2072  2074  2242
  1560  1386  1388  1559  2244  2070  2072  2243
  1561  1379  1386  1560  2245  2063  2070  2244
  1561  1562  1380  1379  2245  2246  2064  2063
  1561  1563  1564  1562  2245  2247  2248  2246
  1563  1565  1566  1564  2247  2249  2250  2248
  1565  1567  1568  1566  2249  2251  2252  2250
  1567  1569  1570  1568  2251  2253  2254  2252
  1569  1571  1572  1570  2253  2255  2256  2254
  1569  1573  1574  1571  2253  2257  2258  2255
  1573  1575  1576  1574  2257  2259  2260  2258
  1575  1577  1578  1576  2259  2261  2262  2260
  1577  1579  1580  1578  2261  2263  2264  2262
  1579  1581  1582  1580  2263  2265  2266  2264
  1581  1583  1584  1582  2265  2267  2268  2266
  1583  1585  1586  1584  2267  2269  2270  2268
  1585  1587  1588  1586  2269  2271  2272  2270
  1587  1589  1590  1588  2271  2273  2274  2272
  1589  1591  1592  1590  2273  2275  2276  2274
  1591  1593  1594  1592  2275  2277  2278  2276
  1593  1595  1596  1594  2277  2279  2280  2278
  1595  1597  1598  1596  2279  2281  2282  2280
  1597  1599  1600  1598  2281  2283  2284  2282
  1567  1601  1573  1569  2251  2285  2257  2253
  1601  1602  1575  1573  2285  2286  2259  2257
  1602  1603  1577  1575  2286  2287  2261  2259
  1603  1604  1579  1577  2287  2288  2263  2261
  1604  1605  1581  1579  2288  2289  2265  2263
  1605  1606  1583  1581  2289  2290  2267  2265
  1606  1607  1585  1583  2290  2291  2269  2267
  1607  1608  1587  1585  2291  2292  2271  2269
  1608  1609  1589  1587  2292  2293  2273  2271
  1609  1610  1591  1589  2293  2294  2275  2273
  1610  1611  1593  1591  2294  2295  2277  2275
  1611  1612  1595  1593  2295  2296  2279  2277
  1612  1613  1597  1595  2296  2297  2281  2279
  1613  1614  1599  1597  2297  2298  2283  2281
  1565  1615  1601  1567  2249  2299  2285  2251
  1615  1616  1602  1601  2299  2300  2286  2285
  1616  1617  1603  1602  2300  2301  2287  2286
  1617  1618  1604  1603  2301  2302  2288  2287
  1618  1619  1605  1604  2302  2303  2289  2288
  1619  1620  1606  1605  2303  2304  2290  2289
  1620  1621  1607  1606  2304  2305  2291  2290
  1621  1622  1608  1607  2305  2306  2292  2291
  1622  1623  1609  1608  2306  2307  2293  2292
  1623  1624  1610  1609  2307  2308  2294  2293
  1624  1625  1611  1610  2308  2309  2295  2294
  1625  1626  1612  1611  2309  2310  2296  2295
  1626  1627  1613  1612  2310  2311  2297  2296
  1627  1628  1614  1613  2311  2312  2298  2297
  1563  1629  1615  1565  2247  2313  2299  2249
  1629  1630  1616  1615  2313  2314  2300  2299
  1630  1631  1617  1616  2314  2315  2301  2300
  1631  1632  1618  1617  2315  2316  2302  2301
  1632  1633  1619  1618  2316  2317  2303  2302
  1633  1634  1620  1619  2317  2318  2304  2303
  1634  1635  1621  1620  2318  2319  2305  2304
  1635  1636  1622  1621  2319  2320  2306  2305
  1636  1637  1623  1622  2320  2321  2307  2306
  1637  1638  1624  1623  2321  2322  2308  2307
  1638  1639  1625  1624  2322  2323  2309  2308
  1639  1640  1626  1625  2323  2324  2310  2309
  1640  1641  1627  1626  2324  2325  2311  2310
  1641  1642  1628  1627  2325  2326  2312  2311
  1561  1643  1629  1563  2245  2327  2313  2247
  1643  1644  1630  1629  2327  2328  2314  2313
  1644  1645  1631  1630  2328  2329  2315  2314
  1645  1646  1632  1631  2329  2330  2316  2315
  1646  1647  1633  1632  2330  2331  2317  2316
  1647  1648  1634  1633  2331  2332  2318  2317
  1648  1649  1635  1634  2332  2333  2319  2318
  1649  1650  1636  1635  2333  2334  2320  2319
  1650  1651  1637  1636  2334  2335  2321  2320
  1651  1652  1638  1637  2335  2336  2322  2321
  1652  1653  1639  1638  2336  2337  2323  2322
  1653  1654  1640  1639  2337  2338  2324  2323
  1654  1655  1641  1640  2338  2339  2325  2324
  1655  1656  1642  1641  2339  2340  2326  2325
  1655  1657  1658  1656  2339  2341  2342  2340
  1657  1659  1660  1658  2341  2343  2344  2342
  1659  1661  1662  1660  2343  2345  2346  2344
  1661  1663  1664  1662  2345  2347  2348  2346
  1663  1665  1666  1664  2347  2349  2350  2348
  1654  1667  1657  1655  2338  2351  2341  2339
  1667  1668  1659  1657  2351  2352  2343  2341
  1668  1669  1661  1659  2352  2353  2345  2343
  1669  1670  1663  1661  2353  2354  2347  2345
  1670  1671  1665  1663  2354  2355  2349  2347
  1653  1672  1667  1654  2337  2356  2351  2338
  1672  1673  1668  1667  2356  2357  2352  2351
  1673  1674  1669  1668  2357  2358  2353  2352
  1674  1675  1670  1669  2358  2359  2354  2353
  1675  1676  1671  1670  2359  2360  2355  2354
  1652  1677  1672  1653  2336  2361  2356  2337
  1677  1678  1673  1672  2361  2362  2357  2356
  1678  1679  1674  1673  2362  2363  2358  2357
  1679  1680  1675  1674  2363  2364  2359  2358
  1680  1681  1676  1675  2364  2365  2360  2359
  1651  1682  1677  1652  2335  2366  2361  2336
  1682  1683  1678  1677  2366  2367  2362  2361
  1683  1684  1679  1678  2367  2368  2363  2362
  1684  1685  1680  1679  2368  2369  2364  2363
  1685  1686  1681  1680  2369  2370  2365  2364
  1650  1687  1682  1651  2334  2371  2366  2335
  1687  1688  1683  1682  2371  2372  2367  2366
  1688  1689  1684  1683  2372  2373  2368  2367
  1689  1690  1685  1684  2373  2374  2369  2368
  1690  1691  1686  1685  2374  2375  2370  2369
  1649  1692  1687  1650  2333  2376  2371  2334
  1692  1693  1688  1687  2376  2377  2372  2371
  1693  1694  1689  1688  2377  2378  2373  2372
  1694  1695  1690  1689  2378  2379  2374  2373
  1695  1696  1691  1690  2379  2380  2375  2374
  1648  1697  1692  1649  2332  2381  2376  2333
  1697  1698  1693  1692  2381  2382  2377  2376
  1698  1699  1694  1693  2382  2383  2378  2377
  1699  1700  1695  1694  2383  2384  2379  2378
  1700  1701  1696  1695  2384  2385  2380  2379
  1647  1702  1697  1648  2331  2386  2381  2332
  1702  1703  1698  1697  2386  2387  2382  2381
  1703  1704  1699  1698  2387  2388  2383  2382
  1704  1705  1700  1699  2388  2389  2384  2383
  1705  1706  1701  1700  2389  2390  2385  2384
  1646  1707  1702  1647  2330  2391  2386  2331
  1707  1708  1703  1702  2391  2392  2387  2386
  1708  1709  1704  1703  2392  2393  2388  2387
  1709  1710  1705  1704  2393  2394  2389  2388
  1710  1711  1706  1705  2394  2395  2390  2389
  1645  1712  1707  1646  2329  2396  2391  2330
  1712  1713  1708  1707  2396  2397  2392  2391
  1713  1714  1709  1708  2397  2398  2393  2392
  1714  1715  1710  1709  2398  2399  2394  2393
  1715  1716  1711  1710  2399  2400  2395  2394
  1644  1717  1712  1645  2328  2401  2396  2329
  1717  1718  1713  1712  2401  2402  2397  2396
  1718  1719  1714  1713  2402  2403  2398  2397
  1719  1720  1715  1714  2403  2404  2399  2398
  1720  1721  1716  1715  2404  2405  2400  2399
  1643  1722  1717  1644  2327  2406  2401  2328
  1722  1723  1718  1717  2406  2407  2402  2401
  1723  1724  1719  1718  2407  2408  2403  2402
  1724  1725  1720  1719  2408  2409  2404  2403
  1725  1726  1721  1720  2409  2410  2405  2404
  1561  1560  1722  1643  2245  2244  2406  2327
  1560  1559  1723  1722  2244  2243  2407  2406
  1559  1558  1724  1723  2243  2242  2408  2407
  1558  1556  1725  1724  2242  2240  2409  2408
  1556  1557  1726  1725  2240  2241  2410  2409
  1727  1728  1729  1730  2411  2412  2413  2414
  1728  1731  1732  1729  2412  2415  2416  2413
  1731  1733  1734  1732  2415  2417  2418  2416
  1733  1735  1736  1734  2417  2419  2420  2418
  1735  1737  1738  1736  2419  2421  2422  2420
  1739  1740  1728  1727  2423  2424  2412  2411
  1740  1741  1731  1728  2424  2425  2415  2412
  1741  1742  1733  1731  2425  2426  2417  2415
  1742  1743  1735  1733  2426  2427  2419  2417
  1743  1744  1737  1735  2427  2428  2421  2419
  1745  1746  1740  1739  2429  2430  2424  2423
  1746  1747  1741  1740  2430  2431  2425  2424
  1747  1748  1742  1741  2431  2432  2426  2425
  1748  1749  1743  1742  2432  2433  2427  2426
  1749  1750  1744  1743  2433  2434  2428  2427
  1751  1752  1746  1745  2435  2436  2430  2429
  1752  1753  1747  1746  2436  2437  2431  2430
  1753  1754  1748  1747  2437  2438  2432  2431
  1754  1755  1749  1748  2438  2439  2433  2432
  1755  1756  1750  1749  2439  2440  2434  2433
  1755  1757  1758  1756  2439  2441  2442  2440
  1754  1759  1757  1755  2438  2443  2441  2439
  1753  1760  1759  1754  2437  2444  2443  2438
  1752  1761  1760  1753  2436  2445  2444  2437
  1751  1762  1761  1752  2435  2446  2445  2436
  1751  1763  1764  1762  2435  2447  2448  2446
  1763  1765  1766  1764  2447  2449  2450  2448
  1765  1767  1768  1766  2449  2451  2452  2450
  1767  1769  1770  1768  2451  2453  2454  2452
  1769  1547  1549  1770  2453  2231  2233  2454
  1769  1771  1545  1547  2453  2455  2229  2231
  1771  1772  1540  1545  2455  2456  2224  2229
  1772  1773  1535  1540  2456  2457  2219  2224
  1773  1774  1530  1535  2457  2458  2214  2219
  1774  1775  1525  1530  2458  2459  2209  2214
  1775  1776  1520  1525  2459  2460  2204  2209
  1776  1777  1515  1520  2460  2461  2199  2204
  1777  1778  1510  1515  2461  2462  2194  2199
  1778  1779  1505  1510  2462  2463  2189  2194
  1779  1780  1500  1505  2463  2464  2184  2189
  1780  1781  1495  1500  2464  2465  2179  2184
  1781  1782  1490  1495  2465  2466  2174  2179
  1782  1783  1484  1490  2466  2467  2168  2174
  1783  1784  1485  1484  2467  2468  2169  2168
  1767  1785  1771  1769  2451  2469  2455  2453
  1785  1786  1772  1771  2469  2470  2456  2455
  1786  1787  1773  1772  2470  2471  2457  2456
  1787  1788  1774  1773  2471  2472  2458  2457
  1788  1789  1775  1774  2472  2473  2459  2458
  1789  1790  1776  1775  2473  2474  2460  2459
  1790  1791  1777  1776  2474  2475  2461  2460
  1791  1792  1778  1777  2475  2476  2462  2461
  1792  1793  1779  1778  2476  2477  2463  2462
  1793  1794  1780  1779  2477  2478  2464  2463
  1794  1795  1781  1780  2478  2479  2465  2464
  1795  1796  1782  1781  2479  2480  2466  2465
  1796  1797  1783  1782  2480  2481  2467  2466
  1797  1798  1784  1783  2481  2482  2468  2467
  1765  1799  1785  1767  2449  2483  2469  2451
  1799  1800  1786  1785  2483  2484  2470  2469
  1800  1801  1787  1786  2484  2485  2471  2470
  1801  1802  1788  1787  2485  2486  2472  2471
  1802  1803  1789  1788  2486  2487  2473  2472
  1803  1804  1790  1789  2487  2488  2474  2473
  1804  1805  1791  1790  2488  2489  2475  2474
  1805  1806  1792  1791  2489  2490  2476  2475
  1806  1807  1793  1792  2490  2491  2477  2476
  1807  1808  1794  1793  2491  2492  2478  2477
  1808  1809  1795  1794  2492  2493  2479  2478
  1809  1810  1796  1795  2493  2494  2480  2479
  1810  1811  1797  1796  2494  2495  2481  2480
  1811  1812  1798  1797  2495  2496  2482  2481
  1763  1813  1799  1765  2447  2497  2483  2449
  1813  1814  1800  1799  2497  2498  2484  2483
  1814  1815  1801  1800  2498  2499  2485  2484
  1815  1816  1802  1801  2499  2500  2486  2485
  1816  1817  1803  1802  2500  2501  2487  2486
  1817  1818  1804  1803  2501  2502  2488  2487
  1818  1819  1805  1804  2502  2503  2489  2488
  1819  1820  1806  1805  2503  2504  2490  2489
  1820  1821  1807  1806  2504  2505  2491  2490
  1821  1822  1808  1807  2505  2506  2492  2491
  1822  1823  1809  1808  2506  2507  2493  2492
  1823  1824  1810  1809  2507  2508  2494  2493
  1824  1825  1811  1810  2508  2509  2495  2494
  1825  1826  1812  1811  2509  2510  2496  2495
  1751  1827  1813  1763  2435  2511  2497  2447
  1827  1828  1814  1813  2511  2512  2498  2497
  1828  1829  1815  1814  2512  2513  2499  2498
  1829  1830  1816  1815  2513  2514  2500  2499
  1830  1831  1817  1816  2514  2515  2501  2500
  1831  1832  1818  1817  2515  2516  2502  2501
  1832  1833  1819  1818  2516  2517  2503  2502
  1833  1834  1820  1819  2517  2518  2504  2503
  1834  1835  1821  1820  2518  2519  2505  2504
  1835  1836  1822  1821  2519  2520  2506  2505
  1836  1837  1823  1822  2520  2521  2507  2506
  1837  1838  1824  1823  2521  2522  2508  2507
  1838  1839  1825  1824  2522  2523  2509  2508
  1839  1840  1826  1825  2523  2524  2510  2509
  1839  1841  1842  1840  2523  2525  2526  2524
  1841  1843  1844  1842  2525  2527  2528  2526
  1843  1845  1846  1844  2527  2529  2530  2528
  1845  1847  1848  1846  2529  2531  2532  2530
  1838  1849  1841  1839  2522  2533  2525  2523
  1849  1850  1843  1841  2533  2534  2527  2525
  1850  1851  1845  1843  2534  2535  2529  2527
  1851  1852  1847  1845  2535  2536  2531  2529
  1837  1853  1849  1838  2521  2537  2533  2522
  1853  1854  1850  1849  2537  2538  2534  2533
  1854  1855  1851  1850  2538  2539  2535  2534
  1855  1856  1852  1851  2539  2540  2536  2535
  1836  1857  1853  1837  2520  2541  2537  2521
  1857  1858  1854  1853  2541  2542  2538  2537
  1858  1859  1855  1854  2542  2543  2539  2538
  1859  1860  1856  1855  2543  2544  2540  2539
  1835  1861  1857  1836  2519  2545  2541  2520
  1861  1862  1858  1857  2545  2546  2542  2541
  1862  1863  1859  1858  2546  2547  2543  2542
  1863  1864  1860  1859  2547  2548  2544  2543
  1834  1865  1861  1835  2518  2549  2545  2519
  1865  1866  1862  1861  2549  2550  2546  2545
  1866  1867  1863  1862  2550  2551  2547  2546
  1867  1868  1864  1863  2551  2552  2548  2547
  1833  1869  1865  1834  2517  2553  2549  2518
  1869  1870  1866  1865  2553  2554  2550  2549
  1870  1871  1867  1866  2554  2555  2551  2550
  1871  1872  1868  1867  2555  2556  2552  2551
  1832  1873  1869  1833  2516  2557  2553  2517
  1873  1874  1870  1869  2557  2558  2554  2553
  1874  1875  1871  1870  2558  2559  2555  2554
  1875  1876  1872  1871  2559  2560  2556  2555
  1831  1877  1873  1832  2515  2561  2557  2516
  1877  1878  1874  1873  2561  2562  2558  2557
  1878  1879  1875  1874  2562  2563  2559  2558
  1879  1880  1876  1875  2563  2564  2560  2559
  1830  1881  1877  1831  2514  2565  2561  2515
  1881  1882  1878  1877  2565  2566  2562  2561
  1882  1883  1879  1878  2566  2567  2563  2562
  1883  1884  1880  1879  2567  2568  2564  2563
  1829  1885  1881  1830  2513  2569  2565  2514
  1885  1886  1882  1881  2569  2570  2566  2565
  1886  1887  1883  1882  2570  2571  2567  2566
  1887  1888  1884  1883  2571  2572  2568  2567
  1828  1889  1885  1829  2512  2573  2569  2513
  1889  1890  1886  1885  2573  2574  2570  2569
  1890  1891  1887  1886  2574  2575  2571  2570
  1891  1892  1888  1887  2575  2576  2572  2571
  1827  1893  1889  1828  2511  2577  2573  2512
  1893  1894  1890  1889  2577  2578  2574  2573
  1894  1895  1891  1890  2578  2579  2575  2574
  1895  1896  1892  1891  2579  2580  2576  2575
  1751  1745  1893  1827  2435  2429  2577  2511
  1745  1739  1894  1893  2429  2423  2578  2577
  1739  1727  1895  1894  2423  2411  2579  2578
  1727  1730  1896  1895  2411  2414  2580  2579
  1897  1756  1758  1898  2581  2440  2442  2582
  1897  1899  1750  1756  2581  2583  2434  2440
  1899  1900  1744  1750  2583  2584  2428  2434
  1900  1901  1737  1744  2584  2585  2421  2428
  1901  1902  1738  1737  2585  2586  2422  2421
  1901  1903  1904  1902  2585  2587  2588  2586
  1903  1905  1906  1904  2587  2589  2590  2588
  1905  1907  1908  1906  2589  2591  2592  2590
  1907  1909  1910  1908  2591  2593  2594  2592
  1909  1911  1912  1910  2593  2595  2596  2594
  1911  1913  1914  1912  2595  2597  2598  2596
  1913  1915  1916  1914  2597  2599  2600  2598
  1915  1917  1918  1916  2599  2601  2602  2600
  1917  1919  1920  1918  2601  2603  2604  2602
  1919  1921  1922  1920  2603  2605  2606  2604
  1921  1923  1924  1922  2605  2607  2608  2606
  1923  1925  1926  1924  2607  2609  2610  2608
  1925  1927  1928  1926  2609  2611  2612  2610
  1927  1929  1930  1928  2611  2613  2614  2612
  1900  1931  1903  1901  2584  2615  2587  2585
  1931  1932  1905  1903  2615  2616  2589  2587
  1932  1933  1907  1905  2616  2617  2591  2589
  1933  1934  1909  1907  2617  2618  2593  2591
  1934  1935  1911  1909  2618  2619  2595  2593
  1935  1936  1913  1911  2619  2620  2597  2595
  1936  1937  1915  1913  2620  2621  2599  2597
  1937  1938  1917  1915  2621  2622  2601  2599
  1938  1939  1919  1917  2622  2623  2603  2601
  1939  1940  1921  1919  2623  2624  2605  2603
  1940  1941  1923  1921  2624  2625  2607  2605
  1941  1942  1925  1923  2625  2626  2609  2607
  1942  1943  1927  1925  2626  2627  2611  2609
  1943  1944  1929  1927  2627  2628  2613  2611
  1899  1945  1931  1900  2583  2629  2615  2584
  1945  1946  1932  1931  2629  2630  2616  2615
  1946  1947  1933  1932  2630  2631  2617  2616
  1947  1948  1934  1933  2631  2632  2618  2617
  1948  1949  1935  1934  2632  2633  2619  2618
  1949  1950  1936  1935  2633  2634  2620  2619
  1950  1951  1937  1936  2634  2635  2621  2620
  1951  1952  1938  1937  2635  2636  2622  2621
  1952  1953  1939  1938  2636  2637  2623  2622
  1953  1954  1940  1939  2637  2638  2624  2623
  1954  1955  1941  1940  2638  2639  2625  2624
  1955  1956  1942  1941  2639  2640  2626  2625
  1956  1957  1943  1942  2640  2641  2627  2626
  1957  1958  1944  1943  2641  2642  2628  2627
  1897  1959  1945  1899  2581  2643  2629  2583
  1959  1960  1946  1945  2643  2644  2630  2629
  1960  1961  1947  1946  2644  2645  2631  2630
  1961  1962  1948  1947  2645  2646  2632  2631
  1962  1963  1949  1948  2646  2647  2633  2632
  1963  1964  1950  1949  2647  2648  2634  2633
  1964  1965  1951  1950  2648  2649  2635  2634
  1965  1966  1952  1951  2649  2650  2636  2635
  1966  1967  1953  1952  2650  2651  2637  2636
  1967  1968  1954  1953  2651  2652  2638  2637
  1968  1969  1955  1954  2652  2653  2639  2638
  1969  1970  1956  1955  2653  2654  2640  2639
  1970  1971  1957  1956  2654  2655  2641  2640
  1971  1972  1958  1957  2655  2656  2642  2641
  1971  1973  1974  1972  2655  2657  2658  2656
  1973  1975  1976  1974  2657  2659  2660  2658
  1975  1977  1978  1976  2659  2661  2662  2660
  1977  1979  1980  1978  2661  2663  2664  2662
  1979  1981  1982  1980  2663  2665  2666  2664
  1981  1598  1600  1982  2665  2282  2284  2666
  1970  1983  1973  1971  2654  2667  2657  2655
  1983  1984  1975  1973  2667  2668  2659  2657
  1984  1985  1977  1975  2668  2669  2661  2659
  1985  1986  1979  1977  2669  2670  2663  2661
  1986  1987  1981  1979  2670  2671  2665  2663
  1987  1596  1598  1981  2671  2280  2282  2665
  1969  1988  1983  1970  2653  2672  2667  2654
  1988  1989  1984  1983  2672  2673  2668  2667
  1989  1990  1985  1984  2673  2674  2669  2668
  1990  1991  1986  1985  2674  2675  2670  2669
  1991  1992  1987  1986  2675  2676  2671  2670
  1992  1594  1596  1987  2676  2278  2280  2671
  1968  1993  1988  1969  2652  2677  2672  2653
  1993  1994  1989  1988  2677  2678  2673  2672
  1994  1995  1990  1989  2678  2679  2674  2673
  1995  1996  1991  1990  2679  2680  2675  2674
  1996  1997  1992  1991  2680  2681  2676  2675
  1997  1592  1594  1992  2681  2276  2278  2676
  1967  1998  1993  1968  2651  2682  2677  2652
  1998  1999  1994  1993  2682  2683  2678  2677
  1999  2000  1995  1994  2683  2684  2679  2678
  2000  2001  1996  1995  2684  2685  2680  2679
  2001  2002  1997  1996  2685  2686  2681  2680
  2002  1590  1592  1997  2686  2274  2276  2681
  1966  2003  1998  1967  2650  2687  2682  2651
  2003  2004  1999  1998  2687  2688  2683  2682
  2004  2005  2000  1999  2688  2689  2684  2683
  2005  2006  2001  2000  2689  2690  2685  2684
  2006  2007  2002  2001  2690  2691  2686  2685
  2007  1588  1590  2002  2691  2272  2274  2686
  1965  2008  2003  1966  2649  2692  2687  2650
  2008  2009  2004  2003  2692  2693  2688  2687
  2009  2010  2005  2004  2693  2694  2689  2688
  2010  2011  2006  2005  2694  2695  2690  2689
  2011  2012  2007  2006  2695  2696  2691  2690
  2012  1586  1588  2007  2696  2270  2272  2691
  1964  2013  2008  1965  2648  2697  2692  2649
  2013  2014  2009  2008  2697  2698  2693  2692
  2014  2015  2010  2009  2698  2699  2694  2693
  2015  2016  2011  2010  2699  2700  2695  2694
  2016  2017  2012  2011  2700  2701  2696  2695
  2017  1584  1586  2012  2701  2268  2270  2696
  1963  2018  2013  1964  2647  2702  2697  2648
  2018  2019  2014  2013  2702  2703  2698  2697
  2019  2020  2015  2014  2703  2704  2699  2698
  2020  2021  2016  2015  2704  2705  2700  2699
  2021  2022  2017  2016  2705  2706  2701  2700
  2022  1582  1584  2017  2706  2266  2268  2701
  1962  2023  2018  1963  2646  2707  2702  2647
  2023  2024  2019  2018  2707  2708  2703  2702
  2024  2025  2020  2019  2708  2709  2704  2703
  2025  2026  2021  2020  2709  2710  2705  2704
  2026  2027  2022  2021  2710  2711  2706  2705
  2027  1580  1582  2022  2711  2264  2266  2706
  1961  2028  2023  1962  2645  2712  2707  2646
  2028  2029  2024  2023  2712  2713  2708  2707
  2029  2030  2025  2024  2713  2714  2709  2708
  2030  2031  2026  2025  2714  2715  2710  2709
  2031  2032  2027  2026  2715  2716  2711  2710
  2032  1578  1580  2027  2716  2262  2264  2711
  1960  2033  2028  1961  2644  2717  2712  2645
  2033  2034  2029  2028  2717  2718  2713  2712
  2034  2035  2030  2029  2718  2719  2714  2713
  2035  2036  2031  2030  2719  2720  2715  2714
  2036  2037  2032  2031  2720  2721  2716  2715
  2037  1576  1578  2032  2721  2260  2262  2716
  1959  2038  2033  1960  2643  2722  2717  2644
  2038  2039  2034  2033  2722  2723  2718  2717
  2039  2040  2035  2034  2723  2724  2719  2718
  2040  2041  2036  2035  2724  2725  2720  2719
  2041  2042  2037  2036  2725  2726  2721  2720
  2042  1574  1576  2037  2726  2258  2260  2721
  1897  2043  2038  1959  2581  2727  2722  2643
  2043  2044  2039  2038  2727  2728  2723  2722
  2044  2045  2040  2039  2728  2729  2724  2723
  2045  2046  2041  2040  2729  2730  2725  2724
  2046  2047  2042  2041  2730  2731  2726  2725
  2047  1571  1574  2042  2731  2255  2258  2726
  2047  2048  1572  1571  2731  2732  2256  2255
  2046  2049  2048  2047  2730  2733  2732  2731
  2045  2050  2049  2046  2729  2734  2733  2730
  2044  2051  2050  2045  2728  2735  2734  2729
  2043  2052  2051  2044  2727  2736  2735  2728
  1897  1898  2052  2043  2581  2582  2736  2727
  2053  2054  2055  2056  2737  2738  2739  2740
  2054  2057  2058  2055  2738  2741  2742  2739
  2057  2059  2060  2058  2741  2743  2744  2742
  2059  2061  2062  2060  2743  2745  2746  2744
  2061  2063  2064  2062  2745  2747  2748  2746
  2065  2066  2054  2053  2749  2750  2738  2737
  2066  2067  2057  2054  2750  2751  2741  2738
  2067  2068  2059  2057  2751  2752  2743  2741
  2068  2069  2061  2059  2752  2753  2745  2743
  2069  2070  2063  2061  2753  2754  2747  2745
  2069  2071  2072  2070  2753  2755  2756  2754
  2071  2073  2074  2072  2755  2757  2758  2756
  2073  2075  2076  2074  2757  2759  2760  2758
  2075  2077  2078  2076  2759  2761  2762  2760
  2068  2079  2071  2069  2752  2763  2755  2753
  2079  2080  2073  2071  2763  2764  2757  2755
  2080  2081  2075  2073  2764  2765  2759  2757
  2081  2082  2077  2075  2765  2766  2761  2759
  2067  2083  2079  2068  2751  2767  2763  2752
  2083  2084  2080  2079  2767  2768  2764  2763
  2084  2085  2081  2080  2768  2769  2765  2764
  2085  2086  2082  2081  2769  2770  2766  2765
  2066  2087  2083  2067  2750  2771  2767  2751
  2087  2088  2084  2083  2771  2772  2768  2767
  2088  2089  2085  2084  2772  2773  2769  2768
  2089  2090  2086  2085  2773  2774  2770  2769
  2065  2091  2087  2066  2749  2775  2771  2750
  2091  2092  2088  2087  2775  2776  2772  2771
  2092  2093  2089  2088  2776  2777  2773  2772
  2093  2094  2090  2089  2777  2778  2774  2773
  2093  2095  2096  2094  2777  2779  2780  2778
  2095  2097  2098  2096  2779  2781  2782  2780
  2097  2099  2100  2098  2781  2783  2784  2782
  2099  2101  2102  2100  2783  2785  2786  2784
  2101  2103  2104  2102  2785  2787  2788  2786
  2103  2105  2106  2104  2787  2789  2790  2788
  2105  2107  2108  2106  2789  2791  2792  2790
  2107  2109  2110  2108  2791  2793  2794  2792
  2109  2111  2112  2110  2793  2795  2796  2794
  2111  2113  2114  2112  2795  2797  2798  2796
  2113  2115  2116  2114  2797  2799  2800  2798
  2115  2117  2118  2116  2799  2801  2802  2800
  2117  2119  2120  2118  2801  2803  2804  2802
  2092  2121  2095  2093  2776  2805  2779  2777
  2121  2122  2097  2095  2805  2806  2781  2779
  2122  2123  2099  2097  2806  2807  2783  2781
  2123  2124  2101  2099  2807  2808  2785  2783
  2124  2125  2103  2101  2808  2809  2787  2785
  2125  2126  2105  2103  2809  2810  2789  2787
  2126  2127  2107  2105  2810  2811  2791  2789
  2127  2128  2109  2107  2811  2812  2793  2791
  2128  2129  2111  2109  2812  2813  2795  2793
  2129  2130  2113  2111  2813  2814  2797  2795
  2130  2131  2115  2113  2814  2815  2799  2797
  2131  2132  2117  2115  2815  2816  2801  2799
  2132  2133  2119  2117  2816  2817  2803  2801
  2091  2134  2121  2092  2775  2818  2805  2776
  2134  2135  2122  2121  2818  2819  2806  2805
  2135  2136  2123  2122  2819  2820  2807  2806
  2136  2137  2124  2123  2820  2821  2808  2807
  2137  2138  2125  2124  2821  2822  2809  2808
  2138  2139  2126  2125  2822  2823  2810  2809
  2139  2140  2127  2126  2823  2824  2811  2810
  2140  2141  2128  2127  2824  2825  2812  2811
  2141  2142  2129  2128  2825  2826  2813  2812
  2142  2143  2130  2129  2826  2827  2814  2813
  2143  2144  2131  2130  2827  2828  2815  2814
  2144  2145  2132  2131  2828  2829  2816  2815
  2145  2146  2133  2132  2829  2830  2817  2816
  2065  2147  2134  2091  2749  2831  2818  2775
  2147  2148  2135  2134  2831  2832  2819  2818
  2148  2149  2136  2135  2832  2833  2820  2819
  2149  2150  2137  2136  2833  2834  2821  2820
  2150  2151  2138  2137  2834  2835  2822  2821
  2151  2152  2139  2138  2835  2836  2823  2822
  2152  2153  2140  2139  2836  2837  2824  2823
  2153  2154  2141  2140  2837  2838  2825  2824
  2154  2155  2142  2141  2838  2839  2826  2825
  2155  2156  2143  2142  2839  2840  2827  2826
  2156  2157  2144  2143  2840  2841  2828  2827
  2157  2158  2145  2144  2841  2842  2829  2828
  2158  2159  2146  2145  2842  2843  2830  2829
  2158  2160  2161  2159  2842  2844  2845  2843
  2160  2162  2163  2161  2844  2846  2847  2845
  2162  2164  2165  2163  2846  2848  2849  2847
  2164  2166  2167  2165  2848  2850  2851  2849
  2166  2168  2169  2167  2850  2852  2853  2851
  2157  2170  2160  2158  2841  2854  2844  2842
  2170  2171  2162  2160  2854  2855  2846  2844
  2171  2172  2164  2162  2855  2856  2848  2846
  2172  2173  2166  2164  2856  2857  2850  2848
  2173  2174  2168  2166  2857  2858  2852  2850
  2156  2175  2170  2157  2840  2859  2854  2841
  2175  2176  2171  2170  2859  2860  2855  2854
  2176  2177  2172  2171  2860  2861  2856  2855
  2177  2178  2173  2172  2861  2862  2857  2856
  2178  2179  2174  2173  2862  2863  2858  2857
  2155  2180  2175  2156  2839  2864  2859  2840
  2180  2181  2176  2175  2864  2865  2860  2859
  2181  2182  2177  2176  2865  2866  2861  2860
  2182  2183  2178  2177  2866  2867  2862  2861
  2183  2184  2179  2178  2867  2868  2863  2862
  2154  2185  2180  2155  2838  2869  2864  2839
  2185  2186  2181  2180  2869  2870  2865  2864
  2186  2187  2182  2181  2870  2871  2866  2865
  2187  2188  2183  2182  2871  2872  2867  2866
  2188  2189  2184  2183  2872  2873  2868  2867
  2153  2190  2185  2154  2837  2874  2869  2838
  2190  2191  2186  2185  2874  2875  2870  2869
  2191  2192  2187  2186  2875  2876  2871  2870
  2192  2193  2188  2187  2876  2877  2872  2871
  2193  2194  2189  2188  2877  2878  2873  2872
  2152  2195  2190  2153  2836  2879  2874  2837
  2195  2196  2191  2190  2879  2880  2875  2874
  2196  2197  2192  2191  2880  2881  2876  2875
  2197  2198  2193  2192  2881  2882  2877  2876
  2198  2199  2194  2193  2882  2883  2878  2877
  2151  2200  2195  2152  2835  2884  2879  2836
  2200  2201  2196  2195  2884  2885  2880  2879
  2201  2202  2197  2196  2885  2886  2881  2880
  2202  2203  2198  2197  2886  2887  2882  2881
  2203  2204  2199  2198  2887  2888  2883  2882
  2150  2205  2200  2151  2834  2889  2884  2835
  2205  2206  2201  2200  2889  2890  2885  2884
  2206  2207  2202  2201  2890  2891  2886  2885
  2207  2208  2203  2202  2891  2892  2887  2886
  2208  2209  2204  2203  2892  2893  2888  2887
  2149  2210  2205  2150  2833  2894  2889  2834
  2210  2211  2206  2205  2894  2895  2890  2889
  2211  2212  2207  2206  2895  2896  2891  2890
  2212  2213  2208  2207  2896  2897  2892  2891
  2213  2214  2209  2208  2897  2898  2893  2892
  2148  2215  2210  2149  2832  2899  2894  2833
  2215  2216  2211  2210  2899  2900  2895  2894
  2216  2217  2212  2211  2900  2901  2896  2895
  2217  2218  2213  2212  2901  2902  2897  2896
  2218  2219  2214  2213  2902  2903  2898  2897
  2147  2220  2215  2148  2831  2904  2899  2832
  2220  2221  2216  2215  2904  2905  2900  2899
  2221  2222  2217  2216  2905  2906  2901  2900
  2222  2223  2218  2217  2906  2907  2902  2901
  2223  2224  2219  2218  2907  2908  2903  2902
  2065  2225  2220  2147  2749  2909  2904  2831
  2225  2226  2221  2220  2909  2910  2905  2904
  2226  2227  2222  2221  2910  2911  2906  2905
  2227  2228  2223  2222  2911  2912  2907  2906
  2228  2229  2224  2223  2912  2913  2908  2907
  2228  2230  2231  2229  2912  2914  2915  2913
  2230  2232  2233  2231  2914  2916  2917  2915
  2227  2234  2230  2228  2911  2918  2914  2912
  2234  2235  2232  2230  2918  2919  2916  2914
  2226  2236  2234  2227  2910  2920  2918  2911
  2236  2237  2235  2234  2920  2921  2919  2918
  2225  2238  2236  2226  2909  2922  2920  2910
  2238  2239  2237  2236  2922  2923  2921  2920
  2065  2053  2238  2225  2749  2737  2922  2909
  2053  2056  2239  2238  2737  2740  2923  2922
  2240  2076  2078  2241  2924  2760  2762  2925
  2242  2074  2076  2240  2926  2758  2760  2924
  2243  2072  2074  2242  2927  2756  2758  2926
  2244  2070  2072  2243  2928  2754  2756  2927
  2245  2063  2070  2244  2929  2747  2754  2928
  2245  2246  2064  2063  2929  2930  2748  2747
  2245  2247  2248  2246  2929  2931  2932  2930
  2247  2249  2250  2248  2931  2933  2934  2932
  2249  2251  2252  2250  2933  2935  2936  2934
  2251  2253  2254  2252  2935  2937  2938  2936
  2253  2255  2256  2254  2937  2939  2940  2938
  2253  2257  2258  2255  2937  2941  2942  2939
  2257  2259  2260  2258  2941  2943  2944  2942
  2259  2261  2262  2260  2943  2945  2946  2944
  2261  2263  2264  2262  2945  2947  2948  2946
  2263  2265  2266  2264  2947  2949  2950  2948
  2265  2267  2268  2266  2949  2951  2952  2950
  2267  2269  2270  2268  2951  2953  2954  2952
  2269  2271  2272  2270  2953  2955  2956  2954
  2271  2273  2274  2272  2955  2957  2958  2956
  2273  2275  2276  2274  2957  2959  2960  2958
  2275  2277  2278  2276  2959  2961  2962  2960
  2277  2279  2280  2278  2961  2963  2964  2962
  2279  2281  2282  2280  2963  2965  2966  2964
  2281  2283  2284  2282  2965  2967  2968  2966
  2251  2285  2257  2253  2935  2969  2941  2937
  2285  2286  2259  2257  2969  2970  2943  2941
  2286  2287  2261  2259  2970  2971  2945  2943
  2287  2288  2263  2261  2971  2972  2947  2945
  2288  2289  2265  2263  2972  2973  2949  2947
  2289  2290  2267  2265  2973  2974  2951  2949
  2290  2291  2269  2267  2974  2975  2953  2951
  2291  2292  2271  2269  2975  2976  2955  2953
  2292  2293  2273  2271  2976  2977  2957  2955
  2293  2294  2275  2273  2977  2978  2959  2957
  2294  2295  2277  2275  2978  2979  2961  2959
  2295  2296  2279  2277  2979  2980  2963  2961
  2296  2297  2281  2279  2980  2981  2965  2963
  2297  2298  2283  2281  2981  2982  2967  2965
  2249  2299  2285  2251  2933  2983  2969  2935
  2299  2300  2286  2285  2983  2984  2970  2969
  2300  2301  2287  2286  2984  2985  2971  2970
  2301  2302  2288  2287  2985  2986  2972  2971
  2302  2303  2289  2288  2986  2987  2973  2972
  2303  2304  2290  2289  2987  2988  2974  2973
  2304  2305  2291  2290  2988  2989  2975  2974
  2305  2306  2292  2291  2989  2990  2976  2975
  2306  2307  2293  2292  2990  2991  2977  2976
  2307  2308  2294  2293  2991  2992  2978  2977
  2308  2309  2295  2294  2992  2993  2979  2978
  2309  2310  2296  2295  2993  2994  2980  2979
  2310  2311  2297  2296  2994  2995  2981  2980
  2311  2312  2298  2297  2995  2996  2982  2981
  2247  2313  2299  2249  2931  2997  2983  2933
  2313  2314  2300  2299  2997  2998  2984  2983
  2314  2315  2301  2300  2998  2999  2985  2984
  2315  2316  2302  2301  2999  3000  2986  2985
  2316  2317  2303  2302  3000  3001  2987  2986
  2317  2318  2304  2303  3001  3002  2988  2987
  2318  2319  2305  2304  3002  3003  2989  2988
  2319  2320  2306  2305  3003  3004  2990  2989
  2320  2321  2307  2306  3004  3005  2991  2990
  2321  2322  2308  2307  3005  3006  2992  2991
  2322  2323  2309  2308  3006  3007  2993  2992
  2323  2324  2310  2309  3007  3008  2994  2993
  2324  2325  2311  2310  3008  3009  2995  2994
  2325  2326  2312  2311  3009  3010  2996  2995
  2245  2327  2313  2247  2929  3011  2997  2931
  2327  2328  2314  2313  3011  3012  2998  2997
  2328  2329  2315  2314  3012  3013  2999  2998
  2329  2330  2316  2315  3013  3014  3000  2999
  2330  2331  2317  2316  3014  3015  3001  3000
  2331  2332  2318  2317  3015  3016  3002  3001
  2332  2333  2319  2318  3016  3017  3003  3002
  2333  2334  2320  2319  3017  3018  3004  3003
  2334  2335  2321  2320  3018  3019  3005  3004
  2335  2336  2322  2321  3019  3020  3006  3005
  2336  2337  2323  2322  3020  3021  3007  3006
  2337  2338  2324  2323  3021  3022  3008  3007
  2338  2339  2325  2324  3022  3023  3009  3008
  2339  2340  2326  2325  3023  3024  3010  3009
  2339  2341  2342  2340  3023  3025  3026  3024
  2341  2343  2344  2342  3025  3027  3028  3026
  2343  2345  2346  2344  3027  3029  3030  3028
  2345  2347  2348  2346  3029  3031  3032  3030
  2347  2349  2350  2348  3031  3033  3034  3032
  2338  2351  2341  2339  3022  3035  3025  3023
  2351  2352  2343  2341  3035  3036  3027  3025
  2352  2353  2345  2343  3036  3037  3029  3027
  2353  2354  2347  2345  3037  3038  3031  3029
  2354  2355  2349  2347  3038  3039  3033  3031
  2337  2356  2351  2338  3021  3040  3035  3022
  2356  2357  2352  2351  3040  3041  3036  3035
  2357  2358  2353  2352  3041  3042  3037  3036
  2358  2359  2354  2353  3042  3043  3038  3037
  2359  2360  2355  2354  3043  3044  3039  3038
  2336  2361  2356  2337  3020  3045  3040  3021
  2361  2362  2357  2356  3045  3046  3041  3040
  2362  2363  2358  2357  3046  3047  3042  3041
  2363  2364  2359  2358  3047  3048  3043  3042
  2364  2365  2360  2359  3048  3049  3044  3043
  2335  2366  2361  2336  3019  3050  3045  3020
  2366  2367  2362  2361  3050  3051  3046  3045
  2367  2368  2363  2362  3051  3052  3047  3046
  2368  2369  2364  2363  3052  3053  3048  3047
  2369  2370  2365  2364  3053  3054  3049  3048
  2334  2371  2366  2335  3018  3055  3050  3019
  2371  2372  2367  2366  3055  3056  3051  3050
  2372  2373  2368  2367  3056  3057  3052  3051
  2373  2374  2369  2368  3057  3058  3053  3052
  2374  2375  2370  2369  3058  3059  3054  3053
  2333  2376  2371  2334  3017  3060  3055  3018
  2376  2377  2372  2371  3060  3061  3056  3055
  2377  2378  2373  2372  3061  3062  3057  3056
  2378  2379  2374  2373  3062  3063  3058  3057
  2379  2380  2375  2374  3063  3064  3059  3058
  2332  2381  2376  2333  3016  3065  3060  3017
  2381  2382  2377  2376  3065  3066  3061  3060
  2382  2383  2378  2377  3066  3067  3062  3061
  2383  2384  2379  2378  3067  3068  3063  3062
  2384  2385  2380  2379  3068  3069  3064  3063
  2331  2386  2381  2332  3015  3070  3065  3016
  2386  2387  2382  2381  3070  3071  3066  3065
  2387  2388  2383  2382  3071  3072  3067  3066
  2388  2389  2384  2383  3072  3073  3068  3067
  2389  2390  2385  2384  3073  3074  3069  3068
  2330  2391  2386  2331  3014  3075  3070  3015
  2391  2392  2387  2386  3075  3076  3071  3070
  2392  2393  2388  2387  3076  3077  3072  3071
  2393  2394  2389  2388  3077  3078  3073  3072
  2394  2395  2390  2389  3078  3079  3074  3073
  2329  2396  2391  2330  3013  3080  3075  3014
  2396  2397  2392  2391  3080  3081  3076  3075
  2397  2398  2393  2392  3081  3082  3077  3076
  2398  2399  2394  2393  3082  3083  3078  3077
  2399  2400  2395  2394  3083  3084  3079  3078
  2328  2401  2396  2329  3012  3085  3080  3013
  2401  2402  2397  2396  3085  3086  3081  3080
  2402  2403  2398  2397  3086  3087  3082  3081
  2403  2404  2399  2398  3087  3088  3083  3082
  2404  2405  2400  2399  3088  3089  3084  3083
  2327  2406  2401  2328  3011  3090  3085  3012
  2406  2407  2402  2401  3090  3091  3086  3085
  2407  2408  2403  2402  3091  3092  3087  3086
  2408  2409  2404  2403  3092  3093  3088  3087
  2409  2410  2405  2404  3093  3094  3089  3088
  2245  2244  2406  2327  2929  2928  3090  3011
  2244  2243  2407  2406  2928  2927  3091  3090
  2243  2242  2408  2407  2927  2926  3092  3091
  2242  2240  2409  2408  2926  2924  3093  3092
  2240  2241  2410  2409  2924  2925  3094  3093
  2411  2412  2413  2414  3095  3096  3097  3098
  2412  2415  2416  2413  3096  3099  3100  3097
  2415  2417  2418  2416  3099  3101  3102  3100
  2417  2419  2420  2418  3101  3103  3104  3102
  2419  2421  2422  2420  3103  3105  3106  3104
  2423  2424  2412  2411  3107  3108  3096  3095
  2424  2425  2415  2412  3108  3109  3099  3096
  2425  2426  2417  2415  3109  3110  3101  3099
  2426  2427  2419  2417  3110  3111  3103  3101
  2427  2428  2421  2419  3111  3112  3105  3103
  2429  2430  2424  2423  3113  3114  3108  3107
  2430  2431  2425  2424  3114  3115  3109  3108
  2431  2432  2426  2425  3115  3116  3110  3109
  2432  2433  2427  2426  3116  3117  3111  3110
  2433  2434  2428  2427  3117  3118  3112  3111
  2435  2436  2430  2429  3119  3120  3114  3113
  2436  2437  2431  2430  3120  3121  3115  3114
  2437  2438  2432  2431  3121  3122  3116  3115
  2438  2439  2433  2432  3122  3123  3117  3116
  2439  2440  2434  2433  3123  3124  3118  3117
  2439  2441  2442  2440  3123  3125  3126  3124
  2438  2443  2441  2439  3122  3127  3125  3123
  2437  2444  2443  2438  3121  3128  3127  3122
  2436  2445  2444  2437  3120  3129  3128  3121
  2435  2446  2445  2436  3119  3130  3129  3120
  2435  2447  2448  2446  3119  3131  3132  3130
  2447  2449  2450  2448  3131  3133  3134  3132
  2449  2451  2452  2450  3133  3135  3136  3134
  2451  2453  2454  2452  3135  3137  3138  3136
  2453  2231  2233  2454  3137  2915  2917  3138
  2453  2455  2229  2231  3137  3139  2913  2915
  2455  2456  2224  2229  3139  3140  2908  2913
  2456  2457  2219  2224  3140  3141  2903  2908
  2457  2458  2214  2219  3141  3142  2898  2903
  2458  2459  2209  2214  3142  3143  2893  2898
  2459  2460  2204  2209  3143  3144  2888  2893
  2460  2461  2199  2204  3144  3145  2883  2888
  2461  2462  2194  2199  3145  3146  2878  2883
  2462  2463  2189  2194  3146  3147  2873  2878
  2463  2464  2184  2189  3147  3148  2868  2873
  2464  2465  2179  2184  3148  3149  2863  2868
  2465  2466  2174  2179  3149  3150  2858  2863
  2466  2467  2168  2174  3150  3151  2852  2858
  2467  2468  2169  2168  3151  3152  2853  2852
  2451  2469  2455  2453  3135  3153  3139  3137
  2469  2470  2456  2455  3153  3154  3140  3139
  2470  2471  2457  2456  3154  3155  3141  3140
  2471  2472  2458  2457  3155  3156  3142  3141
  2472  2473  2459  2458  3156  3157  3143  3142
  2473  2474  2460  2459  3157  3158  3144  3143
  2474  2475  2461  2460  3158  3159  3145  3144
  2475  2476  2462  2461  3159  3160  3146  3145
  2476  2477  2463  2462  3160  3161  3147  3146
  2477  2478  2464  2463  3161  3162  3148  3147
  2478  2479  2465  2464  3162  3163  3149  3148
  2479  2480  2466  2465  3163  3164  3150  3149
  2480  2481  2467  2466  3164  3165  3151  3150
  2481  2482  2468  2467  3165  3166  3152  3151
  2449  2483  2469  2451  3133  3167  3153  3135
  2483  2484  2470  2469  3167  3168  3154  3153
  2484  2485  2471  2470  3168  3169  3155  3154
  2485  2486  2472  2471  3169  3170  3156  3155
  2486  2487  2473  2472  3170  3171  3157  3156
  2487  2488  2474  2473  3171  3172  3158  3157
  2488  2489  2475  2474  3172  3173  3159  3158
  2489  2490  2476  2475  3173  3174  3160  3159
  2490  2491  2477  2476  3174  3175  3161  3160
  2491  2492  2478  2477  3175  3176  3162  3161
  2492  2493  2479  2478  3176  3177  3163  3162
  2493  2494  2480  2479  3177  3178  3164  3163
  2494  2495  2481  2480  3178  3179  3165  3164
  2495  2496  2482  2481  3179  3180  3166  3165
  2447  2497  2483  2449  3131  3181  3167  3133
  2497  2498  2484  2483  3181  3182  3168  3167
  2498  2499  2485  2484  3182  3183  3169  3168
  2499  2500  2486  2485  3183  3184  3170  3169
  2500  2501  2487  2486  3184  3185  3171  3170
  2501  2502  2488  2487  3185  3186  3172  3171
  2502  2503  2489  2488  3186  3187  3173  3172
  2503  2504  2490  2489  3187  3188  3174  3173
  2504  2505  2491  2490  3188  3189  3175  3174
  2505  2506  2492  2491  3189  3190  3176  3175
  2506  2507  2493  2492  3190  3191  3177  3176
  2507  2508  2494  2493  3191  3192  3178  3177
  2508  2509  2495  2494  3192  3193  3179  3178
  2509  2510  2496  2495  3193  3194  3180  3179
  2435  2511  2497  2447  3119  3195  3181  3131
  2511  2512  2498  2497  3195  3196  3182  3181
  2512  2513  2499  2498  3196  3197  3183  3182
  2513  2514  2500  2499  3197  3198  3184  3183
  2514  2515  2501  2500  3198  3199  3185  3184
  2515  2516  2502  2501  3199  3200  3186  3185
  2516  2517  2503  2502  3200  3201  3187  3186
  2517  2518  2504  2503  3201  3202  3188  3187
  2518  2519  2505  2504  3202  3203  3189  3188
  2519  2520  2506  2505  3203  3204  3190  3189
  2520  2521  2507  2506  3204  3205  3191  3190
  2521  2522  2508  2507  3205  3206  3192  3191
  2522  2523  2509  2508  3206  3207  3193  3192
  2523  2524  2510  2509  3207  3208  3194  3193
  2523  2525  2526  2524  3207  3209  3210  3208
  2525  2527  2528  2526  3209  3211  3212  3210
  2527  2529  2530  2528  3211  3213  3214  3212
  2529  2531  2532  2530  3213  3215  3216  3214
  2522  2533  2525  2523  3206  3217  3209  3207
  2533  2534  2527  2525  3217  3218  3211  3209
  2534  2535  2529  2527  3218  3219  3213  3211
  2535  2536  2531  2529  3219  3220  3215  3213
  2521  2537  2533  2522  3205  3221  3217  3206
  2537  2538  2534  2533  3221  3222  3218  3217
  2538  2539  2535  2534  3222  3223  3219  3218
  2539  2540  2536  2535  3223  3224  3220  3219
  2520  2541  2537  2521  3204  3225  3221  3205
  2541  2542  2538  2537  3225  3226  3222  3221
  2542  2543  2539  2538  3226  3227  3223  3222
  2543  2544  2540  2539  3227  3228  3224  3223
  2519  2545  2541  2520  3203  3229  3225  3204
  2545  2546  2542  2541  3229  3230  3226  3225
  2546  2547  2543  2542  3230  3231  3227  3226
  2547  2548  2544  2543  3231  3232  3228  3227
  2518  2549  2545  2519  3202  3233  3229  3203
  2549  2550  2546  2545  3233  3234  3230  3229
  2550  2551  2547  2546  3234  3235  3231  3230
  2551  2552  2548  2547  3235  3236  3232  3231
  2517  2553  2549  2518  3201  3237  3233  3202
  2553  2554  2550  2549  3237  3238  3234  3233
  2554  2555  2551  2550  3238  3239  3235  3234
  2555  2556  2552  2551  3239  3240  3236  3235
  2516  2557  2553  2517  3200  3241  3237  3201
  2557  2558  2554  2553  3241  3242  3238  3237
  2558  2559  2555  2554  3242  3243  3239  3238
  2559  2560  2556  2555  3243  3244  3240  3239
  2515  2561  2557  2516  3199  3245  3241  3200
  2561  2562  2558  2557  3245  3246  3242  3241
  2562  2563  2559  2558  3246  3247  3243  3242
  2563  2564  2560  2559  3247  3248  3244  3243
  2514  2565  2561  2515  3198  3249  3245  3199
  2565  2566  2562  2561  3249  3250  3246  3245
  2566  2567  2563  2562  3250  3251  3247  3246
  2567  2568  2564  2563  3251  3252  3248  3247
  2513  2569  2565  2514  3197  3253  3249  3198
  2569  2570  2566  2565  3253  3254  3250  3249
  2570  2571  2567  2566  3254  3255  3251  3250
  2571  2572  2568  2567  3255  3256  3252  3251
  2512  2573  2569  2513  3196  3257  3253  3197
  2573  2574  2570  2569  3257  3258  3254  3253
  2574  2575  2571  2570  3258  3259  3255  3254
  2575  2576  2572  2571  3259  3260  3256  3255
  2511  2577  2573  2512  3195  3261  3257  3196
  2577  2578  2574  2573  3261  3262  3258  3257
  2578  2579  2575  2574  3262  3263  3259  3258
  2579  2580  2576  2575  3263  3264  3260  3259
  2435  2429  2577  2511  3119  3113  3261  3195
  2429  2423  2578  2577  3113  3107  3262  3261
  2423  2411  2579  2578  3107  3095  3263  3262
  2411  2414  2580  2579  3095  3098  3264  3263
  2581  2440  2442  2582  3265  3124  3126  3266
  2581  2583  2434  2440  3265  3267  3118  3124
  2583  2584  2428  2434  3267  3268  3112  3118
  2584  2585  2421  2428  3268  3269  3105  3112
  2585  2586  2422  2421  3269  3270  3106  3105
  2585  2587  2588  2586  3269  3271  3272  3270
  2587  2589  2590  2588  3271  3273  3274  3272
  2589  2591  2592  2590  3273  3275  3276  3274
  2591  2593  2594  2592  3275  3277  3278  3276
  2593  2595  2596  2594  3277  3279  3280  3278
  2595  2597  2598  2596  3279  3281  3282  3280
  2597  2599  2600  2598  3281  3283  3284  3282
  2599  2601  2602  2600  3283  3285  3286  3284
  2601  2603  2604  2602  3285  3287  3288  3286
  2603  2605  2606  2604  3287  3289  3290  3288
  2605  2607  2608  2606  3289  3291  3292  3290
  2607  2609  2610  2608  3291  3293  3294  3292
  2609  2611  2612  2610  3293  3295  3296  3294
  2611  2613  2614  2612  3295  3297  3298  3296
  2584  2615  2587  2585  3268  3299  3271  3269
  2615  2616  2589  2587  3299  3300  3273  3271
  2616  2617  2591  2589  3300  3301  3275  3273
  2617  2618  2593  2591  3301  3302  3277  3275
  2618  2619  2595  2593  3302  3303  3279  3277
  2619  2620  2597  2595  3303  3304  3281  3279
  2620  2621  2599  2597  3304  3305  3283  3281
  2621  2622  2601  2599  3305  3306  3285  3283
  2622  2623  2603  2601  3306  3307  3287  3285
  2623  2624  2605  2603  3307  3308  3289  3287
  2624  2625  2607  2605  3308  3309  3291  3289
  2625  2626  2609  2607  3309  3310  3293  3291
  2626  2627  2611  2609  3310  3311  3295  3293
  2627  2628  2613  2611  3311  3312  3297  3295
  2583  2629  2615  2584  3267  3313  3299  3268
  2629  2630  2616  2615  3313  3314  3300  3299
  2630  2631  2617  2616  3314  3315  3301  3300
  2631  2632  2618  2617  3315  3316  3302  3301
  2632  2633  2619  2618  3316  3317  3303  3302
  2633  2634  2620  2619  3317  3318  3304  3303
  2634  2635  2621  2620  3318  3319  3305  3304
  2635  2636  2622  2621  3319  3320  3306  3305
  2636  2637  2623  2622  3320  3321  3307  3306
  2637  2638  2624  2623  3321  3322  3308  3307
  2638  2639  2625  2624  3322  3323  3309  3308
  2639  2640  2626  2625  3323  3324  3310  3309
  2640  2641  2627  2626  3324  3325  3311  3310
  2641  2642  2628  2627  3325  3326  3312  3311
  2581  2643  2629  2583  3265  3327  3313  3267
  2643  2644  2630  2629  3327  3328  3314  3313
  2644  2645  2631  2630  3328  3329  3315  3314
  2645  2646  2632  2631  3329  3330  3316  3315
  2646  2647  2633  2632  3330  3331  3317  3316
  2647  2648  2634  2633  3331  3332  3318  3317
  2648  2649  2635  2634  3332  3333  3319  3318
  2649  2650  2636  2635  3333  3334  3320  3319
  2650  2651  2637  2636  3334  3335  3321  3320
  2651  2652  2638  2637  3335  3336  3322  3321
  2652  2653  2639  2638  3336  3337  3323  3322
  2653  2654  2640  2639  3337  3338  3324  3323
  2654  2655  2641  2640  3338  3339  3325  3324
  2655  2656  2642  2641  3339  3340  3326  3325
  2655  2657  2658  2656  3339  3341  3342  3340
  2657  2659  2660  2658  3341  3343  3344  3342
  2659  2661  2662  2660  3343  3345  3346  3344
  2661  2663  2664  2662  3345  3347  3348  3346
  2663  2665  2666  2664  3347  3349  3350  3348
  2665  2282  2284  2666  3349  2966  2968  3350
  2654  2667  2657  2655  3338  3351  3341  3339
  2667  2668  2659  2657  3351  3352  3343  3341
  2668  2669  2661  2659  3352  3353  3345  3343
  2669  2670  2663  2661  3353  3354  3347  3345
  2670  2671  2665  2663  3354  3355  3349  3347
  2671  2280  2282  2665  3355  2964  2966  3349
  2653  2672  2667  2654  3337  3356  3351  3338
  2672  2673  2668  2667  3356  3357  3352  3351
  2673  2674  2669  2668  3357  3358  3353  3352
  2674  2675  2670  2669  3358  3359  3354  3353
  2675  2676  2671  2670  3359  3360  3355  3354
  2676  2278  2280  2671  3360  2962  2964  3355
  2652  2677  2672  2653  3336  3361  3356  3337
  2677  2678  2673  2672  3361  3362  3357  3356
  2678  2679  2674  2673  3362  3363  3358  3357
  2679  2680  2675  2674  3363  3364  3359  3358
  2680  2681  2676  2675  3364  3365  3360  3359
  2681  2276  2278  2676  3365  2960  2962  3360
  2651  2682  2677  2652  3335  3366  3361  3336
  2682  2683  2678  2677  3366  3367  3362  3361
  2683  2684  2679  2678  3367  3368  3363  3362
  2684  2685  2680  2679  3368  3369  3364  3363
  2685  2686  2681  2680  3369  3370  3365  3364
  2686  2274  2276  2681  3370  2958  2960  3365
  2650  2687  2682  2651  3334  3371  3366  3335
  2687  2688  2683  2682  3371  3372  3367  3366
  2688  2689  2684  2683  3372  3373  3368  3367
  2689  2690  2685  2684  3373  3374  3369  3368
  2690  2691  2686  2685  3374  3375  3370  3369
  2691  2272  2274  2686  3375  2956  2958  3370
  2649  2692  2687  2650  3333  3376  3371  3334
  2692  2693  2688  2687  3376  3377  3372  3371
  2693  2694  2689  2688  3377  3378  3373  3372
  2694  2695  2690  2689  3378  3379  3374  3373
  2695  2696  2691  2690  3379  3380  3375  3374
  2696  2270  2272  2691  3380  2954  2956  3375
  2648  2697  2692  2649  3332  3381  3376  3333
  2697  2698  2693  2692  3381  3382  3377  3376
  2698  2699  2694  2693  3382  3383  3378  3377
  2699  2700  2695  2694  3383  3384  3379  3378
  2700  2701  2696  2695  3384  3385  3380  3379
  2701  2268  2270  2696  3385  2952  2954  3380
  2647  2702  2697  2648  3331  3386  3381  3332
  2702  2703  2698  2697  3386  3387  3382  3381
  2703  2704  2699  2698  3387  3388  3383  3382
  2704  2705  2700  2699  3388  3389  3384  3383
  2705  2706  2701  2700  3389  3390  3385  3384
  2706  2266  2268  2701  3390  2950  2952  3385
  2646  2707  2702  2647  3330  3391  3386  3331
  2707  2708  2703  2702  3391  3392  3387  3386
  2708  2709  2704  2703  3392  3393  3388  3387
  2709  2710  2705  2704  3393  3394  3389  3388
  2710  2711  2706  2705  3394  3395  3390  3389
  2711  2264  2266  2706  3395  2948  2950  3390
  2645  2712  2707  2646  3329  3396  3391  3330
  2712  2713  2708  2707  3396  3397  3392  3391
  2713  2714  2709  2708  3397  3398  3393  3392
  2714  2715  2710  2709  3398  3399  3394  3393
  2715  2716  2711  2710  3399  3400  3395  3394
  2716  2262  2264  2711  3400  2946  2948  3395
  2644  2717  2712  2645  3328  3401  3396  3329
  2717  2718  2713  2712  3401  3402  3397  3396
  2718  2719  2714  2713  3402  3403  3398  3397
  2719  2720  2715  2714  3403  3404  3399  3398
  2720  2721  2716  2715  3404  3405  3400  3399
  2721  2260  2262  2716  3405  2944  2946  3400
  2643  2722  2717  2644  3327  3406  3401  3328
  2722  2723  2718  2717  3406  3407  3402  3401
  2723  2724  2719  2718  3407  3408  3403  3402
  2724  2725  2720  2719  3408  3409  3404  3403
  2725  2726  2721  2720  3409  3410  3405  3404
  2726  2258  2260  2721  3410  2942  2944  3405
  2581  2727  2722  2643  3265  3411  3406  3327
  2727  2728  2723  2722  3411  3412  3407  3406
  2728  2729  2724  2723  3412  3413  3408  3407
  2729  2730  2725  2724  3413  3414  3409  3408
  2730  2731  2726  2725  3414  3415  3410  3409
  2731  2255  2258  2726  3415  2939  2942  3410
  2731  2732  2256  2255  3415  3416  2940  2939
  2730  2733  2732  2731  3414  3417  3416  3415
  2729  2734  2733  2730  3413  3418  3417  3414
  2728  2735  2734  2729  3412  3419  3418  3413
  2727  2736  2735  2728  3411  3420  3419  3412
  2581  2582  2736  2727  3265  3266  3420  3411
  2737  2738  2739  2740  3421  3422  3423  3424
  2738  2741  2742  2739  3422  3425  3426  3423
  2741  2743  2744  2742  3425  3427  3428  3426
  2743  2745  2746  2744  3427  3429  3430  3428
  2745  2747  2748  2746  3429  3431  3432  3430
  2749  2750  2738  2737  3433  3434  3422  3421
  2750  2751  2741  2738  3434  3435  3425  3422
  2751  2752  2743  2741  3435  3436  3427  3425
  2752  2753  2745  2743  3436  3437  3429  3427
  2753  2754  2747  2745  3437  3438  3431  3429
  2753  2755  2756  2754  3437  3439  3440  3438
  2755  2757  2758  2756  3439  3441  3442  3440
  2757  2759  2760  2758  3441  3443  3444  3442
  2759  2761  2762  2760  3443  3445  3446  3444
  2752  2763  2755  2753  3436  3447  3439  3437
  2763  2764  2757  2755  3447  3448  3441  3439
  2764  2765  2759  2757  3448  3449  3443  3441
  2765  2766  2761  2759  3449  3450  3445  3443
  2751  2767  2763  2752  3435  3451  3447  3436
  2767  2768  2764  2763  3451  3452  3448  3447
  2768  2769  2765  2764  3452  3453  3449  3448
  2769  2770  2766  2765  3453  3454  3450  3449
  2750  2771  2767  2751  3434  3455  3451  3435
  2771  2772  2768  2767  3455  3456  3452  3451
  2772  2773  2769  2768  3456  3457  3453  3452
  2773  2774  2770  2769  3457  3458  3454  3453
  2749  2775  2771  2750  3433  3459  3455  3434
  2775  2776  2772  2771  3459  3460  3456  3455
  2776  2777  2773  2772  3460  3461  3457  3456
  2777  2778  2774  2773  3461  3462  3458  3457
  2777  2779  2780  2778  3461  3463  3464  3462
  2779  2781  2782  2780  3463  3465  3466  3464
  2781  2783  2784  2782  3465  3467  3468  3466
  2783  2785  2786  2784  3467  3469  3470  3468
  2785  2787  2788  2786  3469  3471  3472  3470
  2787  2789  2790  2788  3471  3473  3474  3472
  2789  2791  2792  2790  3473  3475  3476  3474
  2791  2793  2794  2792  3475  3477  3478  3476
  2793  2795  2796  2794  3477  3479  3480  3478
  2795  2797  2798  2796  3479  3481  3482  3480
  2797  2799  2800  2798  3481  3483  3484  3482
  2799  2801  2802  2800  3483  3485  3486  3484
  2801  2803  2804  2802  3485  3487  3488  3486
  2776  2805  2779  2777  3460  3489  3463  3461
  2805  2806  2781  2779  3489  3490  3465  3463
  2806  2807  2783  2781  3490  3491  3467  3465
  2807  2808  2785  2783  3491  3492  3469  3467
  2808  2809  2787  2785  3492  3493  3471  3469
  2809  2810  2789  2787  3493  3494  3473  3471
  2810  2811  2791  2789  3494  3495  3475  3473
  2811  2812  2793  2791  3495  3496  3477  3475
  2812  2813  2795  2793  3496  3497  3479  3477
  2813  2814  2797  2795  3497  3498  3481  3479
  2814  2815  2799  2797  3498  3499  3483  3481
  2815  2816  2801  2799  3499  3500  3485  3483
  2816  2817  2803  2801  3500  3501  3487  3485
  2775  2818  2805  2776  3459  3502  3489  3460
  2818  2819  2806  2805  3502  3503  3490  3489
  2819  2820  2807  2806  3503  3504  3491  3490
  2820  2821  2808  2807  3504  3505  3492  3491
  2821  2822  2809  2808  3505  3506  3493  3492
  2822  2823  2810  2809  3506  3507  3494  3493
  2823  2824  2811  2810  3507  3508  3495  3494
  2824  2825  2812  2811  3508  3509  3496  3495
  2825  2826  2813  2812  3509  3510  3497  3496
  2826  2827  2814  2813  3510  3511  3498  3497
  2827  2828  2815  2814  3511  3512  3499  3498
  2828  2829  2816  2815  3512  3513  3500  3499
  2829  2830  2817  2816  3513  3514  3501  3500
  2749  2831  2818  2775  3433  3515  3502  3459
  2831  2832  2819  2818  3515  3516  3503  3502
  2832  2833  2820  2819  3516  3517  3504  3503
  2833  2834  2821  2820  3517  3518  3505  3504
  2834  2835  2822  2821  3518  3519  3506  3505
  2835  2836  2823  2822  3519  3520  3507  3506
  2836  2837  2824  2823  3520  3521  3508  3507
  2837  2838  2825  2824  3521  3522  3509  3508
  2838  2839  2826  2825  3522  3523  3510  3509
  2839  2840  2827  2826  3523  3524  3511  3510
  2840  2841  2828  2827  3524  3525  3512  3511
  2841  2842  2829  2828  3525  3526  3513  3512
  2842  2843  2830  2829  3526  3527  3514  3513
  2842  2844  2845  2843  3526  3528  3529  3527
  2844  2846  2847  2845  3528  3530  3531  3529
  2846  2848  2849  2847  3530  3532  3533  3531
  2848  2850  2851  2849  3532  3534  3535  3533
  2850  2852  2853  2851  3534  3536  3537  3535
  2841  2854  2844  2842  3525  3538  3528  3526
  2854  2855  2846  2844  3538  3539  3530  3528
  2855  2856  2848  2846  3539  3540  3532  3530
  2856  2857  2850  2848  3540  3541  3534  3532
  2857  2858  2852  2850  3541  3542  3536  3534
  2840  2859  2854  2841  3524  3543  3538  3525
  2859  2860  2855  2854  3543  3544  3539  3538
  2860  2861  2856  2855  3544  3545  3540  3539
  2861  2862  2857  2856  3545  3546  3541  3540
  2862  2863  2858  2857  3546  3547  3542  3541
  2839  2864  2859  2840  3523  3548  3543  3524
  2864  2865  2860  2859  3548  3549  3544  3543
  2865  2866  2861  2860  3549  3550  3545  3544
  2866  2867  2862  2861  3550  3551  3546  3545
  2867  2868  2863  2862  3551  3552  3547  3546
  2838  2869  2864  2839  3522  3553  3548  3523
  2869  2870  2865  2864  3553  3554  3549  3548
  2870  2871  2866  2865  3554  3555  3550  3549
  2871  2872  2867  2866  3555  3556  3551  3550
  2872  2873  2868  2867  3556  3557  3552  3551
  2837  2874  2869  2838  3521  3558  3553  3522
  2874  2875  2870  2869  3558  3559  3554  3553
  2875  2876  2871  2870  3559  3560  3555  3554
  2876  2877  2872  2871  3560  3561  3556  3555
  2877  2878  2873  2872  3561  3562  3557  3556
  2836  2879  2874  2837  3520  3563  3558  3521
  2879  2880  2875  2874  3563  3564  3559  3558
  2880  2881  2876  2875  3564  3565  3560  3559
  2881  2882  2877  2876  3565  3566  3561  3560
  2882  2883  2878  2877  3566  3567  3562  3561
  2835  2884  2879  2836  3519  3568  3563  3520
  2884  2885  2880  2879  3568  3569  3564  3563
  2885  2886  2881  2880  3569  3570  3565  3564
  2886  2887  2882  2881  3570  3571  3566  3565
  2887  2888  2883  2882  3571  3572  3567  3566
  2834  2889  2884  2835  3518  3573  3568  3519
  2889  2890  2885  2884  3573  3574  3569  3568
  2890  2891  2886  2885  3574  3575  3570  3569
  2891  2892  2887  2886  3575  3576  3571  3570
  2892  2893  2888  2887  3576  3577  3572  3571
  2833  2894  2889  2834  3517  3578  3573  3518
  2894  2895  2890  2889  3578  3579  3574  3573
  2895  2896  2891  2890  3579  3580  3575  3574
  2896  2897  2892  2891  3580  3581  3576  3575
  2897  2898  2893  2892  3581  3582  3577  3576
  2832  2899  2894  2833  3516  3583  3578  3517
  2899  2900  2895  2894  3583  3584  3579  3578
  2900  2901  2896  2895  3584  3585  3580  3579
  2901  2902  2897  2896  3585  3586  3581  3580
  2902  2903  2898  2897  3586  3587  3582  3581
  2831  2904  2899  2832  3515  3588  3583  3516
  2904  2905  2900  2899  3588  3589  3584  3583
  2905  2906  2901  2900  3589  3590  3585  3584
  2906  2907  2902  2901  3590  3591  3586  3585
  2907  2908  2903  2902  3591  3592  3587  3586
  2749  2909  2904  2831  3433  3593  3588  3515
  2909  2910  2905  2904  3593  3594  3589  3588
  2910  2911  2906  2905  3594  3595  3590  3589
  2911  2912  2907  2906  3595  3596  3591  3590
  2912  2913  2908  2907  3596  3597  3592  3591
  2912  2914  2915  2913  3596  3598  3599  3597
  2914  2916  2917  2915  3598  3600  3601  3599
  2911  2918  2914  2912  3595  3602  3598  3596
  2918  2919  2916  2914  3602  3603  3600  3598
  2910  2920  2918  2911  3594  3604  3602  3595
  2920  2921  2919  2918  3604  3605  3603  3602
  2909  2922  2920  2910  3593  3606  3604  3594
  2922  2923  2921  2920  3606  3607  3605  3604
  2749  2737  2922  2909  3433  3421  3606  3593
  2737  2740  2923  2922  3421  3424  3607  3606
  2924  2760  2762  2925  3608  3444  3446  3609
  2926  2758  2760  2924  3610  3442  3444  3608
  2927  2756  2758  2926  3611  3440  3442  3610
  2928  2754  2756  2927  3612  3438  3440  3611
  2929  2747  2754  2928  3613  3431  3438  3612
  2929  2930  2748  2747  3613  3614  3432  3431
  2929  2931  2932  2930  3613  3615  3616  3614
  2931  2933  2934  2932  3615  3617  3618  3616
  2933  2935  2936  2934  3617  3619  3620  3618
  2935  2937  2938  2936  3619  3621  3622  3620
  2937  2939  2940  2938  3621  3623  3624  3622
  2937  2941  2942  2939  3621  3625  3626  3623
  2941  2943  2944  2942  3625  3627  3628  3626
  2943  2945  2946  2944  3627  3629  3630  3628
  2945  2947  2948  2946  3629  3631  3632  3630
  2947  2949  2950  2948  3631  3633  3634  3632
  2949  2951  2952  2950  3633  3635  3636  3634
  2951  2953  2954  2952  3635  3637  3638  3636
  2953  2955  2956  2954  3637  3639  3640  3638
  2955  2957  2958  2956  3639  3641  3642  3640
  2957  2959  2960  2958  3641  3643  3644  3642
  2959  2961  2962  2960  3643  3645  3646  3644
  2961  2963  2964  2962  3645  3647  3648  3646
  2963  2965  2966  2964  3647  3649  3650  3648
  2965  2967  2968  2966  3649  3651  3652  3650
  2935  2969  2941  2937  3619  3653  3625  3621
  2969  2970  2943  2941  3653  3654  3627  3625
  2970  2971  2945  2943  3654  3655  3629  3627
  2971  2972  2947  2945  3655  3656  3631  3629
  2972  2973  2949  2947  3656  3657  3633  3631
  2973  2974  2951  2949  3657  3658  3635  3633
  2974  2975  2953  2951  3658  3659  3637  3635
  2975  2976  2955  2953  3659  3660  3639  3637
  2976  2977  2957  2955  3660  3661  3641  3639
  2977  2978  2959  2957  3661  3662  3643  3641
  2978  2979  2961  2959  3662  3663  3645  3643
  2979  2980  2963  2961  3663  3664  3647  3645
  2980  2981  2965  2963  3664  3665  3649  3647
  2981  2982  2967  2965  3665  3666  3651  3649
  2933  2983  2969  2935  3617  3667  3653  3619
  2983  2984  2970  2969  3667  3668  3654  3653
  2984  2985  2971  2970  3668  3669  3655  3654
  2985  2986  2972  2971  3669  3670  3656  3655
  2986  2987  2973  2972  3670  3671  3657  3656
  2987  2988  2974  2973  3671  3672  3658  3657
  2988  2989  2975  2974  3672  3673  3659  3658
  2989  2990  2976  2975  3673  3674  3660  3659
  2990  2991  2977  2976  3674  3675  3661  3660
  2991  2992  2978  2977  3675  3676  3662  3661
  2992  2993  2979  2978  3676  3677  3663  3662
  2993  2994  2980  2979  3677  3678  3664  3663
  2994  2995  2981  2980  3678  3679  3665  3664
  2995  2996  2982  2981  3679  3680  3666  3665
  2931  2997  2983  2933  3615  3681  3667  3617
  2997  2998  2984  2983  3681  3682  3668  3667
  2998  2999  2985  2984  3682  3683  3669  3668
  2999  3000  2986  2985  3683  3684  3670  3669
  3000  3001  2987  2986  3684  3685  3671  3670
  3001  3002  2988  2987  3685  3686  3672  3671
  3002  3003  2989  2988  3686  3687  3673  3672
  3003  3004  2990  2989  3687  3688  3674  3673
  3004  3005  2991  2990  3688  3689  3675  3674
  3005  3006  2992  2991  3689  3690  3676  3675
  3006  3007  2993  2992  3690  3691  3677  3676
  3007  3008  2994  2993  3691  3692  3678  3677
  3008  3009  2995  2994  3692  3693  3679  3678
  3009  3010  2996  2995  3693  3694  3680  3679
  2929  3011  2997  2931  3613  3695  3681  3615
  3011  3012  2998  2997  3695  3696  3682  3681
  3012  3013  2999  2998  3696  3697  3683  3682
  3013  3014  3000  2999  3697  3698  3684  3683
  3014  3015  3001  3000  3698  3699  3685  3684
  3015  3016  3002  3001  3699  3700  3686  3685
  3016  3017  3003  3002  3700  3701  3687  3686
  3017  3018  3004  3003  3701  3702  3688  3687
  3018  3019  3005  3004  3702  3703  3689  3688
  3019  3020  3006  3005  3703  3704  3690  3689
  3020  3021  3007  3006  3704  3705  3691  3690
  3021  3022  3008  3007  3705  3706  3692  3691
  3022  3023  3009  3008  3706  3707  3693  3692
  3023  3024  3010  3009  3707  3708  3694  3693
  3023  3025  3026  3024  3707  3709  3710  3708
  3025  3027  3028  3026  3709  3711  3712  3710
  3027  3029  3030  3028  3711  3713  3714  3712
  3029  3031  3032  3030  3713  3715  3716  3714
  3031  3033  3034  3032  3715  3717  3718  3716
  3022  3035  3025  3023  3706  3719  3709  3707
  3035  3036  3027  3025  3719  3720  3711  3709
  3036  3037  3029  3027  3720  3721  3713  3711
  3037  3038  3031  3029  3721  3722  3715  3713
  3038  3039  3033  3031  3722  3723  3717  3715
  3021  3040  3035  3022  3705  3724  3719  3706
  3040  3041  3036  3035  3724  3725  3720  3719
  3041  3042  3037  3036  3725  3726  3721  3720
  3042  3043  3038  3037  3726  3727  3722  3721
  3043  3044  3039  3038  3727  3728  3723  3722
  3020  3045  3040  3021  3704  3729  3724  3705
  3045  3046  3041  3040  3729  3730  3725  3724
  3046  3047  3042  3041  3730  3731  3726  3725
  3047  3048  3043  3042  3731  3732  3727  3726
  3048  3049  3044  3043  3732  3733  3728  3727
  3019  3050  3045  3020  3703  3734  3729  3704
  3050  3051  3046  3045  3734  3735  3730  3729
  3051  3052  3047  3046  3735  3736  3731  3730
  3052  3053  3048  3047  3736  3737  3732  3731
  3053  3054  3049  3048  3737  3738  3733  3732
  3018  3055  3050  3019  3702  3739  3734  3703
  3055  3056  3051  3050  3739  3740  3735  3734
  3056  3057  3052  3051  3740  3741  3736  3735
  3057  3058  3053  3052  3741  3742  3737  3736
  3058  3059  3054  3053  3742  3743  3738  3737
  3017  3060  3055  3018  3701  3744  3739  3702
  3060  3061  3056  3055  3744  3745  3740  3739
  3061  3062  3057  3056  3745  3746  3741  3740
  3062  3063  3058  3057  3746  3747  3742  3741
  3063  3064  3059  3058  3747  3748  3743  3742
  3016  3065  3060  3017  3700  3749  3744  3701
  3065  3066  3061  3060  3749  3750  3745  3744
  3066  3067  3062  3061  3750  3751  3746  3745
  3067  3068  3063  3062  3751  3752  3747  3746
  3068  3069  3064  3063  3752  3753  3748  3747
  3015  3070  3065  3016  3699  3754  3749  3700
  3070  3071  3066  3065  3754  3755  3750  3749
  3071  3072  3067  3066  3755  3756  3751  3750
  3072  3073  3068  3067  3756  3757  3752  3751
  3073  3074  3069  3068  3757  3758  3753  3752
  3014  3075  3070  3015  3698  3759  3754  3699
  3075  3076  3071  3070  3759  3760  3755  3754
  3076  3077  3072  3071  3760  3761  3756  3755
  3077  3078  3073  3072  3761  3762  3757  3756
  3078  3079  3074  3073  3762  3763  3758  3757
  3013  3080  3075  3014  3697  3764  3759  3698
  3080  3081  3076  3075  3764  3765  3760  3759
  3081  3082  3077  3076  3765  3766  3761  3760
  3082  3083  3078  3077  3766  3767  3762  3761
  3083  3084  3079  3078  3767  3768  3763  3762
  3012  3085  3080  3013  3696  3769  3764  3697
  3085  3086  3081  3080  3769  3770  3765  3764
  3086  3087  3082  3081  3770  3771  3766  3765
  3087  3088  3083  3082  3771  3772  3767  3766
  3088  3089  3084  3083  3772  3773  3768  3767
  3011  3090  3085  3012  3695  3774  3769  3696
  3090  3091  3086  3085  3774  3775  3770  3769
  3091  3092  3087  3086  3775  3776  3771  3770
  3092  3093  3088  3087  3776  3777  3772  3771
  3093  3094  3089  3088  3777  3778  3773  3772
  2929  2928  3090  3011  3613  3612  3774  3695
  2928  2927  3091  3090  3612  3611  3775  3774
  2927  2926  3092  3091  3611  3610  3776  3775
  2926  2924  3093  3092  3610  3608  3777  3776
  2924  2925  3094  3093  3608  3609  3778  3777
  3095  3096  3097  3098  3779  3780  3781  3782
  3096  3099  3100  3097  3780  3783  3784  3781
  3099  3101  3102  3100  3783  3785  3786  3784
  3101  3103  3104  3102  3785  3787  3788  3786
  3103  3105  3106  3104  3787  3789  3790  3788
  3107  3108  3096  3095  3791  3792  3780  3779
  3108  3109  3099  3096  3792  3793  3783  3780
  3109  3110  3101  3099  3793  3794  3785  3783
  3110  3111  3103  3101  3794  3795  3787  3785
  3111  3112  3105  3103  3795  3796  3789  3787
  3113  3114  3108  3107  3797  3798  3792  3791
  3114  3115  3109  3108  3798  3799  3793  3792
  3115  3116  3110  3109  3799  3800  3794  3793
  3116  3117  3111  3110  3800  3801  3795  3794
  3117  3118  3112  3111  3801  3802  3796  3795
  3119  3120  3114  3113  3803  3804  3798  3797
  3120  3121  3115  3114  3804  3805  3799  3798
  3121  3122  3116  3115  3805  3806  3800  3799
  3122  3123  3117  3116  3806  3807  3801  3800
  3123  3124  3118  3117  3807  3808  3802  3801
  3123  3125  3126  3124  3807  3809  3810  3808
  3122  3127  3125  3123  3806  3811  3809  3807
  3121  3128  3127  3122  3805  3812  3811  3806
  3120  3129  3128  3121  3804  3813  3812  3805
  3119  3130  3129  3120  3803  3814  3813  3804
  3119  3131  3132  3130  3803  3815  3816  3814
  3131  3133  3134  3132  3815  3817  3818  3816
  3133  3135  3136  3134  3817  3819  3820  3818
  3135  3137  3138  3136  3819  3821  3822  3820
  3137  2915  2917  3138  3821  3599  3601  3822
  3137  3139  2913  2915  3821  3823  3597  3599
  3139  3140  2908  2913  3823  3824  3592  3597
  3140  3141  2903  2908  3824  3825  3587  3592
  3141  3142  2898  2903  3825  3826  3582  3587
  3142  3143  2893  2898  3826  3827  3577  3582
  3143  3144  2888  2893  3827  3828  3572  3577
  3144  3145  2883  2888  3828  3829  3567  3572
  3145  3146  2878  2883  3829  3830  3562  3567
  3146  3147  2873  2878  3830  3831  3557  3562
  3147  3148  2868  2873  3831  3832  3552  3557
  3148  3149  2863  2868  3832  3833  3547  3552
  3149  3150  2858  2863  3833  3834  3542  3547
  3150  3151  2852  2858  3834  3835  3536  3542
  3151  3152  2853  2852  3835  3836  3537  3536
  3135  3153  3139  3137  3819  3837  3823  3821
  3153  3154  3140  3139  3837  3838  3824  3823
  3154  3155  3141  3140  3838  3839  3825  3824
  3155  3156  3142  3141  3839  3840  3826  3825
  3156  3157  3143  3142  3840  3841  3827  3826
  3157  3158  3144  3143  3841  3842  3828  3827
  3158  3159  3145  3144  3842  3843  3829  3828
  3159  3160  3146  3145  3843  3844  3830  3829
  3160  3161  3147  3146  3844  3845  3831  3830
  3161  3162  3148  3147  3845  3846  3832  3831
  3162  3163  3149  3148  3846  3847  3833  3832
  3163  3164  3150  3149  3847  3848  3834  3833
  3164  3165  3151  3150  3848  3849  3835  3834
  3165  3166  3152  3151  3849  3850  3836  3835
  3133  3167  3153  3135  3817  3851  3837  3819
  3167  3168  3154  3153  3851  3852  3838  3837
  3168  3169  3155  3154  3852  3853  3839  3838
  3169  3170  3156  3155  3853  3854  3840  3839
  3170  3171  3157  3156  3854  3855  3841  3840
  3171  3172  3158  3157  3855  3856  3842  3841
  3172  3173  3159  3158  3856  3857  3843  3842
  3173  3174  3160  3159  3857  3858  3844  3843
  3174  3175  3161  3160  3858  3859  3845  3844
  3175  3176  3162  3161  3859  3860  3846  3845
  3176  3177  3163  3162  3860  3861  3847  3846
  3177  3178  3164  3163  3861  3862  3848  3847
  3178  3179  3165  3164  3862  3863  3849  3848
  3179  3180  3166  3165  3863  3864  3850  3849
  3131  3181  3167  3133  3815  3865  3851  3817
  3181  3182  3168  3167  3865  3866  3852  3851
  3182  3183  3169  3168  3866  3867  3853  3852
  3183  3184  3170  3169  3867  3868  3854  3853
  3184  3185  3171  3170  3868  3869  3855  3854
  3185  3186  3172  3171  3869  3870  3856  3855
  3186  3187  3173  3172  3870  3871  3857  3856
  3187  3188  3174  3173  3871  3872  3858  3857
  3188  3189  3175  3174  3872  3873  3859  3858
  3189  3190  3176  3175  3873  3874  3860  3859
  3190  3191  3177  3176  3874  3875  3861  3860
  3191  3192  3178  3177  3875  3876  3862  3861
  3192  3193  3179  3178  3876  3877  3863  3862
  3193  3194  3180  3179  3877  3878  3864  3863
  3119  3195  3181  3131  3803  3879  3865  3815
  3195  3196  3182  3181  3879  3880  3866  3865
  3196  3197  3183  3182  3880  3881  3867  3866
  3197  3198  3184  3183  3881  3882  3868  3867
  3198  3199  3185  3184  3882  3883  3869  3868
  3199  3200  3186  3185  3883  3884  3870  3869
  3200  3201  3187  3186  3884  3885  3871  3870
  3201  3202  3188  3187  3885  3886  3872  3871
  3202  3203  3189  3188  3886  3887  3873  3872
  3203  3204  3190  3189  3887  3888  3874  3873
  3204  3205  3191  3190  3888  3889  3875  3874
  3205  3206  3192  3191  3889  3890  3876  3875
  3206  3207  3193  3192  3890  3891  3877  3876
  3207  3208  3194  3193  3891  3892  3878  3877
  3207  3209  3210  3208  3891  3893  3894  3892
  3209  3211  3212  3210  3893  3895  3896  3894
  3211  3213  3214  3212  3895  3897  3898  3896
  3213  3215  3216  3214  3897  3899  3900  3898
  3206  3217  3209  3207  3890  3901  3893  3891
  3217  3218  3211  3209  3901  3902  3895  3893
  3218  3219  3213  3211  3902  3903  3897  3895
  3219  3220  3215  3213  3903  3904  3899  3897
  3205  3221  3217  3206  3889  3905  3901  3890
  3221  3222  3218  3217  3905  3906  3902  3901
  3222  3223  3219  3218  3906  3907  3903  3902
  3223  3224  3220  3219  3907  3908  3904  3903
  3204  3225  3221  3205  3888  3909  3905  3889
  3225  3226  3222  3221  3909  3910  3906  3905
  3226  3227  3223  3222  3910  3911  3907  3906
  3227  3228  3224  3223  3911  3912  3908  3907
  3203  3229  3225  3204  3887  3913  3909  3888
  3229  3230  3226  3225  3913  3914  3910  3909
  3230  3231  3227  3226  3914  3915  3911  3910
  3231  3232  3228  3227  3915  3916  3912  3911
  3202  3233  3229  3203  3886  3917  3913  3887
  3233  3234  3230  3229  3917  3918  3914  3913
  3234  3235  3231  3230  3918  3919  3915  3914
  3235  3236  3232  3231  3919  3920  3916  3915
  3201  3237  3233  3202  3885  3921  3917  3886
  3237  3238  3234  3233  3921  3922  3918  3917
  3238  3239  3235  3234  3922  3923  3919  3918
  3239  3240  3236  3235  3923  3924  3920  3919
  3200  3241  3237  3201  3884  3925  3921  3885
  3241  3242  3238  3237  3925  3926  3922  3921
  3242  3243  3239  3238  3926  3927  3923  3922
  3243  3244  3240  3239  3927  3928  3924  3923
  3199  3245  3241  3200  3883  3929  3925  3884
  3245  3246  3242  3241  3929  3930  3926  3925
  3246  3247  3243  3242  3930  3931  3927  3926
  3247  3248  3244  3243  3931  3932  3928  3927
  3198  3249  3245  3199  3882  3933  3929  3883
  3249  3250  3246  3245  3933  3934  3930  3929
  3250  3251  3247  3246  3934  3935  3931  3930
  3251  3252  3248  3247  3935  3936  3932  3931
  3197  3253  3249  3198  3881  3937  3933  3882
  3253  3254  3250  3249  3937  3938  3934  3933
  3254  3255  3251  3250  3938  3939  3935  3934
  3255  3256  3252  3251  3939  3940  3936  3935
  3196  3257  3253  3197  3880  3941  3937  3881
  3257  3258  3254  3253  3941  3942  3938  3937
  3258  3259  3255  3254  3942  3943  3939  3938
  3259  3260  3256  3255  3943  3944  3940  3939
  3195  3261  3257  3196  3879  3945  3941  3880
  3261  3262  3258  3257  3945  3946  3942  3941
  3262  3263  3259  3258  3946  3947  3943  3942
  3263  3264  3260  3259  3947  3948  3944  3943
  3119  3113  3261  3195  3803  3797  3945  3879
  3113  3107  3262  3261  3797  3791  3946  3945
  3107  3095  3263  3262  3791  3779  3947  3946
  3095  3098  3264  3263  3779  3782  3948  3947
  3265  3124  3126  3266  3949  3808  3810  3950
  3265  3267  3118  3124  3949  3951  3802  3808
  3267  3268  3112  3118  3951  3952  3796  3802
  3268  3269  3105  3112  3952  3953  3789  3796
  3269  3270  3106  3105  3953  3954  3790  3789
  3269  3271  3272  3270  3953  3955  3956  3954
  3271  3273  3274  3272  3955  3957  3958  3956
  3273  3275  3276  3274  3957  3959  3960  3958
  3275  3277  3278  3276  3959  3961  3962  3960
  3277  3279  3280  3278  3961  3963  3964  3962
  3279  3281  3282  3280  3963  3965  3966  3964
  3281  3283  3284  3282  3965  3967  3968  3966
  3283  3285  3286  3284  3967  3969  3970  3968
  3285  3287  3288  3286  3969  3971  3972  3970
  3287  3289  3290  3288  3971  3973  3974  3972
  3289  3291  3292  3290  3973  3975  3976  3974
  3291  3293  3294  3292  3975  3977  3978  3976
  3293  3295  3296  3294  3977  3979  3980  3978
  3295  3297  3298  3296  3979  3981  3982  3980
  3268  3299  3271  3269  3952  3983  3955  3953
  3299  3300  3273  3271  3983  3984  3957  3955
  3300  3301  3275  3273  3984  3985  3959  3957
  3301  3302  3277  3275  3985  3986  3961  3959
  3302  3303  3279  3277  3986  3987  3963  3961
  3303  3304  3281  3279  3987  3988  3965  3963
  3304  3305  3283  3281  3988  3989  3967  3965
  3305  3306  3285  3283  3989  3990  3969  3967
  3306  3307  3287  3285  3990  3991  3971  3969
  3307  3308  3289  3287  3991  3992  3973  3971
  3308  3309  3291  3289  3992  3993  3975  3973
  3309  3310  3293  3291  3993  3994  3977  3975
  3310  3311  3295  3293  3994  3995  3979  3977
  3311  3312  3297  3295  3995  3996  3981  3979
  3267  3313  3299  3268  3951  3997  3983  3952
  3313  3314  3300  3299  3997  3998  3984  3983
  3314  3315  3301  3300  3998  3999  3985  3984
  3315  3316  3302  3301  3999  4000  3986  3985
  3316  3317  3303  3302  4000  4001  3987  3986
  3317  3318  3304  3303  4001  4002  3988  3987
  3318  3319  3305  3304  4002  4003  3989  3988
  3319  3320  3306  3305  4003  4004  3990  3989
  3320  3321  3307  3306  4004  4005  3991  3990
  3321  3322  3308  3307  4005  4006  3992  3991
  3322  3323  3309  3308  4006  4007  3993  3992
  3323  3324  3310  3309  4007  4008  3994  3993
  3324  3325  3311  3310  4008  4009  3995  3994
  3325  3326  3312  3311  4009  4010  3996  3995
  3265  3327  3313  3267  3949  4011  3997  3951
  3327  3328  3314  3313  4011  4012  3998  3997
  3328  3329  3315  3314  4012  4013  3999  3998
  3329  3330  3316  3315  4013  4014  4000  3999
  3330  3331  3317  3316  4014  4015  4001  4000
  3331  3332  3318  3317  4015  4016  4002  4001
  3332  3333  3319  3318  4016  4017  4003  4002
  3333  3334  3320  3319  4017  4018  4004  4003
  3334  3335  3321  3320  4018  4019  4005  4004
  3335  3336  3322  3321  4019  4020  4006  4005
  3336  3337  3323  3322  4020  4021  4007  4006
  3337  3338  3324  3323  4021  4022  4008  4007
  3338  3339  3325  3324  4022  4023  4009  4008
  3339  3340  3326  3325  4023  4024  4010  4009
  3339  3341  3342  3340  4023  4025  4026  4024
  3341  3343  3344  3342  4025  4027  4028  4026
  3343  3345  3346  3344  4027  4029  4030  4028
  3345  3347  3348  3346  4029  4031  4032  4030
  3347  3349  3350  3348  4031  4033  4034  4032
  3349  2966  2968  3350  4033  3650  3652  4034
  3338  3351  3341  3339  4022  4035  4025  4023
  3351  3352  3343  3341  4035  4036  4027  4025
  3352  3353  3345  3343  4036  4037  4029  4027
  3353  3354  3347  3345  4037  4038  4031  4029
  3354  3355  3349  3347  4038  4039  4033  4031
  3355  2964  2966  3349  4039  3648  3650  4033
  3337  3356  3351  3338  4021  4040  4035  4022
  3356  3357  3352  3351  4040  4041  4036  4035
  3357  3358  3353  3352  4041  4042  4037  4036
  3358  3359  3354  3353  4042  4043  4038  4037
  3359  3360  3355  3354  4043  4044  4039  4038
  3360  2962  2964  3355  4044  3646  3648  4039
  3336  3361  3356  3337  4020  4045  4040  4021
  3361  3362  3357  3356  4045  4046  4041  4040
  3362  3363  3358  3357  4046  4047  4042  4041
  3363  3364  3359  3358  4047  4048  4043  4042
  3364  3365  3360  3359  4048  4049  4044  4043
  3365  2960  2962  3360  4049  3644  3646  4044
  3335  3366  3361  3336  4019  4050  4045  4020
  3366  3367  3362  3361  4050  4051  4046  4045
  3367  3368  3363  3362  4051  4052  4047  4046
  3368  3369  3364  3363  4052  4053  4048  4047
  3369  3370  3365  3364  4053  4054  4049  4048
  3370  2958  2960  3365  4054  3642  3644  4049
  3334  3371  3366  3335  4018  4055  4050  4019
  3371  3372  3367  3366  4055  4056  4051  4050
  3372  3373  3368  3367  4056  4057  4052  4051
  3373  3374  3369  3368  4057  4058  4053  4052
  3374  3375  3370  3369  4058  4059  4054  4053
  3375  2956  2958  3370  4059  3640  3642  4054
  3333  3376  3371  3334  4017  4060  4055  4018
  3376  3377  3372  3371  4060  4061  4056  4055
  3377  3378  3373  3372  4061  4062  4057  4056
  3378  3379  3374  3373  4062  4063  4058  4057
  3379  3380  3375  3374  4063  4064  4059  4058
  3380  2954  2956  3375  4064  3638  3640  4059
  3332  3381  3376  3333  4016  4065  4060  4017
  3381  3382  3377  3376  4065  4066  4061  4060
  3382  3383  3378  3377  4066  4067  4062  4061
  3383  3384  3379  3378  4067  4068  4063  4062
  3384  3385  3380  3379  4068  4069  4064  4063
  3385  2952  2954  3380  4069  3636  3638  4064
  3331  3386  3381  3332  4015  4070  4065  4016
  3386  3387  3382  3381  4070  4071  4066  4065
  3387  3388  3383  3382  4071  4072  4067  4066
  3388  3389  3384  3383  4072  4073  4068  4067
  3389  3390  3385  3384  4073  4074  4069  4068
  3390  2950  2952  3385  4074  3634  3636  4069
  3330  3391  3386  3331  4014  4075  4070  4015
  3391  3392  3387  3386  4075  4076  4071  4070
  3392  3393  3388  3387  4076  4077  4072  4071
  3393  3394  3389  3388  4077  4078  4073  4072
  3394  3395  3390  3389  4078  4079  4074  4073
  3395  2948  2950  3390  4079  3632  3634  4074
  3329  3396  3391  3330  4013  4080  4075  4014
  3396  3397  3392  3391  4080  4081  4076  4075
  3397  3398  3393  3392  4081  4082  4077  4076
  3398  3399  3394  3393  4082  4083  4078  4077
  3399  3400  3395  3394  4083  4084  4079  4078
  3400  2946  2948  3395  4084  3630  3632  4079
  3328  3401  3396  3329  4012  4085  4080  4013
  3401  3402  3397  3396  4085  4086  4081  4080
  3402  3403  3398  3397  4086  4087  4082  4081
  3403  3404  3399  3398  4087  4088  4083  4082
  3404  3405  3400  3399  4088  4089  4084  4083
  3405  2944  2946  3400  4089  3628  3630  4084
  3327  3406  3401  3328  4011  4090  4085  4012
  3406  3407  3402  3401  4090  4091  4086  4085
  3407  3408  3403  3402  4091  4092  4087  4086
  3408  3409  3404  3403  4092  4093  4088  4087
  3409  3410  3405  3404  4093  4094  4089  4088
  3410  2942  2944  3405  4094  3626  3628  4089
  3265  3411  3406  3327  3949  4095  4090  4011
  3411  3412  3407  3406  4095  4096  4091  4090
  3412  3413  3408  3407  4096  4097  4092  4091
  3413  3414  3409  3408  4097  4098  4093  4092
  3414  3415  3410  3409  4098  4099  4094  4093
  3415  2939  2942  3410  4099  3623  3626  4094
  3415  3416  2940  2939  4099  4100  3624  3623
  3414  3417  3416  3415  4098  4101  4100  4099
  3413  3418  3417  3414  4097  4102  4101  4098
  3412  3419  3418  3413  4096  4103  4102  4097
  3411  3420  3419  3412  4095  4104  4103  4096
  3265  3266  3420  3411  3949  3950  4104  4095
