 VARIABLES = X,Y,DU1,DU2,U1,U2,S11,S22,S33,S12
 ZONE, T="0.1000D+01" F=FEPOINT, I=  281 J=  250
   0.1776099588E-01   0.1341870493E+00   0.5979183666E-05  -0.5074666781E-04   0.0000000000E+00   0.0000000000E+00   0.5560899651E-01   0.9530373856E-02   0.3256903379E-01   0.1438279156E-02
   0.0000000000E+00   0.1332816960E+00   0.0000000000E+00  -0.5164400320E-04   0.0000000000E+00   0.0000000000E+00   0.5734468382E-01   0.1244249641E-01   0.3489289224E-01   0.1768873225E-02
   0.0000000000E+00   0.1166221836E+00   0.0000000000E+00  -0.4448341175E-04   0.0000000000E+00   0.0000000000E+00   0.7866893964E-01   0.9662191112E-02   0.4416468207E-01  -0.3535737460E-03
   0.1916308058E-01   0.1162473764E+00   0.8943576808E-05  -0.4381157079E-04   0.0000000000E+00   0.0000000000E+00   0.7196201307E-01   0.1109235500E-01   0.4152635349E-01  -0.5577664175E-02
   0.7801977776E-01   0.2318072720E+00   0.1827856184E-04  -0.6913104341E-04   0.0000000000E+00   0.0000000000E+00   0.3496257343E-01  -0.9088498618E-04   0.1743549550E-01   0.2463049287E-02
   0.9780164013E-01   0.2319899735E+00   0.2364022812E-04  -0.6528851146E-04   0.0000000000E+00   0.0000000000E+00   0.3718789713E-01  -0.1802814413E-03   0.1850343777E-01   0.2269282122E-02
   0.9724297724E-01   0.2499296376E+00   0.2075334073E-04  -0.7036242747E-04   0.0000000000E+00   0.0000000000E+00   0.3653939242E-01   0.3063558147E-04   0.1828464830E-01   0.5978928456E-03
   0.7779349492E-01   0.2499262092E+00   0.1571432008E-04  -0.7379078017E-04   0.0000000000E+00   0.0000000000E+00   0.3333954006E-01   0.1674621762E-03   0.1675316605E-01   0.6908675422E-03
   0.1910231230E-01   0.2332451840E+00   0.4121701823E-05  -0.7764495146E-04   0.0000000000E+00   0.0000000000E+00   0.2903833566E-01   0.3192554823E-03   0.1467850200E-01   0.7491613430E-03
   0.0000000000E+00   0.2332550819E+00   0.0000000000E+00  -0.7825211298E-04   0.0000000000E+00   0.0000000000E+00   0.2856473911E-01   0.3400531445E-03   0.1445210708E-01   0.6138412763E-03
   0.0000000000E+00   0.2165921835E+00   0.0000000000E+00  -0.7448545528E-04   0.0000000000E+00   0.0000000000E+00   0.3332803065E-01   0.1700986152E-02   0.1751415811E-01   0.6508454458E-03
   0.1853671466E-01   0.2167007230E+00   0.4419862540E-05  -0.7388995749E-04   0.0000000000E+00   0.0000000000E+00   0.3365820848E-01   0.1571602783E-02   0.1761455333E-01   0.1430963471E-02
   0.2572905884E+00   0.9226307451E-01   0.8510241400E-04  -0.1119648826E-04   0.0000000000E+00   0.0000000000E+00   0.2469355365E-01   0.2300727199E-02   0.1349687048E-01  -0.3438330927E-02
   0.2586848289E+00   0.1102715106E+00   0.8355088054E-04  -0.1441942128E-04   0.0000000000E+00   0.0000000000E+00   0.2702939829E-01   0.1704999729E-02   0.1436691167E-01  -0.3286545428E-02
   0.2419357883E+00   0.1106621177E+00   0.8025633461E-04  -0.1455127495E-04   0.0000000000E+00   0.0000000000E+00   0.2733057781E-01   0.8289184219E-03   0.1407946652E-01  -0.3896296038E-02
   0.2394621323E+00   0.9267011956E-01   0.8199625299E-04  -0.1119894145E-04   0.0000000000E+00   0.0000000000E+00   0.2478149182E-01   0.1458163431E-02   0.1311956523E-01  -0.4183574764E-02
   0.9245951283E-01   0.3825716379E-01   0.7156092583E-04  -0.1117881282E-04   0.0000000000E+00   0.0000000000E+00  -0.3959816353E-03  -0.1540832618E-01  -0.7901995863E-02   0.4466743010E-02
   0.1081178348E+00   0.4609180917E-01   0.7097475149E-04  -0.6732332491E-05   0.0000000000E+00   0.0000000000E+00   0.4709855042E-02  -0.1196584454E-01  -0.3627922187E-02  -0.4217920436E-02
   0.9617291386E-01   0.6352988315E-01   0.6181745714E-04  -0.1231154978E-04   0.0000000000E+00   0.0000000000E+00   0.1294269142E-01  -0.5942034108E-02   0.3500258648E-02  -0.6388908692E-02
   0.8321173254E-01   0.5554052043E-01   0.6477304371E-04  -0.1650326995E-04   0.0000000000E+00   0.0000000000E+00   0.4674118886E-02  -0.1240740626E-02   0.1716654796E-02  -0.2060313127E-02
   0.9815405280E-01   0.1950361433E-01   0.7552619717E-04  -0.5418072787E-05   0.0000000000E+00   0.0000000000E+00   0.5763696793E-03  -0.2776641437E-01  -0.1359475044E-01   0.4536443808E-02
   0.1000769906E+00   0.0000000000E+00   0.7698956511E-04   0.0000000000E+00   0.0000000000E+00   0.0000000000E+00   0.1285008515E-02  -0.3092469256E-01  -0.1481954563E-01  -0.1154601768E-02
   0.1209143748E+00   0.0000000000E+00   0.8104484716E-04   0.0000000000E+00   0.0000000000E+00   0.0000000000E+00  -0.2537870990E-02  -0.1636195954E-01  -0.9449726267E-02  -0.2171087361E-02
   0.1218092602E+00   0.2610994372E-01   0.7839618510E-04  -0.2364977028E-05   0.0000000000E+00   0.0000000000E+00   0.1283678482E-02  -0.1350617992E-01  -0.6111128493E-02  -0.3109320790E-02
   0.2106286950E+00   0.3762998475E-01   0.8455596781E-04  -0.3248054235E-05   0.0000000000E+00   0.0000000000E+00   0.1604635887E-01   0.2473996531E-02   0.9259992497E-02  -0.3760816578E-02
   0.1905403579E+00   0.3837947662E-01   0.8244785289E-04  -0.3023784090E-05   0.0000000000E+00   0.0000000000E+00   0.1437940591E-01   0.1078174580E-02   0.7728635667E-02  -0.4916683778E-02
   0.1867922699E+00   0.1901158956E-01   0.8411786563E-04  -0.1331042425E-05   0.0000000000E+00   0.0000000000E+00   0.1136090550E-01   0.1561403558E-02   0.6461025305E-02  -0.2409953817E-02
   0.2073179846E+00   0.1873655452E-01   0.8570262422E-04  -0.1469382204E-05   0.0000000000E+00   0.0000000000E+00   0.1394624804E-01   0.2978219843E-02   0.8462064697E-02  -0.1912771434E-02
   0.1574668844E+00   0.2159080799E+00   0.4353741393E-04  -0.4936810452E-04   0.0000000000E+00   0.0000000000E+00   0.4034573337E-01  -0.8954816889E-03   0.1972473134E-01   0.1072615553E-02
   0.1564938077E+00   0.2325508036E+00   0.4113669186E-04  -0.5469841745E-04   0.0000000000E+00   0.0000000000E+00   0.4164098179E-01  -0.1964210954E-03   0.2072186590E-01   0.6751276205E-03
   0.1370144714E+00   0.2325722086E+00   0.3510040007E-04  -0.5792542449E-04   0.0000000000E+00   0.0000000000E+00   0.4069367878E-01  -0.2798232647E-03   0.2020652362E-01   0.1211931228E-02
   0.1382527406E+00   0.2157602299E+00   0.3763061792E-04  -0.5254307642E-04   0.0000000000E+00   0.0000000000E+00   0.4004433550E-01  -0.9917973394E-03   0.1952587855E-01   0.1997592380E-02
   0.0000000000E+00   0.9996603733E-01   0.0000000000E+00  -0.3396367171E-04   0.0000000000E+00   0.0000000000E+00   0.9876296555E-01  -0.1330940293E-02   0.4871503831E-01   0.1700954573E-02
   0.1952469947E-01   0.9804601645E-01   0.1566706886E-04  -0.3251014675E-04   0.0000000000E+00   0.0000000000E+00   0.9664052283E-01   0.3077915236E-02   0.4985822185E-01  -0.1639910145E-01
   0.1680412562E-01   0.1512802027E+00   0.5066822311E-05  -0.5651226527E-04   0.0000000000E+00   0.0000000000E+00   0.4970648426E-01   0.9067069657E-02   0.2938618922E-01   0.1746387150E-02
   0.0000000000E+00   0.1499432434E+00   0.0000000000E+00  -0.5676264270E-04   0.0000000000E+00   0.0000000000E+00   0.4916807051E-01   0.9219498812E-02   0.2919320079E-01   0.6097925295E-03
   0.5107157379E-01   0.1386229530E+00   0.1726368993E-04  -0.4668703629E-04   0.0000000000E+00   0.0000000000E+00   0.5151795628E-01   0.4049683766E-02   0.2778326435E-01   0.2635407269E-02
   0.4906192565E-01   0.1540077420E+00   0.1502184627E-04  -0.5223400456E-04   0.0000000000E+00   0.0000000000E+00   0.4671286621E-01   0.3606997715E-02   0.2515942876E-01   0.4160704094E-02
   0.3318538453E-01   0.1526816349E+00   0.9919829041E-05  -0.5482007311E-04   0.0000000000E+00   0.0000000000E+00   0.4834044420E-01   0.6344484714E-02   0.2734191761E-01   0.3126712532E-02
   0.3438339821E-01   0.1356908421E+00   0.1192160629E-04  -0.4894592916E-04   0.0000000000E+00   0.0000000000E+00   0.5397613734E-01   0.6682076330E-02   0.3032850025E-01   0.3229583596E-02
   0.1668926844E-01   0.1677418980E+00   0.4602139266E-05  -0.6124000427E-04   0.0000000000E+00   0.0000000000E+00   0.4381704909E-01   0.6601519630E-02   0.2520878017E-01   0.1801306518E-02
   0.0000000000E+00   0.1666050334E+00   0.0000000000E+00  -0.6163860473E-04   0.0000000000E+00   0.0000000000E+00   0.4456265341E-01   0.7625848763E-02   0.2609372920E-01   0.9315249465E-03
   0.1709598781E-01   0.1840598316E+00   0.4525410893E-05  -0.6569639220E-04   0.0000000000E+00   0.0000000000E+00   0.4052039406E-01   0.4920501400E-02   0.2271999332E-01   0.1889937242E-02
   0.3339991180E-01   0.1685473105E+00   0.9401004198E-05  -0.5958154017E-04   0.0000000000E+00   0.0000000000E+00   0.4394053588E-01   0.5163689706E-02   0.2455162175E-01   0.4016051454E-02
   0.3452252121E-01   0.1842153577E+00   0.9219105066E-05  -0.6387528070E-04   0.0000000000E+00   0.0000000000E+00   0.4055302403E-01   0.3690801765E-02   0.2212147046E-01   0.3718135907E-02
   0.1944790158E-01   0.2499190553E+00   0.3456478702E-05  -0.8094473745E-04   0.0000000000E+00   0.0000000000E+00   0.2536683254E-01   0.4538417701E-03   0.1291007895E-01   0.1287058074E-03
   0.3848628186E-01   0.2328685093E+00   0.8466155919E-05  -0.7577065066E-04   0.0000000000E+00   0.0000000000E+00   0.3048667802E-01   0.2268674847E-03   0.1535646562E-01   0.1777991379E-02
   0.3889601685E-01   0.2499206532E+00   0.7126545284E-05  -0.7934684440E-04   0.0000000000E+00   0.0000000000E+00   0.2730422606E-01   0.3963050478E-03   0.1384998855E-01   0.5461952776E-03
   0.3292644691E+00   0.0000000000E+00   0.9778806306E-04   0.0000000000E+00   0.0000000000E+00   0.0000000000E+00   0.2003157664E-01   0.5890723899E-02   0.1296089105E-01  -0.5398210337E-04
   0.3500999940E+00   0.0000000000E+00   0.1000000000E-03   0.0000000000E+00   0.0000000000E+00   0.0000000000E+00   0.2015995174E-01   0.5945184720E-02   0.1305230718E-01  -0.1013647472E-06
   0.3500999940E+00   0.1922869902E-01   0.1000000000E-03  -0.2070875391E-05   0.0000000000E+00   0.0000000000E+00   0.2037295778E-01   0.5837312697E-02   0.1310487313E-01  -0.1303417544E-04
   0.3298605893E+00   0.1871254163E-01   0.9780234443E-04  -0.2003674211E-05   0.0000000000E+00   0.0000000000E+00   0.2027269599E-01   0.5808741915E-02   0.1304045814E-01  -0.1840227278E-03
   0.3500999940E+00   0.3845730690E-01   0.1000000000E-03  -0.4233000989E-05   0.0000000000E+00   0.0000000000E+00   0.2106266276E-01   0.5563014486E-02   0.1331257236E-01  -0.8754613992E-05
   0.3303035382E+00   0.3767890430E-01   0.9771021092E-04  -0.4128198118E-05   0.0000000000E+00   0.0000000000E+00   0.2094155466E-01   0.5515412423E-02   0.1322821897E-01  -0.3853126705E-03
   0.3306560351E+00   0.5675628512E-01   0.9752608122E-04  -0.6439980612E-05   0.0000000000E+00   0.0000000000E+00   0.2205396698E-01   0.5075313297E-02   0.1356436885E-01  -0.5171545989E-03
   0.3309349384E+00   0.7594761926E-01   0.9727144701E-04  -0.9030837117E-05   0.0000000000E+00   0.0000000000E+00   0.2350728215E-01   0.4486139990E-02   0.1399643113E-01  -0.6232828589E-03
   0.3119061187E+00   0.7513665906E-01   0.9458169730E-04  -0.8853737580E-05   0.0000000000E+00   0.0000000000E+00   0.2331692750E-01   0.4349503309E-02   0.1383293874E-01  -0.1252513044E-02
   0.3112399990E+00   0.5604690613E-01   0.9508099496E-04  -0.6292770223E-05   0.0000000000E+00   0.0000000000E+00   0.2178877104E-01   0.4931186324E-02   0.1335971148E-01  -0.1059414563E-02
   0.3310793048E+00   0.9524405053E-01   0.9694777247E-04  -0.1195027025E-04   0.0000000000E+00   0.0000000000E+00   0.2527069082E-01   0.3832767436E-02   0.1455143809E-01  -0.6732329268E-03
   0.3122826086E+00   0.9438884693E-01   0.9395363625E-04  -0.1177506746E-04   0.0000000000E+00   0.0000000000E+00   0.2511303166E-01   0.3668792201E-02   0.1439062411E-01  -0.1353708156E-02
   0.3310653636E+00   0.1146942884E+00   0.9656657288E-04  -0.1527563872E-04   0.0000000000E+00   0.0000000000E+00   0.2722992755E-01   0.3115155505E-02   0.1517223808E-01  -0.6959318177E-03
   0.3309238243E+00   0.1342560245E+00   0.9614131343E-04  -0.1900950511E-04   0.0000000000E+00   0.0000000000E+00   0.2931505122E-01   0.2428958737E-02   0.1587168754E-01  -0.6615880514E-03
   0.3118901648E+00   0.1337747465E+00   0.9230777651E-04  -0.1893553696E-04   0.0000000000E+00   0.0000000000E+00   0.2932739932E-01   0.2251062359E-02   0.1578891506E-01  -0.1311232268E-02
   0.3122791913E+00   0.1139204123E+00   0.9318834292E-04  -0.1511073396E-04   0.0000000000E+00   0.0000000000E+00   0.2716310332E-01   0.2970848629E-02   0.1506667464E-01  -0.1382684080E-02
   0.2890890263E+00   0.1826229573E-01   0.9346232125E-04  -0.1876872615E-05   0.0000000000E+00   0.0000000000E+00   0.1936212221E-01   0.5451282472E-02   0.1240645421E-01  -0.5841173744E-03
   0.2875934533E+00   0.0000000000E+00   0.9345925920E-04   0.0000000000E+00   0.0000000000E+00   0.0000000000E+00   0.1906174102E-01   0.5531351855E-02   0.1229630051E-01  -0.1668823566E-03
   0.3084289338E+00   0.0000000000E+00   0.9559675498E-04   0.0000000000E+00   0.0000000000E+00   0.0000000000E+00   0.1969080324E-01   0.5772388642E-02   0.1273134131E-01  -0.9262514807E-04
   0.3094832387E+00   0.1840431052E-01   0.9561474046E-04  -0.1942779056E-05   0.0000000000E+00   0.0000000000E+00   0.1992145260E-01   0.5668381584E-02   0.1279466119E-01  -0.3842438535E-03
   0.2122735558E+00   0.1636626200E+00   0.6634284454E-04  -0.2799203057E-04   0.0000000000E+00   0.0000000000E+00   0.3492829935E-01  -0.1183344882E-02   0.1687213978E-01  -0.2333432082E-02
   0.2163781564E+00   0.1467459182E+00   0.6966742617E-04  -0.2333680413E-04   0.0000000000E+00   0.0000000000E+00   0.3288206966E-01  -0.1156769186E-02   0.1586233298E-01  -0.3189619194E-02
   0.2310283021E+00   0.1467129279E+00   0.7332708090E-04  -0.2277011646E-04   0.0000000000E+00   0.0000000000E+00   0.3233100362E-01  -0.4101726081E-03   0.1596009630E-01  -0.3001969807E-02
   0.2322208188E+00   0.1630783178E+00   0.7170984845E-04  -0.2685717213E-04   0.0000000000E+00   0.0000000000E+00   0.3416220262E-01  -0.4750818766E-03   0.1684322350E-01  -0.2397617603E-02
   0.2278529405E+00   0.1845548545E-01   0.8748454909E-04  -0.1606848219E-05   0.0000000000E+00   0.0000000000E+00   0.1585556668E-01   0.3907248943E-02   0.9881210186E-02  -0.1474795690E-02
   0.2307049478E+00   0.3704473922E-01   0.8666481989E-04  -0.3425582123E-05   0.0000000000E+00   0.0000000000E+00   0.1746946441E-01   0.3525815807E-02   0.1049743016E-01  -0.2906816073E-02
   0.1834178651E+00   0.0000000000E+00   0.8452807642E-04   0.0000000000E+00   0.0000000000E+00   0.0000000000E+00   0.1041378302E-01   0.1600279679E-02   0.6006911207E-02  -0.6137165957E-03
   0.2042526590E+00   0.0000000000E+00   0.8599295812E-04   0.0000000000E+00   0.0000000000E+00   0.0000000000E+00   0.1303391246E-01   0.3052411191E-02   0.8043000960E-02  -0.5787369828E-03
   0.1417489444E+00   0.0000000000E+00   0.8227839047E-04   0.0000000000E+00   0.0000000000E+00   0.0000000000E+00   0.2357557106E-02  -0.4143646761E-02  -0.8930269665E-03  -0.1558142762E-02
   0.1457507868E+00   0.2098034585E-01   0.8110279975E-04  -0.1215553991E-05   0.0000000000E+00   0.0000000000E+00   0.4883552248E-02  -0.4116655275E-02   0.3834408175E-03  -0.3694628383E-02
   0.3500999940E+00   0.2499513333E+00   0.1000000000E-03  -0.4866667841E-04   0.0000000000E+00   0.0000000000E+00   0.3976736546E-01  -0.7130823280E-04   0.1984763165E-01   0.7186877276E-04
   0.3306497175E+00   0.2499512564E+00   0.9415953964E-04  -0.4874362795E-04   0.0000000000E+00   0.0000000000E+00   0.3984903273E-01  -0.8319005925E-04   0.1988252368E-01  -0.5828416664E-04
   0.3308829746E+00   0.2310036273E+00   0.9442158621E-04  -0.4313868651E-04   0.0000000000E+00   0.0000000000E+00   0.3890304191E-01   0.1226759422E-03   0.1951246867E-01  -0.1920880089E-03
   0.3500999940E+00   0.2307262389E+00   0.1000000000E-03  -0.4299312895E-04   0.0000000000E+00   0.0000000000E+00   0.3879252461E-01   0.1085986276E-03   0.1945017261E-01   0.6759157961E-04
   0.2730969780E+00   0.2316211234E+00   0.7739601424E-04  -0.4439863835E-04   0.0000000000E+00   0.0000000000E+00   0.4006925786E-01   0.6546190796E-04   0.2006695854E-01  -0.5411830384E-03
   0.2923456799E+00   0.2314458736E+00   0.8312586203E-04  -0.4381436659E-04   0.0000000000E+00   0.0000000000E+00   0.3955968586E-01   0.8890353864E-04   0.1982389821E-01  -0.4662774701E-03
   0.2917490115E+00   0.2499505926E+00   0.8235452858E-04  -0.4940743463E-04   0.0000000000E+00   0.0000000000E+00   0.4064517584E-01  -0.9842497272E-04   0.2027296997E-01  -0.9891573227E-04
   0.2722985510E+00   0.2499499651E+00   0.7633002253E-04  -0.5003492452E-04   0.0000000000E+00   0.0000000000E+00   0.4127280786E-01  -0.1120133474E-03   0.2057998565E-01  -0.1432833866E-03
   0.3500999940E+00   0.1730493326E+00   0.1000000000E-03  -0.2759540840E-04   0.0000000000E+00   0.0000000000E+00   0.3341933765E-01   0.1261785442E-02   0.1734021473E-01   0.7572829299E-05
   0.3308734768E+00   0.1732866428E+00   0.9535482082E-04  -0.2767522796E-04   0.0000000000E+00   0.0000000000E+00   0.3346526659E-01   0.1204006297E-02   0.1733428975E-01  -0.5329159707E-03
   0.3308654208E+00   0.1538241880E+00   0.9573284337E-04  -0.2316398337E-04   0.0000000000E+00   0.0000000000E+00   0.3141105055E-01   0.1781710558E-02   0.1659604863E-01  -0.6169617229E-03
   0.3500999940E+00   0.1538230198E+00   0.1000000000E-03  -0.2314016534E-04   0.0000000000E+00   0.0000000000E+00   0.3137953322E-01   0.1833660257E-02   0.1660626461E-01   0.3731499346E-04
   0.3500999940E+00   0.1345963101E+00   0.1000000000E-03  -0.1908090481E-04   0.0000000000E+00   0.0000000000E+00   0.2931065213E-01   0.2474535622E-02   0.1589227603E-01  -0.1717330344E-04
   0.3500999940E+00   0.1153692167E+00   0.1000000000E-03  -0.1539929809E-04   0.0000000000E+00   0.0000000000E+00   0.2727582548E-01   0.3173468386E-02   0.1522434244E-01   0.9499833654E-05
   0.3500999940E+00   0.9614173252E-01   0.1000000000E-03  -0.1211537749E-04   0.0000000000E+00   0.0000000000E+00   0.2533452143E-01   0.3862721739E-02   0.1459832961E-01  -0.3132838580E-04
   0.3500999940E+00   0.7691389547E-01   0.1000000000E-03  -0.9184332418E-05   0.0000000000E+00   0.0000000000E+00   0.2360586602E-01   0.4535999825E-02   0.1407065150E-01  -0.6779310328E-05
   0.3500999940E+00   0.5768572547E-01   0.1000000000E-03  -0.6582527007E-05   0.0000000000E+00   0.0000000000E+00   0.2214564090E-01   0.5103097431E-02   0.1362409668E-01  -0.3030233238E-04
   0.0000000000E+00   0.2499185025E+00   0.0000000000E+00  -0.8149746203E-04   0.0000000000E+00   0.0000000000E+00   0.2468113554E-01   0.4807694973E-03   0.1258070090E-01   0.5579836957E-03
   0.3759613510E-01   0.2161467938E+00   0.9095902027E-05  -0.7188619510E-04   0.0000000000E+00   0.0000000000E+00   0.3450133341E-01   0.1221825889E-02   0.1786122242E-01   0.3030065444E-02
   0.3620258079E-01   0.2000367744E+00   0.9273294121E-05  -0.6792457416E-04   0.0000000000E+00   0.0000000000E+00   0.3746175755E-01   0.2363183211E-02   0.1991207213E-01   0.3584072290E-02
   0.5559748488E-01   0.1985446052E+00   0.1456287875E-04  -0.6441875425E-04   0.0000000000E+00   0.0000000000E+00   0.3841045126E-01   0.1227804011E-02   0.1981873125E-01   0.4698050436E-02
   0.5752102121E-01   0.2148568662E+00   0.1428110589E-04  -0.6848280675E-04   0.0000000000E+00   0.0000000000E+00   0.3595928596E-01   0.5866591856E-03   0.1827260711E-01   0.4032443292E-02
   0.1781216700E-01   0.2003454875E+00   0.4498895218E-05  -0.6988554124E-04   0.0000000000E+00   0.0000000000E+00   0.3691057830E-01   0.3013191033E-02   0.1996148543E-01   0.1675746936E-02
   0.5821132405E-01   0.2322452936E+00   0.1319614922E-04  -0.7279439147E-04   0.0000000000E+00   0.0000000000E+00   0.3263174575E-01   0.1150229730E-03   0.1637305689E-01   0.2267434292E-02
   0.1555939787E+00   0.2499396193E+00   0.3841767024E-04  -0.6038069287E-04   0.0000000000E+00   0.0000000000E+00   0.4285034023E-01  -0.1862025581E-03   0.2133164219E-01   0.2022771790E-03
   0.1361433159E+00   0.2499365336E+00   0.3220591412E-04  -0.6346642670E-04   0.0000000000E+00   0.0000000000E+00   0.4150996324E-01  -0.1345240714E-03   0.2068730583E-01   0.3629282970E-03
   0.1750447897E+00   0.2499423119E+00   0.4479270187E-04  -0.5768807948E-04   0.0000000000E+00   0.0000000000E+00   0.4351433657E-01  -0.1885841583E-03   0.2166244295E-01   0.9328557943E-04
   0.1759714039E+00   0.2324441982E+00   0.4726693581E-04  -0.5191483191E-04   0.0000000000E+00   0.0000000000E+00   0.4206698881E-01  -0.1580907287E-03   0.2095402995E-01   0.2031185309E-03
   0.2250876081E+00   0.0000000000E+00   0.8761410396E-04   0.0000000000E+00   0.0000000000E+00   0.0000000000E+00   0.1527135778E-01   0.4068489102E-02   0.9669730044E-02  -0.3690133428E-03
   0.2459227769E+00   0.0000000000E+00   0.8943994615E-04   0.0000000000E+00   0.0000000000E+00   0.0000000000E+00   0.1690103365E-01   0.4702038298E-02   0.1080131994E-01  -0.3220683554E-03
   0.2483357169E+00   0.1834071171E-01   0.8937489958E-04  -0.1716185479E-05   0.0000000000E+00   0.0000000000E+00   0.1739347051E-01   0.4619566695E-02   0.1100629847E-01  -0.1105433420E-02
   0.1966060356E+00   0.1994751414E+00   0.5746961302E-04  -0.3944161739E-04   0.0000000000E+00   0.0000000000E+00   0.3876486415E-01  -0.1002958430E-02   0.1888057524E-01  -0.7337268062E-03
   0.2156223125E+00   0.1983547276E+00   0.6318752934E-04  -0.3752942070E-04   0.0000000000E+00   0.0000000000E+00   0.3815660827E-01  -0.5753171232E-03   0.1879026976E-01  -0.1209039797E-02
   0.2156034784E+00   0.2150955703E+00   0.6143037008E-04  -0.4247766559E-04   0.0000000000E+00   0.0000000000E+00   0.3971578984E-01  -0.3312682998E-03   0.1969186693E-01  -0.8109186248E-03
   0.1962782325E+00   0.2155769876E+00   0.5552452145E-04  -0.4433435000E-04   0.0000000000E+00   0.0000000000E+00   0.4014942298E-01  -0.5373938103E-03   0.1980561846E-01  -0.3810270686E-03
   0.1175471390E+00   0.2323755080E+00   0.2926500587E-04  -0.6149199035E-04   0.0000000000E+00   0.0000000000E+00   0.3924821761E-01  -0.2413320799E-03   0.1950305269E-01   0.1810219966E-02
   0.1189124086E+00   0.2151916487E+00   0.3177856354E-04  -0.5605726338E-04   0.0000000000E+00   0.0000000000E+00   0.3947099839E-01  -0.1037518014E-02   0.1921635586E-01   0.2987479105E-02
   0.2139465188E+00   0.2499464545E+00   0.5763483218E-04  -0.5354545263E-04   0.0000000000E+00   0.0000000000E+00   0.4326122975E-01  -0.1733136065E-03   0.2154352719E-01  -0.7372537763E-04
   0.1944956688E+00   0.2499445892E+00   0.5122075120E-04  -0.5541081615E-04   0.0000000000E+00   0.0000000000E+00   0.4359518400E-01  -0.1921954296E-03   0.2170106025E-01  -0.2338764732E-04
   0.1954885711E+00   0.2323694334E+00   0.5343405928E-04  -0.4962561167E-04   0.0000000000E+00   0.0000000000E+00   0.4206030985E-01  -0.9811795928E-04   0.2098067632E-01  -0.1538364399E-03
   0.2149717041E+00   0.2322359430E+00   0.5955807259E-04  -0.4778303944E-04   0.0000000000E+00   0.0000000000E+00   0.4174336391E-01  -0.4248968712E-04   0.2085002010E-01  -0.4062820608E-03
   0.2343998050E+00   0.2319072845E+00   0.6561904228E-04  -0.4629149007E-04   0.0000000000E+00   0.0000000000E+00   0.4122908931E-01   0.4955290626E-05   0.2061660996E-01  -0.5393977211E-03
   0.2537685605E+00   0.2317788922E+00   0.7155251930E-04  -0.4520775136E-04   0.0000000000E+00   0.0000000000E+00   0.4063533443E-01   0.3625053892E-04   0.2033538577E-01  -0.5827263335E-03
   0.2528479938E+00   0.2499490963E+00   0.7020879471E-04  -0.5090370895E-04   0.0000000000E+00   0.0000000000E+00   0.4198065684E-01  -0.1317546795E-03   0.2092403259E-01  -0.1225488663E-03
   0.2333973028E+00   0.2499479415E+00   0.6396877371E-04  -0.5205846648E-04   0.0000000000E+00   0.0000000000E+00   0.4267248400E-01  -0.1553177535E-03   0.2125815795E-01  -0.1316904993E-03
   0.3111994068E+00   0.2499510127E+00   0.8828480315E-04  -0.4898732006E-04   0.0000000000E+00   0.0000000000E+00   0.4017433262E-01  -0.8125630497E-04   0.2004613723E-01  -0.8617575076E-04
   0.3115913118E+00   0.2312288208E+00   0.8879584278E-04  -0.4340020786E-04   0.0000000000E+00   0.0000000000E+00   0.3914681586E-01   0.9490576808E-04   0.1962046840E-01  -0.3228647364E-03
   0.5560086962E-01   0.8312080615E-01   0.4384591793E-04  -0.2615334942E-04   0.0000000000E+00   0.0000000000E+00   0.4013163875E-01   0.1395017419E-01   0.2704036565E-01  -0.2415890391E-01
   0.7196919652E-01   0.9411558433E-01   0.3927231735E-04  -0.2553386919E-04   0.0000000000E+00   0.0000000000E+00   0.4296220247E-01   0.2016385773E-02   0.2248884433E-01  -0.1030662416E-01
   0.6201834177E-01   0.1069556399E+00   0.3023387340E-04  -0.3276812101E-04   0.0000000000E+00   0.0000000000E+00   0.4964521958E-01   0.4512008020E-02   0.2707807223E-01  -0.6051543265E-02
   0.3829782380E-01   0.9235703478E-01   0.2948119683E-04  -0.3091711831E-04   0.0000000000E+00   0.0000000000E+00   0.6546995147E-01   0.8324448349E-02   0.3689646197E-01  -0.1980251028E-01
   0.0000000000E+00   0.1999295970E+00   0.0000000000E+00  -0.7040595360E-04   0.0000000000E+00   0.0000000000E+00   0.3692944405E-01   0.3341347305E-02   0.2013499297E-01   0.6829110080E-03
   0.0000000000E+00   0.1832672456E+00   0.0000000000E+00  -0.6609141624E-04   0.0000000000E+00   0.0000000000E+00   0.4017894879E-01   0.5171344168E-02   0.2267469297E-01   0.6535967996E-03
   0.3652232976E-01   0.1168261544E+00   0.1569186447E-04  -0.4126159995E-04   0.0000000000E+00   0.0000000000E+00   0.6294979032E-01   0.6903437367E-02   0.3492591531E-01  -0.5529120130E-02
   0.2667580717E+00   0.0000000000E+00   0.9139065835E-04   0.0000000000E+00   0.0000000000E+00   0.0000000000E+00   0.1817342448E-01   0.5208887331E-02   0.1169092208E-01  -0.2056235830E-03
   0.2687173258E+00   0.1828970013E-01   0.9138078566E-04  -0.1810471940E-05   0.0000000000E+00   0.0000000000E+00   0.1851112099E-01   0.5090235815E-02   0.1180044239E-01  -0.8324953528E-03
   0.2366081384E+00   0.7430800204E-01   0.8373537475E-04  -0.8194061463E-05   0.0000000000E+00   0.0000000000E+00   0.2214556872E-01   0.2135805180E-02   0.1214044413E-01  -0.4182078099E-02
   0.2553031175E+00   0.7382959131E-01   0.8654845546E-04  -0.8299887153E-05   0.0000000000E+00   0.0000000000E+00   0.2243079163E-01   0.3021793154E-02   0.1272603786E-01  -0.3330080362E-02
   0.3104308901E+00   0.3712295095E-01   0.9543305760E-04  -0.4011153477E-05   0.0000000000E+00   0.0000000000E+00   0.2065073393E-01   0.5396463482E-02   0.1302333823E-01  -0.7794781029E-03
   0.2905333000E+00   0.3677335023E-01   0.9318803885E-04  -0.3889072952E-05   0.0000000000E+00   0.0000000000E+00   0.2015887661E-01   0.5145404057E-02   0.1265188729E-01  -0.1201076096E-02
   0.3500999940E+00   0.2115009085E+00   0.1000000000E-03  -0.3755546059E-04   0.0000000000E+00   0.0000000000E+00   0.3715701795E-01   0.3692155742E-03   0.1876274150E-01   0.3931701421E-04
   0.3310031380E+00   0.2119431392E+00   0.9471996211E-04  -0.3772476438E-04   0.0000000000E+00   0.0000000000E+00   0.3722589605E-01   0.3282790718E-03   0.1877671202E-01  -0.3416993657E-03
   0.3309380470E+00   0.1926690876E+00   0.9501600493E-04  -0.3255043067E-04   0.0000000000E+00   0.0000000000E+00   0.3544872726E-01   0.7415442228E-03   0.1809477384E-01  -0.4522214550E-03
   0.3500999940E+00   0.1922752930E+00   0.1000000000E-03  -0.3240304017E-04   0.0000000000E+00   0.0000000000E+00   0.3536323346E-01   0.7511518692E-03   0.1805683152E-01   0.5467573862E-04
   0.2926467505E+00   0.2126456727E+00   0.8399753673E-04  -0.3837734494E-04   0.0000000000E+00   0.0000000000E+00   0.3776357349E-01   0.2207820033E-03   0.1899179790E-01  -0.8748980723E-03
   0.2735824906E+00   0.2131044000E+00   0.7856155706E-04  -0.3896401000E-04   0.0000000000E+00   0.0000000000E+00   0.3818360632E-01   0.1243025258E-03   0.1915357135E-01  -0.1052095437E-02
   0.2734352488E+00   0.1942387789E+00   0.7973481111E-04  -0.3372413591E-04   0.0000000000E+00   0.0000000000E+00   0.3635521606E-01   0.3168620582E-03   0.1833567234E-01  -0.1411080912E-02
   0.2925038118E+00   0.1934136708E+00   0.8488481800E-04  -0.3311420737E-04   0.0000000000E+00   0.0000000000E+00   0.3596333639E-01   0.4973434040E-03   0.1822997529E-01  -0.1181428668E-02
   0.1944865633E+00   0.5816469567E-01   0.7994925961E-04  -0.5421731827E-05   0.0000000000E+00   0.0000000000E+00   0.1822375313E-01   0.1692110408E-03   0.9196298158E-02  -0.5909506436E-02
   0.2141766552E+00   0.5660812111E-01   0.8277616646E-04  -0.5461989799E-05   0.0000000000E+00   0.0000000000E+00   0.1890792027E-01   0.1755806341E-02   0.1033165667E-01  -0.4733916492E-02
   0.7320588117E-01   0.1305536760E+00   0.2691186591E-04  -0.3838704938E-04   0.0000000000E+00   0.0000000000E+00   0.4752837314E-01  -0.7374692715E-03   0.2339498402E-01   0.1484485310E-02
   0.5551006549E-01   0.1224358408E+00   0.2244389009E-04  -0.3961922713E-04   0.0000000000E+00   0.0000000000E+00   0.5364677421E-01   0.1873990242E-02   0.2775982702E-01  -0.2312154674E-02
   0.8081037824E-01   0.1172448233E+00   0.3315784338E-04  -0.3126369039E-04   0.0000000000E+00   0.0000000000E+00   0.4482357391E-01  -0.4228466968E-02   0.2029714752E-01  -0.1375010971E-02
   0.5834450940E-01   0.2499231250E+00   0.1117580493E-04  -0.7687503353E-04   0.0000000000E+00   0.0000000000E+00   0.3009650095E-01   0.2814298008E-03   0.1518866160E-01   0.6249957975E-03
   0.7820870605E-01   0.2133565562E+00   0.2004825389E-04  -0.6407382943E-04   0.0000000000E+00   0.0000000000E+00   0.3741315295E-01   0.4197501415E-05   0.1870830105E-01   0.4306245478E-02
   0.7801786104E-01   0.1933760563E+00   0.2136123887E-04  -0.5831668903E-04   0.0000000000E+00   0.0000000000E+00   0.3985002394E-01  -0.2439361435E-03   0.1980264784E-01   0.5212459624E-02
   0.1768059764E+00   0.2157530012E+00   0.4953444757E-04  -0.4659878436E-04   0.0000000000E+00   0.0000000000E+00   0.4035770295E-01  -0.7418922786E-03   0.1980750918E-01   0.2598191401E-03
   0.3116006603E+00   0.1537065202E+00   0.9143830075E-04  -0.2318684443E-04   0.0000000000E+00   0.0000000000E+00   0.3151206095E-01   0.1626561238E-02   0.1656897971E-01  -0.1184671868E-02
   0.3115873703E+00   0.1734103103E+00   0.9066534891E-04  -0.2780671435E-04   0.0000000000E+00   0.0000000000E+00   0.3361111782E-01   0.1105223688E-02   0.1735782359E-01  -0.1032618818E-02
   0.1166929494E+00   0.2499331552E+00   0.2628239330E-04  -0.6684477044E-04   0.0000000000E+00   0.0000000000E+00   0.3929863206E-01  -0.7185875773E-04   0.1961299438E-01   0.5183234739E-03
   0.7076605367E-01   0.7068874401E-01   0.5537227175E-04  -0.2193739069E-04   0.0000000000E+00   0.0000000000E+00   0.1446062076E-01   0.9155170646E-02   0.1180765955E-01  -0.1135132275E-01
   0.8394394567E-01   0.7964652036E-01   0.5098926954E-04  -0.1844763527E-04   0.0000000000E+00   0.0000000000E+00   0.2599528271E-01   0.2447221086E-04   0.1300961726E-01  -0.1071126972E-01
   0.2350057406E+00   0.2142700743E+00   0.6728257966E-04  -0.4092972004E-04   0.0000000000E+00   0.0000000000E+00   0.3919978674E-01  -0.1491917709E-03   0.1952490698E-01  -0.1036962287E-02
   0.1774907466E+00   0.1998718434E+00   0.5165255184E-04  -0.4164364738E-04   0.0000000000E+00   0.0000000000E+00   0.3932118488E-01  -0.1365800985E-02   0.1897731239E-01   0.6150927438E-05
   0.1585694762E+00   0.1997432420E+00   0.4585715390E-04  -0.4419600217E-04   0.0000000000E+00   0.0000000000E+00   0.3963740149E-01  -0.1683733014E-02   0.1897645470E-01   0.9485351661E-03
   0.1597296607E+00   0.1838719180E+00   0.4820665312E-04  -0.3909303491E-04   0.0000000000E+00   0.0000000000E+00   0.3907753428E-01  -0.2556415904E-02   0.1826019398E-01   0.4592765132E-03
   0.1778657620E+00   0.1845504017E+00   0.5370701534E-04  -0.3694326972E-04   0.0000000000E+00   0.0000000000E+00   0.3824002859E-01  -0.2100501327E-02   0.1806940224E-01  -0.5159999921E-03
   0.2543717469E+00   0.2136785516E+00   0.7299991556E-04  -0.3980335830E-04   0.0000000000E+00   0.0000000000E+00   0.3868867118E-01   0.8110259516E-05   0.1934800375E-01  -0.1112863296E-02
   0.3118008638E+00   0.2122945446E+00   0.8937377054E-04  -0.3798740025E-04   0.0000000000E+00   0.0000000000E+00   0.3746900050E-01   0.3002997118E-03   0.1888427241E-01  -0.6252034987E-03
   0.3117553521E+00   0.1930004004E+00   0.8999605200E-04  -0.3275862864E-04   0.0000000000E+00   0.0000000000E+00   0.3562059652E-01   0.6180801686E-03   0.1811897596E-01  -0.8510039113E-03
   0.6711524133E-01   0.1440266995E+00   0.2233092820E-04  -0.4464150206E-04   0.0000000000E+00   0.0000000000E+00   0.4736835472E-01  -0.4915204762E-04   0.2365912814E-01   0.3247400828E-02
   0.6213531169E-01   0.1545898432E+00   0.1924009152E-04  -0.4959479866E-04   0.0000000000E+00   0.0000000000E+00   0.4679037022E-01   0.1505886354E-02   0.2414764533E-01   0.4414572024E-02
   0.1526143725E+00   0.3951291282E-01   0.7848653876E-04  -0.2805983625E-05   0.0000000000E+00   0.0000000000E+00   0.1007744945E-01  -0.4504976219E-02   0.2786180892E-02  -0.7093789004E-02
   0.1354278829E+00   0.4589480796E-01   0.7468988049E-04  -0.3931241231E-05   0.0000000000E+00   0.0000000000E+00   0.1077129610E-01  -0.6509025239E-02   0.2131092806E-02  -0.9035434388E-02
   0.1625833010E+00   0.0000000000E+00   0.8330695165E-04   0.0000000000E+00   0.0000000000E+00   0.0000000000E+00   0.6991083703E-02  -0.5893933615E-03   0.3200781154E-02  -0.9513487402E-03
   0.1665125874E+00   0.1949754605E-01   0.8263541153E-04  -0.1210147989E-05   0.0000000000E+00   0.0000000000E+00   0.8391627407E-02  -0.6680350245E-03   0.3861718956E-02  -0.2929736643E-02
   0.2755294991E+00   0.9271280283E-01   0.8809112041E-04  -0.1135657486E-04   0.0000000000E+00   0.0000000000E+00   0.2481637687E-01   0.2959851945E-02   0.1388783664E-01  -0.2718420069E-02
   0.2937185892E+00   0.9347904939E-01   0.9099922123E-04  -0.1155860695E-04   0.0000000000E+00   0.0000000000E+00   0.2497400508E-01   0.3386033166E-02   0.1417973552E-01  -0.2026935368E-02
   0.2938596116E+00   0.1128339139E+00   0.8989458791E-04  -0.1489707626E-04   0.0000000000E+00   0.0000000000E+00   0.2704432230E-01   0.2680936572E-02   0.1486233218E-01  -0.2040106612E-02
   0.2759905828E+00   0.1113599371E+00   0.8670183091E-04  -0.1461289017E-04   0.0000000000E+00   0.0000000000E+00   0.2697063012E-01   0.2253013036E-02   0.1461152934E-01  -0.2666685018E-02
   0.2929669706E+00   0.7442999787E-01   0.9191955840E-04  -0.8663433356E-05   0.0000000000E+00   0.0000000000E+00   0.2305242065E-01   0.4067707468E-02   0.1355979286E-01  -0.1899230986E-02
   0.1711695683E+00   0.3887941313E-01   0.8053032894E-04  -0.2816369223E-05   0.0000000000E+00   0.0000000000E+00   0.1214568011E-01  -0.6171696709E-03   0.5764139934E-02  -0.6069664099E-02
   0.2930531219E+00   0.1327306114E+00   0.8851485642E-04  -0.1875255268E-04   0.0000000000E+00   0.0000000000E+00   0.2938932201E-01   0.1972406315E-02   0.1568055055E-01  -0.1982523999E-02
   0.5192929163E-01   0.1833077674E+00   0.1421973246E-04  -0.6072158001E-04   0.0000000000E+00   0.0000000000E+00   0.4099984894E-01   0.2072759277E-02   0.2153587338E-01   0.4870381908E-02
   0.5043480321E-01   0.1685354200E+00   0.1443701242E-04  -0.5661599418E-04   0.0000000000E+00   0.0000000000E+00   0.4416237382E-01   0.3191237710E-02   0.2367633223E-01   0.4948587541E-02
   0.2918324457E+00   0.5549970342E-01   0.9265371574E-04  -0.6119877809E-05   0.0000000000E+00   0.0000000000E+00   0.2142647176E-01   0.4676919517E-02   0.1305143460E-01  -0.1611583654E-02
   0.2917522995E+00   0.1532709421E+00   0.8698347653E-04  -0.2321888678E-04   0.0000000000E+00   0.0000000000E+00   0.3161443896E-01   0.1358329413E-02   0.1648605446E-01  -0.1716576641E-02
   0.2706575579E+00   0.3668878216E-01   0.9097487497E-04  -0.3755239664E-05   0.0000000000E+00   0.0000000000E+00   0.1949430395E-01   0.4786649810E-02   0.1214023407E-01  -0.1669488988E-02
   0.2507787344E+00   0.3681062995E-01   0.8881039791E-04  -0.3612653896E-05   0.0000000000E+00   0.0000000000E+00   0.1858792673E-01   0.4247288211E-02   0.1141737912E-01  -0.2230097042E-02
   0.2336203745E+00   0.5569456997E-01   0.8535249534E-04  -0.5609229108E-05   0.0000000000E+00   0.0000000000E+00   0.1961714113E-01   0.2874824180E-02   0.1124575773E-01  -0.3746634892E-02
   0.2531251565E+00   0.5532169511E-01   0.8782349773E-04  -0.5776192010E-05   0.0000000000E+00   0.0000000000E+00   0.2032462486E-01   0.3688745783E-02   0.1200644519E-01  -0.2918664208E-02
   0.2349345553E+00   0.1970186058E+00   0.6886033148E-04  -0.3594417185E-04   0.0000000000E+00   0.0000000000E+00   0.3751772696E-01  -0.2454813765E-03   0.1863575007E-01  -0.1459779451E-02
   0.2542953280E+00   0.1956404593E+00   0.7439501971E-04  -0.3469073345E-04   0.0000000000E+00   0.0000000000E+00   0.3688090487E-01   0.2278331478E-04   0.1845147506E-01  -0.1517803287E-02
   0.1596395243E+00   0.7268795364E-01   0.7111026424E-04  -0.7703963550E-05   0.0000000000E+00   0.0000000000E+00   0.2186410266E-01  -0.4135222327E-02   0.8864262877E-02  -0.8457329965E-02
   0.1738134385E+00   0.6065620518E-01   0.7650853260E-04  -0.5513022907E-05   0.0000000000E+00   0.0000000000E+00   0.1813663409E-01  -0.2036524758E-02   0.8049893666E-02  -0.7559915415E-02
   0.1841929963E+00   0.8233002038E-01   0.7350331700E-04  -0.9288820103E-05   0.0000000000E+00   0.0000000000E+00   0.2374555215E-01  -0.2486988171E-02   0.1062906940E-01  -0.6971133955E-02
   0.1694691710E+00   0.8994311348E-01   0.6867300355E-04  -0.1116591911E-04   0.0000000000E+00   0.0000000000E+00   0.2599906034E-01  -0.3907923631E-02   0.1104534744E-01  -0.7120707103E-02
   0.9886476944E-01   0.2141494333E+00   0.2588873969E-04  -0.5994474903E-04   0.0000000000E+00   0.0000000000E+00   0.3866453389E-01  -0.6138346602E-03   0.1902496911E-01   0.3961664483E-02
   0.1397857720E+00   0.1993389993E+00   0.4004500595E-04  -0.4716569449E-04   0.0000000000E+00   0.0000000000E+00   0.3988326504E-01  -0.1872549014E-02   0.1900497790E-01   0.1995194061E-02
   0.1209224025E+00   0.1985887573E+00   0.3422146126E-04  -0.5053171642E-04   0.0000000000E+00   0.0000000000E+00   0.3993480816E-01  -0.1942086710E-02   0.1899598080E-01   0.3122444938E-02
   0.2182521489E+00   0.7552847653E-01   0.8074594057E-04  -0.8221565185E-05   0.0000000000E+00   0.0000000000E+00   0.2204076246E-01   0.1019177090E-02   0.1152973918E-01  -0.5114738783E-02
   0.8033176239E-01   0.1527505602E+00   0.2568689299E-04  -0.4454576279E-04   0.0000000000E+00   0.0000000000E+00   0.4496097793E-01  -0.1739473354E-02   0.2161032007E-01   0.3916752003E-02
   0.6985633081E-01   0.1666891148E+00   0.2071271153E-04  -0.5175022677E-04   0.0000000000E+00   0.0000000000E+00   0.4337766191E-01   0.2036354844E-03   0.2179021288E-01   0.5104608018E-02
   0.1414879019E+00   0.1830732759E+00   0.4256293204E-04  -0.4172910918E-04   0.0000000000E+00   0.0000000000E+00   0.3965716038E-01  -0.2867815989E-02   0.1839430430E-01   0.1574525499E-02
   0.2725834461E+00   0.1744779369E+00   0.8090405624E-04  -0.2856309483E-04   0.0000000000E+00   0.0000000000E+00   0.3432059831E-01   0.4850586467E-03   0.1740248042E-01  -0.1808045716E-02
   0.2920288402E+00   0.1736010954E+00   0.8585615186E-04  -0.2802458406E-04   0.0000000000E+00   0.0000000000E+00   0.3382377942E-01   0.8231188655E-03   0.1732310267E-01  -0.1530270215E-02
   0.9429515048E-01   0.1609963271E+00   0.2955537608E-04  -0.4396393080E-04   0.0000000000E+00   0.0000000000E+00   0.4293644479E-01  -0.3200556080E-02   0.1986754700E-01   0.3775271316E-02
   0.8720517985E-01   0.1754332892E+00   0.2560844554E-04  -0.5054884165E-04   0.0000000000E+00   0.0000000000E+00   0.4227284780E-01  -0.1667929723E-02   0.2030205299E-01   0.4906946489E-02
   0.2741701623E+00   0.7396501567E-01   0.8926029527E-04  -0.8468632690E-05   0.0000000000E+00   0.0000000000E+00   0.2274161004E-01   0.3635793942E-02   0.1318843822E-01  -0.2576392807E-02
   0.2262247067E+00   0.1122859313E+00   0.7681666681E-04  -0.1501566523E-04   0.0000000000E+00   0.0000000000E+00   0.2792393306E-01  -0.1053551655E-03   0.1390901076E-01  -0.4370135255E-02
   0.2225235193E+00   0.9417314378E-01   0.7873131690E-04  -0.1143372190E-04   0.0000000000E+00   0.0000000000E+00   0.2516663739E-01   0.3018834413E-03   0.1273400573E-01  -0.4952630424E-02
   0.2724760513E+00   0.5525609487E-01   0.9024528207E-04  -0.5952933615E-05   0.0000000000E+00   0.0000000000E+00   0.2093013578E-01   0.4270291084E-02   0.1259996143E-01  -0.2226394765E-02
   0.1569452154E+00   0.5348972253E-01   0.7559535639E-04  -0.4559568231E-05   0.0000000000E+00   0.0000000000E+00   0.1535193883E-01  -0.4173714645E-02   0.5589000311E-02  -0.8479708842E-02
   0.1468260225E+00   0.6075106151E-01   0.7202550303E-04  -0.5811792685E-05   0.0000000000E+00   0.0000000000E+00   0.1734506771E-01  -0.5218933151E-02   0.6062946017E-02  -0.8432244072E-02
   0.1239069170E+00   0.1490710771E+00   0.4166298421E-04  -0.3357788918E-04   0.0000000000E+00   0.0000000000E+00   0.4059398463E-01  -0.5435645363E-02   0.1757881805E-01   0.4073151920E-03
   0.1446485082E+00   0.1473294392E+00   0.4892123588E-04  -0.2958880370E-04   0.0000000000E+00   0.0000000000E+00   0.3813312763E-01  -0.5204831289E-02   0.1646381889E-01  -0.1296939210E-02
   0.1432102601E+00   0.1660971367E+00   0.4537205097E-04  -0.3596927967E-04   0.0000000000E+00   0.0000000000E+00   0.3940729342E-01  -0.4087448446E-02   0.1765956929E-01   0.5497016885E-03
   0.1255240715E+00   0.1662739171E+00   0.3954553754E-04  -0.3913491619E-04   0.0000000000E+00   0.0000000000E+00   0.4040115927E-01  -0.4079997991E-02   0.1816021743E-01   0.1595291513E-02
   0.6670405189E-01   0.1808288947E+00   0.1874788914E-04  -0.5692725001E-04   0.0000000000E+00   0.0000000000E+00   0.4178853691E-01   0.9354718020E-03   0.2136157712E-01   0.5157537544E-02
   0.1095779619E+00   0.1660778327E+00   0.3419092447E-04  -0.4229428805E-04   0.0000000000E+00   0.0000000000E+00   0.4194995623E-01  -0.3842741527E-02   0.1905322628E-01   0.2903158846E-02
   0.1054626517E+00   0.1805465329E+00   0.3115472904E-04  -0.4801612239E-04   0.0000000000E+00   0.0000000000E+00   0.4088266106E-01  -0.2673200488E-02   0.1910434819E-01   0.3951855180E-02
   0.2147670273E+00   0.1816504603E+00   0.6482325439E-04  -0.3281167059E-04   0.0000000000E+00   0.0000000000E+00   0.3660560806E-01  -0.9067453062E-03   0.1784907439E-01  -0.1704369754E-02
   0.2339768332E+00   0.1797892390E+00   0.7034017522E-04  -0.3120904702E-04   0.0000000000E+00   0.0000000000E+00   0.3580399270E-01  -0.3824223775E-03   0.1771043094E-01  -0.1968543844E-02
   0.2753106152E+00   0.1304870814E+00   0.8503522364E-04  -0.1836159183E-04   0.0000000000E+00   0.0000000000E+00   0.2925576788E-01   0.1689835528E-02   0.1547249225E-01  -0.2537292750E-02
   0.2704026923E+00   0.1522631163E+00   0.8215731875E-04  -0.2318972991E-04   0.0000000000E+00   0.0000000000E+00   0.3192881942E-01   0.8937755061E-03   0.1641096924E-01  -0.2333112751E-02
   0.2533692441E+00   0.1774571205E+00   0.7573012696E-04  -0.2983547629E-04   0.0000000000E+00   0.0000000000E+00   0.3494087909E-01   0.1581129590E-03   0.1754914504E-01  -0.2007092277E-02
   0.1221289187E+00   0.5812098490E-01   0.6866473930E-04  -0.6615803740E-05   0.0000000000E+00   0.0000000000E+00   0.1486109424E-01  -0.8611468154E-02   0.3124750545E-02  -0.9233060862E-02
   0.1101014161E+00   0.7309239442E-01   0.6017811759E-04  -0.1116758397E-04   0.0000000000E+00   0.0000000000E+00   0.2289201118E-01  -0.8862879935E-02   0.7014425334E-02  -0.9485063362E-02
   0.1475274584E+00   0.8122527805E-01   0.6608839057E-04  -0.9937053687E-05   0.0000000000E+00   0.0000000000E+00   0.2537922259E-01  -0.5884835664E-02   0.9746998518E-02  -0.8398253183E-02
   0.1352998578E+00   0.7049982214E-01   0.6682775007E-04  -0.8121463819E-05   0.0000000000E+00   0.0000000000E+00   0.2127416173E-01  -0.6961691559E-02   0.7156091959E-02  -0.9430746889E-02
   0.1010099976E+00   0.1969124597E+00   0.2813657878E-04  -0.5421832800E-04   0.0000000000E+00   0.0000000000E+00   0.4010164448E-01  -0.1556648855E-02   0.1927211236E-01   0.4283489217E-02
   0.1235678491E+00   0.1823218671E+00   0.3686514901E-04  -0.4480185477E-04   0.0000000000E+00   0.0000000000E+00   0.4036449089E-01  -0.2990782447E-02   0.1868648048E-01   0.2725328032E-02
   0.1611619745E+00   0.1679198863E+00   0.5087247353E-04  -0.3390274016E-04   0.0000000000E+00   0.0000000000E+00   0.3809299742E-01  -0.3570596881E-02   0.1726085504E-01  -0.5464048987E-03
   0.1782015888E+00   0.1698166002E+00   0.5580780410E-04  -0.3249783163E-04   0.0000000000E+00   0.0000000000E+00   0.3728532301E-01  -0.2625845154E-02   0.1732939233E-01  -0.1189674090E-02
   0.8808883823E-01   0.1397935347E+00   0.3055282577E-04  -0.3787425656E-04   0.0000000000E+00   0.0000000000E+00   0.4462030867E-01  -0.4333258857E-02   0.2014312204E-01   0.1834148292E-02
   0.9943937541E-01   0.8894829194E-01   0.5018740693E-04  -0.1741456117E-04   0.0000000000E+00   0.0000000000E+00   0.3380263062E-01  -0.7503002196E-02   0.1314955121E-01  -0.7743481346E-02
   0.9641261620E-01   0.1276211215E+00   0.3624180264E-04  -0.3159845297E-04   0.0000000000E+00   0.0000000000E+00   0.4359598514E-01  -0.5517457059E-02   0.1903888326E-01  -0.5795787210E-03
   0.2506123070E+00   0.1600705444E+00   0.7669995768E-04  -0.2547564535E-04   0.0000000000E+00   0.0000000000E+00   0.3336153952E-01   0.2532215883E-03   0.1680704440E-01  -0.2438421554E-02
   0.2594352577E+00   0.1275172874E+00   0.8197770898E-04  -0.1787658414E-04   0.0000000000E+00   0.0000000000E+00   0.2929474607E-01   0.1047856889E-02   0.1517099805E-01  -0.3019515180E-02
   0.1962363455E+00   0.1840093276E+00   0.5923551402E-04  -0.3491444346E-04   0.0000000000E+00   0.0000000000E+00   0.3745922673E-01  -0.1468722067E-02   0.1799489243E-01  -0.1255950319E-02
   0.2583648708E+00   0.1414837562E+00   0.8033184414E-04  -0.2094877473E-04   0.0000000000E+00   0.0000000000E+00   0.3080737476E-01   0.5484526943E-03   0.1567760017E-01  -0.2797986585E-02
   0.2460248817E+00   0.1446207279E+00   0.7716272371E-04  -0.2186314206E-04   0.0000000000E+00   0.0000000000E+00   0.3143885035E-01   0.2750812769E-03   0.1585664867E-01  -0.2849251048E-02
   0.1917370071E+00   0.1589614429E+00   0.6131407795E-04  -0.2812114185E-04   0.0000000000E+00   0.0000000000E+00   0.3505280339E-01  -0.2342139375E-02   0.1635500490E-01  -0.2340540944E-02
   0.1945663130E+00   0.1697591791E+00   0.6062101879E-04  -0.3092493716E-04   0.0000000000E+00   0.0000000000E+00   0.3629855099E-01  -0.1888844118E-02   0.1720450934E-01  -0.1789796388E-02
   0.1798303905E+00   0.1552680375E+00   0.5843049793E-04  -0.2803448368E-04   0.0000000000E+00   0.0000000000E+00   0.3576728579E-01  -0.3078532961E-02   0.1634404953E-01  -0.2036355581E-02
   0.1010136586E+00   0.1485293846E+00   0.3370462477E-04  -0.3811341452E-04   0.0000000000E+00   0.0000000000E+00   0.4287654069E-01  -0.4271022803E-02   0.1930237289E-01   0.1955713037E-02
   0.2004615711E+00   0.7797202357E-01   0.7741613007E-04  -0.8479834554E-05   0.0000000000E+00   0.0000000000E+00   0.2228890810E-01  -0.6067511835E-03   0.1084086164E-01  -0.6215444395E-02
   0.2114225282E+00   0.1146550031E+00   0.7324917655E-04  -0.1576492978E-04   0.0000000000E+00   0.0000000000E+00   0.2881545211E-01  -0.1081672172E-02   0.1386661263E-01  -0.4626334597E-02
   0.2066528124E+00   0.9688336855E-01   0.7518336736E-04  -0.1202814918E-04   0.0000000000E+00   0.0000000000E+00   0.2614082983E-01  -0.9671252396E-03   0.1258660056E-01  -0.5520851866E-02
   0.8996334094E-01   0.1039740810E+00   0.4111393807E-04  -0.2447597051E-04   0.0000000000E+00   0.0000000000E+00   0.4034001541E-01  -0.6587074266E-02   0.1687613304E-01  -0.4455141885E-02
   0.1245354489E+00   0.8337512639E-01   0.5964888670E-04  -0.1206220991E-04   0.0000000000E+00   0.0000000000E+00   0.2751237516E-01  -0.8225809325E-02   0.9643090051E-02  -0.8792423775E-02
   0.1087981918E+00   0.1151672731E+00   0.4389184809E-04  -0.2437288328E-04   0.0000000000E+00   0.0000000000E+00   0.3935177658E-01  -0.7033799798E-02   0.1615866521E-01  -0.3561504216E-02
   0.2438950205E+00   0.1279715445E+00   0.7857045300E-04  -0.1814951807E-04   0.0000000000E+00   0.0000000000E+00   0.2949502075E-01   0.4250232869E-03   0.1495972282E-01  -0.3517309969E-02
   0.1989494054E+00   0.1517159714E+00   0.6435238638E-04  -0.2562262176E-04   0.0000000000E+00   0.0000000000E+00   0.3444343356E-01  -0.1924396603E-02   0.1625919329E-01  -0.2683520086E-02
   0.2054370412E+00   0.1444125275E+00   0.6716617396E-04  -0.2325049668E-04   0.0000000000E+00   0.0000000000E+00   0.3341571898E-01  -0.1782532832E-02   0.1581627674E-01  -0.3257277852E-02
   0.1924640845E+00   0.1008075372E+00   0.7145252091E-04  -0.1307876778E-04   0.0000000000E+00   0.0000000000E+00   0.2745951369E-01  -0.2151039784E-02   0.1265398387E-01  -0.5796195388E-02
   0.1417450127E+00   0.1241910908E+00   0.5274668234E-04  -0.2253717160E-04   0.0000000000E+00   0.0000000000E+00   0.3591725221E-01  -0.6444162983E-02   0.1473624988E-01  -0.3763307636E-02
   0.1459237469E+00   0.1118709012E+00   0.5705490213E-04  -0.1832678614E-04   0.0000000000E+00   0.0000000000E+00   0.3318198001E-01  -0.6489737315E-02   0.1334585443E-01  -0.5371999125E-02
   0.1586601865E+00   0.1176499965E+00   0.5934945325E-04  -0.1892254689E-04   0.0000000000E+00   0.0000000000E+00   0.3288115899E-01  -0.5306855958E-02   0.1378687577E-01  -0.4956176514E-02
   0.1541495127E+00   0.1313540312E+00   0.5503972340E-04  -0.2339780750E-04   0.0000000000E+00   0.0000000000E+00   0.3554655476E-01  -0.5304215497E-02   0.1512086721E-01  -0.3572177127E-02
   0.1638194095E+00   0.1519509562E+00   0.5418751909E-04  -0.2868381252E-04   0.0000000000E+00   0.0000000000E+00   0.3653297453E-01  -0.4043201161E-02   0.1624456179E-01  -0.1807307920E-02
   0.1114290549E+00   0.1549102384E+00   0.3637092325E-04  -0.3801062364E-04   0.0000000000E+00   0.0000000000E+00   0.4142608294E-01  -0.4937508902E-02   0.1824392213E-01   0.2092679166E-02
   0.1373079279E+00   0.1347172779E+00   0.4895094278E-04  -0.2660613300E-04   0.0000000000E+00   0.0000000000E+00   0.3809056038E-01  -0.7025820228E-02   0.1553205943E-01  -0.2057026922E-02
   0.1805596755E+00   0.1056399850E+00   0.6772153228E-04  -0.1453795814E-04   0.0000000000E+00   0.0000000000E+00   0.2888457729E-01  -0.3444651822E-02   0.1271970834E-01  -0.5859168656E-02
   0.1510320907E+00   0.1000220716E+00   0.6154266489E-04  -0.1453435853E-04   0.0000000000E+00   0.0000000000E+00   0.2984367734E-01  -0.5835382004E-02   0.1200390759E-01  -0.6659302183E-02
   0.1381614199E+00   0.9238407077E-01   0.6033392239E-04  -0.1338063416E-04   0.0000000000E+00   0.0000000000E+00   0.2919767311E-01  -0.7194212652E-02   0.1100151019E-01  -0.7809701820E-02
   0.1558261017E+00   0.9053409708E-01   0.6538173640E-04  -0.1187011817E-04   0.0000000000E+00   0.0000000000E+00   0.2702674368E-01  -0.5530105318E-02   0.1074810421E-01  -0.7974522912E-02
   0.1273058058E+00   0.1185477171E+00   0.4942676046E-04  -0.2260293853E-04   0.0000000000E+00   0.0000000000E+00   0.3717039841E-01  -0.7883932193E-02   0.1464294024E-01  -0.4048146699E-02
   0.1259847764E+00   0.1331094042E+00   0.4536236640E-04  -0.2774780059E-04   0.0000000000E+00   0.0000000000E+00   0.3921847740E-01  -0.6194027465E-02   0.1651189472E-01  -0.2020247136E-02
   0.1144803898E+00   0.1296891153E+00   0.4225084004E-04  -0.2853268589E-04   0.0000000000E+00   0.0000000000E+00   0.4005365126E-01  -0.6982113256E-02   0.1653543829E-01  -0.1414552420E-02
   0.2290509795E+00   0.1294719510E+00   0.7507247466E-04  -0.1873704469E-04   0.0000000000E+00   0.0000000000E+00   0.3015001855E-01  -0.3139179403E-03   0.1491775194E-01  -0.3713799168E-02
   0.2011983253E+00   0.1332167947E+00   0.6784533249E-04  -0.2055227491E-04   0.0000000000E+00   0.0000000000E+00   0.3189326175E-01  -0.2015471192E-02   0.1493859650E-01  -0.3758153679E-02
   0.1975866279E+00   0.1180925225E+00   0.6944189023E-04  -0.1694952240E-04   0.0000000000E+00   0.0000000000E+00   0.3009104152E-01  -0.2190731994E-02   0.1394987576E-01  -0.4633026510E-02
   0.2149777819E+00   0.1311390514E+00   0.7153689963E-04  -0.1950960656E-04   0.0000000000E+00   0.0000000000E+00   0.3088259157E-01  -0.1061323193E-02   0.1491033598E-01  -0.3866916675E-02
   0.1086283566E+00   0.1384818001E+00   0.3822364448E-04  -0.3280794030E-04   0.0000000000E+00   0.0000000000E+00   0.4185894567E-01  -0.5891742807E-02   0.1798324176E-01   0.2946284916E-03
   0.1687994024E+00   0.1364703405E+00   0.5839942516E-04  -0.2355049669E-04   0.0000000000E+00   0.0000000000E+00   0.3486301283E-01  -0.4322023060E-02   0.1527018948E-01  -0.3368856383E-02
   0.1863589031E+00   0.1396027800E+00   0.6282707787E-04  -0.2308202395E-04   0.0000000000E+00   0.0000000000E+00   0.3362709136E-01  -0.3143372156E-02   0.1524155476E-01  -0.3403027569E-02
   0.1627053677E+00   0.1046901148E+00   0.6352974417E-04  -0.1507722212E-04   0.0000000000E+00   0.0000000000E+00   0.3023349004E-01  -0.5055256062E-02   0.1258886521E-01  -0.5968965298E-02
   0.1844463431E+00   0.1214474721E+00   0.6554314795E-04  -0.1835290294E-04   0.0000000000E+00   0.0000000000E+00   0.3138120231E-01  -0.3077450249E-02   0.1415159299E-01  -0.4650280501E-02
   0.1716061013E+00   0.1217941616E+00   0.6210029813E-04  -0.1915036966E-04   0.0000000000E+00   0.0000000000E+00   0.3235843613E-01  -0.4316805784E-02   0.1402053476E-01  -0.4707315233E-02
   0.1156610848E+00   0.9812711123E-01   0.5180383543E-04  -0.1756157041E-04   0.0000000000E+00   0.0000000000E+00   0.3356307284E-01  -0.8648696031E-02   0.1245693926E-01  -0.6659263408E-02
   0.1314739665E+00   0.1052971836E+00   0.5441247639E-04  -0.1774942547E-04   0.0000000000E+00   0.0000000000E+00   0.3375323246E-01  -0.7522222459E-02   0.1311524269E-01  -0.6010526294E-02
   0.1719104834E+00   0.1103261000E+00   0.6458543516E-04  -0.1609702924E-04   0.0000000000E+00   0.0000000000E+00   0.2989090766E-01  -0.3971185490E-02   0.1295960189E-01  -0.5713894396E-02
           1           2           3           4
           5           6           7           8
           9          10          11          12
          13          14          15          16
          17          18          19          20
          21          22          23          24
          25          26          27          28
          29          30          31          32
          33          34           4           3
           2           1          35          36
          37          38          39          40
          41          42          36          35
          43          41          44          45
          46           9          47          48
          41          35          39          44
          49          50          51          52
          52          51          53          54
          55          56          57          58
          56          59          60          57
          61          62          63          64
          65          66          67          68
          69          70          71          72
          73          74          25          28
          27          75          76          28
          77          78          24          23
          79          80          81          82
          83          84          85          86
          87          88          89          90
          90          89          62          91
          61          92          91          62
          92          61          59          93
          56          94          93          59
          95          55          54          53
          46          96          10           9
          97          98          99         100
          12         101          98          97
          97         100         102          47
         103         104          31          30
         105         103          30         106
          73         107         108         109
         110         111         112         113
          32          31         114         115
         116         117         118         119
         120         121         122         123
         121          83          86         122
          80         124         125          81
         126         127         128         129
         130         101          12          11
         131          43         101         130
          34         129         132           4
          42          41          43         131
          35           1          40          39
         101          43          45          98
         133         134         109         108
         135         136          13          16
         137         138          65          68
          94          56          55          95
          58         137          54          55
          49          52          68          67
         139         140         141         142
         140         139          82          81
          88          87         142         141
         143         144         145         146
         147          26          25         148
         149         150         128         151
           5           8         152         102
         132         129         128         150
         153         100          99         154
          48          47         102         152
          59          61          64          60
         106         155         113         118
          62          89         156          63
          88         157         156          89
         123         116         119         120
          66          65         134         133
         144         143          84          83
           9          12          97          47
         104         158         114          31
         159         160         127         126
         119         112         161         120
         117         105         106         118
         162         163         164         165
          83         121         166         144
         167         168         141         140
         167         143         146         168
           6         114         158           7
          38          37         169         170
          40         132         150          37
         160         159          20          19
          78         171         172          24
          18          17          21          24
         173         174          78          77
         132          40           1           4
          28          76         107          73
         175         176         177         178
         176         179          57          60
         137          68          52          54
          60          64         177         176
         163         162         155          29
          75          27         174         173
         180         174          27          26
          64          63         181         177
          98          45         182          99
         183         182          45          44
          38         183          44          39
          58          57         179         184
         185         181          63         156
         134         186         187         109
         188          74         187         189
         138         186         134          65
          88         141         168         157
         166         121         120         161
         190         191         166         161
         155         106          30          29
         192         193         194         195
         118         113         112         119
         125          84         143         167
         124          85          84         125
           6         196         115         114
         196           6           5         153
         197          32         115         198
         111         190         161         112
         199         148         188         135
         170         169         200         201
         202         164         163         197
         203         204         146         145
         205         206         201         200
         187          74          73         109
         176         175         207         179
         208         209          16          15
         210         186         138         184
         184         138         137          58
         179         207         210         184
         211         212         172         171
          78         174         180         171
         125         167         140          81
          37         150         149         169
         213         214         215         216
         217         182         183         201
         170         201         183          38
         218         219         206         205
         111         220         221         190
         157         168         146         204
         177         181         222         178
         222         181         185         223
         186         210         189         187
         224         191         190         221
         100         153           5         102
         185         156         157         204
         113         155         162         110
          26         147         193         180
          29          32         197         163
         225         226          19          18
         144         166         191         145
         212         192         227         228
         198         115         196         229
         206         154         217         201
         153         154         229         196
         172         225          18          24
         148          25          74         188
          14          13         175         178
         207         175          13         136
         189         136         135         188
         230         202         197         198
         210         207         136         189
         165         164         231         232
         169         149         233         200
         234         160          19         226
         217         154          99         182
         203         145         191         224
         151         235         233         149
         236         223         203         224
         185         204         203         223
         178         222         237          14
         110         162         165         238
         239         223         236         240
         238         220         111         110
         219         230         198         229
         241         242         232         243
         242          69         220         238
          72          71         240         236
         244         205         200         233
         215         231         164         202
         211         171         180         193
         228         225         172         212
         194         193         147         245
         245         147         148         199
         135          16         209         199
         209         208         246         247
         127         160         234         248
         193         192         212         211
         226         225         228         249
         151         128         127         248
         248         250         235         151
          72         221         220          69
          14         237         251          15
          70          69         252         253
         206         219         229         154
         238         165         232         242
          72         236         224         221
         216         215         202         230
         245         247         254         194
         255         256         257         258
         230         219         218         216
         214         259         231         215
         216         218         260         213
         261         255         258         214
         239         237         222         223
         194         254         262         195
         263         264         227         265
         250         266         267         268
         199         209         247         245
         240          71         269         251
         270         271         246         272
         260         244         273         213
         237         239         240         251
         218         205         244         260
          70         272         269          71
         232         231         259         243
         274         275         243         259
         257         256         263         276
         277         275         274         278
         234         226         249         279
         271         277         262         254
         271         254         247         246
         246         208         269         272
         244         233         235         273
         251         269         208          15
         275         270         253         252
         234         279         250         248
         279         249         264         280
         259         214         258         274
         262         281         276         195
         195         276         263         265
         257         276         281         278
         278         274         258         257
         266         280         256         255
         261         214         213         267
         267         266         255         261
         266         250         279         280
         228         227         264         249
         256         280         264         263
         265         227         192         195
         281         262         277         278
         235         250         268         273
         273         268         267         213
         277         271         270         275
         253         270         272          70
         252          69         242         241
         243         275         252         241
 VARIABLES = X,Y,DU1,DU2,U1,U2,S11,S22,S33,S12
 ZONE, T="0.2000D+01" F=FEPOINT, I=  281 J=  250
   0.1776697507E-01   0.1341363027E+00   0.5979183665E-05  -0.5074666781E-04   0.5979183666E-05  -0.5074666781E-04   0.1112179930E+00   0.1906074771E-01   0.6513806758E-01   0.2876558312E-02
   0.0000000000E+00   0.1332300520E+00   0.0000000000E+00  -0.5164400320E-04   0.0000000000E+00  -0.5164400320E-04   0.1146893676E+00   0.2488499283E-01   0.6978578449E-01   0.3537746451E-02
   0.0000000000E+00   0.1165777002E+00   0.0000000000E+00  -0.4448341174E-04   0.0000000000E+00  -0.4448341175E-04   0.1573378793E+00   0.1932438222E-01   0.8832936413E-01  -0.7071474926E-03
   0.1917202415E-01   0.1162035649E+00   0.8943576807E-05  -0.4381157078E-04   0.8943576808E-05  -0.4381157079E-04   0.1439240261E+00   0.2218471000E-01   0.8305270698E-01  -0.1115532835E-01
   0.7803805632E-01   0.2317381409E+00   0.1827856184E-04  -0.6913104340E-04   0.1827856184E-04  -0.6913104341E-04   0.6992514685E-01  -0.1817699714E-03   0.3487099101E-01   0.4926098573E-02
   0.9782528036E-01   0.2319246850E+00   0.2364022812E-04  -0.6528851146E-04   0.2364022812E-04  -0.6528851146E-04   0.7437579427E-01  -0.3605628834E-03   0.3700687554E-01   0.4538564244E-02
   0.9726373058E-01   0.2498592751E+00   0.2075334073E-04  -0.7036242747E-04   0.2075334073E-04  -0.7036242747E-04   0.7307878484E-01   0.6127116349E-04   0.3656929660E-01   0.1195785692E-02
   0.7780920924E-01   0.2498524184E+00   0.1571432008E-04  -0.7379078017E-04   0.1571432008E-04  -0.7379078017E-04   0.6667908012E-01   0.3349243481E-03   0.3350633209E-01   0.1381735084E-02
   0.1910643400E-01   0.2331675391E+00   0.4121701824E-05  -0.7764495146E-04   0.4121701823E-05  -0.7764495146E-04   0.5807667133E-01   0.6385109643E-03   0.2935700400E-01   0.1498322685E-02
   0.0000000000E+00   0.2331768298E+00   0.0000000000E+00  -0.7825211297E-04   0.0000000000E+00  -0.7825211298E-04   0.5712947823E-01   0.6801062920E-03   0.2890421416E-01   0.1227682550E-02
   0.0000000000E+00   0.2165176981E+00   0.0000000000E+00  -0.7448545528E-04   0.0000000000E+00  -0.7448545528E-04   0.6665606132E-01   0.3401972308E-02   0.3502831623E-01   0.1301690891E-02
   0.1854113453E-01   0.2166268331E+00   0.4419862540E-05  -0.7388995749E-04   0.4419862540E-05  -0.7388995749E-04   0.6731641697E-01   0.3143205566E-02   0.3522910667E-01   0.2861926940E-02
   0.2573756908E+00   0.9225187802E-01   0.8510241400E-04  -0.1119648826E-04   0.8510241400E-04  -0.1119648826E-04   0.4938710730E-01   0.4601454391E-02   0.2699374096E-01  -0.6876661855E-02
   0.2587683798E+00   0.1102570912E+00   0.8355088054E-04  -0.1441942128E-04   0.8355088054E-04  -0.1441942128E-04   0.5405879659E-01   0.3409999463E-02   0.2873382334E-01  -0.6573090857E-02
   0.2420160447E+00   0.1106475665E+00   0.8025633461E-04  -0.1455127495E-04   0.8025633461E-04  -0.1455127495E-04   0.5466115563E-01   0.1657836846E-02   0.2815893305E-01  -0.7792592078E-02
   0.2395441285E+00   0.9265892062E-01   0.8199625298E-04  -0.1119894145E-04   0.8199625299E-04  -0.1119894145E-04   0.4956298364E-01   0.2916326864E-02   0.2623913046E-01  -0.8367149526E-02
   0.9253107375E-01   0.3824598497E-01   0.7156092582E-04  -0.1117881282E-04   0.7156092583E-04  -0.1117881282E-04  -0.7919632797E-03  -0.3081665235E-01  -0.1580399173E-01   0.8933486020E-02
   0.1081888095E+00   0.4608507684E-01   0.7097475148E-04  -0.6732332491E-05   0.7097475149E-04  -0.6732332491E-05   0.9419710084E-02  -0.2393168907E-01  -0.7255844374E-02  -0.8435840871E-02
   0.9623473131E-01   0.6351757160E-01   0.6181745714E-04  -0.1231154978E-04   0.6181745714E-04  -0.1231154978E-04   0.2588538283E-01  -0.1188406822E-01   0.7000517292E-02  -0.1277781738E-01
   0.8327650559E-01   0.5552401716E-01   0.6477304371E-04  -0.1650326995E-04   0.6477304371E-04  -0.1650326995E-04   0.9348237764E-02  -0.2481481255E-02   0.3433309587E-02  -0.4120626254E-02
   0.9822957899E-01   0.1949819625E-01   0.7552619717E-04  -0.5418072788E-05   0.7552619717E-04  -0.5418072787E-05   0.1152739359E-02  -0.5553282873E-01  -0.2718950088E-01   0.9072887616E-02
   0.1001539801E+00   0.0000000000E+00   0.7698956510E-04   0.0000000000E+00   0.7698956511E-04   0.0000000000E+00   0.2570017034E-02  -0.6184938513E-01  -0.2963909125E-01  -0.2309203535E-02
   0.1209954197E+00   0.0000000000E+00   0.8104484716E-04   0.0000000000E+00   0.8104484716E-04   0.0000000000E+00  -0.5075741982E-02  -0.3272391908E-01  -0.1889945254E-01  -0.4342174724E-02
   0.1218876564E+00   0.2610757875E-01   0.7839618509E-04  -0.2364977028E-05   0.7839618510E-04  -0.2364977028E-05   0.2567356964E-02  -0.2701235984E-01  -0.1222225699E-01  -0.6218641581E-02
   0.2107132509E+00   0.3762673669E-01   0.8455596781E-04  -0.3248054236E-05   0.8455596781E-04  -0.3248054235E-05   0.3209271774E-01   0.4947993063E-02   0.1851998500E-01  -0.7521633156E-02
   0.1906228057E+00   0.3837645283E-01   0.8244785288E-04  -0.3023784091E-05   0.8244785289E-04  -0.3023784090E-05   0.2875881181E-01   0.2156349162E-02   0.1545727134E-01  -0.9833367556E-02
   0.1868763877E+00   0.1901025852E-01   0.8411786563E-04  -0.1331042425E-05   0.8411786563E-04  -0.1331042425E-05   0.2272181100E-01   0.3122807116E-02   0.1292205061E-01  -0.4819907635E-02
   0.2074036872E+00   0.1873508514E-01   0.8570262421E-04  -0.1469382204E-05   0.8570262422E-04  -0.1469382204E-05   0.2789249608E-01   0.5956439685E-02   0.1692412939E-01  -0.3825542869E-02
   0.1575104218E+00   0.2158587118E+00   0.4353741393E-04  -0.4936810452E-04   0.4353741393E-04  -0.4936810452E-04   0.8069146675E-01  -0.1790963374E-02   0.3944946268E-01   0.2145231107E-02
   0.1565349444E+00   0.2324961052E+00   0.4113669186E-04  -0.5469841745E-04   0.4113669186E-04  -0.5469841745E-04   0.8328196359E-01  -0.3928421905E-03   0.4144373181E-01   0.1350255241E-02
   0.1370495718E+00   0.2325142832E+00   0.3510040007E-04  -0.5792542449E-04   0.3510040007E-04  -0.5792542449E-04   0.8138735756E-01  -0.5596465302E-03   0.4041304724E-01   0.2423862457E-02
   0.1382903712E+00   0.2157076868E+00   0.3763061793E-04  -0.5254307642E-04   0.3763061792E-04  -0.5254307642E-04   0.8008867099E-01  -0.1983594678E-02   0.3905175711E-01   0.3995184760E-02
   0.0000000000E+00   0.9993207366E-01   0.0000000000E+00  -0.3396367171E-04   0.0000000000E+00  -0.3396367171E-04   0.1975259311E+00  -0.2661880585E-02   0.9743007661E-01   0.3401909146E-02
   0.1954036654E-01   0.9801350631E-01   0.1566706886E-04  -0.3251014675E-04   0.1566706886E-04  -0.3251014675E-04   0.1932810457E+00   0.6155830473E-02   0.9971644370E-01  -0.3279820289E-01
   0.1680919244E-01   0.1512236905E+00   0.5066822311E-05  -0.5651226527E-04   0.5066822311E-05  -0.5651226527E-04   0.9941296852E-01   0.1813413932E-01   0.5877237845E-01   0.3492774300E-02
   0.0000000000E+00   0.1498864807E+00   0.0000000000E+00  -0.5676264270E-04   0.0000000000E+00  -0.5676264270E-04   0.9833614103E-01   0.1843899762E-01   0.5838640157E-01   0.1219585059E-02
   0.5108883748E-01   0.1385762659E+00   0.1726368993E-04  -0.4668703629E-04   0.1726368993E-04  -0.4668703629E-04   0.1030359126E+00   0.8099367530E-02   0.5556652869E-01   0.5270814538E-02
   0.4907694749E-01   0.1539555080E+00   0.1502184627E-04  -0.5223400455E-04   0.1502184627E-04  -0.5223400456E-04   0.9342573242E-01   0.7213995427E-02   0.5031885753E-01   0.8321408188E-02
   0.3319530436E-01   0.1526268149E+00   0.9919829042E-05  -0.5482007311E-04   0.9919829041E-05  -0.5482007311E-04   0.9668088841E-01   0.1268896943E-01   0.5468383522E-01   0.6253425063E-02
   0.3439531981E-01   0.1356418961E+00   0.1192160629E-04  -0.4894592916E-04   0.1192160629E-04  -0.4894592916E-04   0.1079522747E+00   0.1336415266E-01   0.6065700051E-01   0.6459167192E-02
   0.1669387058E-01   0.1676806580E+00   0.4602139266E-05  -0.6124000426E-04   0.4602139266E-05  -0.6124000427E-04   0.8763409817E-01   0.1320303926E-01   0.5041756034E-01   0.3602613037E-02
   0.0000000000E+00   0.1665433948E+00   0.0000000000E+00  -0.6163860473E-04   0.0000000000E+00  -0.6163860473E-04   0.8912530683E-01   0.1525169752E-01   0.5218745840E-01   0.1863049893E-02
   0.1710051322E-01   0.1839941352E+00   0.4525410893E-05  -0.6569639220E-04   0.4525410893E-05  -0.6569639220E-04   0.8104078811E-01   0.9841002796E-02   0.4543998664E-01   0.3779874483E-02
   0.3340931281E-01   0.1684877289E+00   0.9401004198E-05  -0.5958154016E-04   0.9401004198E-05  -0.5958154017E-04   0.8788107177E-01   0.1032737941E-01   0.4910324351E-01   0.8032102907E-02
   0.3453174031E-01   0.1841514824E+00   0.9219105067E-05  -0.6387528069E-04   0.9219105066E-05  -0.6387528070E-04   0.8110604806E-01   0.7381603527E-02   0.4424294092E-01   0.7436271812E-02
   0.1945135806E-01   0.2498381105E+00   0.3456478703E-05  -0.8094473745E-04   0.3456478702E-05  -0.8094473745E-04   0.5073366508E-01   0.9076835412E-03   0.2582015790E-01   0.2574116127E-03
   0.3849474801E-01   0.2327927387E+00   0.8466155921E-05  -0.7577065066E-04   0.8466155919E-05  -0.7577065066E-04   0.6097335605E-01   0.4537349679E-03   0.3071293124E-01   0.3555982759E-02
   0.3890314339E-01   0.2498413063E+00   0.7126545285E-05  -0.7934684440E-04   0.7126545284E-05  -0.7934684440E-04   0.5460845213E-01   0.7926100992E-03   0.2769997710E-01   0.1092390555E-02
   0.3293622571E+00   0.0000000000E+00   0.9778806306E-04   0.0000000000E+00   0.9778806306E-04   0.0000000000E+00   0.4006315329E-01   0.1178144780E-01   0.2592178210E-01  -0.1079642105E-03
   0.3501999940E+00   0.0000000000E+00   0.1000000000E-03   0.0000000000E+00   0.1000000000E-03   0.0000000000E+00   0.4031990347E-01   0.1189036944E-01   0.2610461435E-01  -0.2027294648E-06
   0.3501999940E+00   0.1922662815E-01   0.1000000000E-03  -0.2070875391E-05   0.1000000000E-03  -0.2070875391E-05   0.4074591556E-01   0.1167462539E-01   0.2620974627E-01  -0.2606834923E-04
   0.3299583917E+00   0.1871053795E-01   0.9780234443E-04  -0.2003674211E-05   0.9780234443E-04  -0.2003674211E-05   0.4054539197E-01   0.1161748383E-01   0.2608091627E-01  -0.3680454558E-03
   0.3501999940E+00   0.3845307390E-01   0.1000000000E-03  -0.4233000991E-05   0.1000000000E-03  -0.4233000989E-05   0.4212532552E-01   0.1112602898E-01   0.2662514474E-01  -0.1750922957E-04
   0.3304012484E+00   0.3767477610E-01   0.9771021092E-04  -0.4128198119E-05   0.9771021092E-04  -0.4128198118E-05   0.4188310933E-01   0.1103082484E-01   0.2645643795E-01  -0.7706253410E-03
   0.3307535612E+00   0.5674984514E-01   0.9752608122E-04  -0.6439980614E-05   0.9752608122E-04  -0.6439980612E-05   0.4410793396E-01   0.1015062659E-01   0.2712873769E-01  -0.1034309198E-02
   0.3310322099E+00   0.7593858843E-01   0.9727144701E-04  -0.9030837120E-05   0.9727144701E-04  -0.9030837117E-05   0.4701456429E-01   0.8972279976E-02   0.2799286226E-01  -0.1246565718E-02
   0.3120007004E+00   0.7512780532E-01   0.9458169730E-04  -0.8853737582E-05   0.9458169730E-04  -0.8853737580E-05   0.4663385501E-01   0.8699006615E-02   0.2766587748E-01  -0.2505026087E-02
   0.3113350800E+00   0.5604061336E-01   0.9508099496E-04  -0.6292770225E-05   0.9508099496E-04  -0.6292770223E-05   0.4357754208E-01   0.9862372649E-02   0.2671942297E-01  -0.2118829124E-02
   0.3311762525E+00   0.9523210026E-01   0.9694777247E-04  -0.1195027026E-04   0.9694777247E-04  -0.1195027025E-04   0.5054138163E-01   0.7665534869E-02   0.2910287618E-01  -0.1346465853E-02
   0.3123765623E+00   0.9437707187E-01   0.9395363625E-04  -0.1177506746E-04   0.9395363625E-04  -0.1177506746E-04   0.5022606332E-01   0.7337584400E-02   0.2878124823E-01  -0.2707416314E-02
   0.3311619301E+00   0.1146790127E+00   0.9656657288E-04  -0.1527563873E-04   0.9656657288E-04  -0.1527563872E-04   0.5445985510E-01   0.6230311007E-02   0.3034447615E-01  -0.1391863636E-02
   0.3310199656E+00   0.1342370150E+00   0.9614131343E-04  -0.1900950512E-04   0.9614131343E-04  -0.1900950511E-04   0.5863010244E-01   0.4857917476E-02   0.3174337508E-01  -0.1323176104E-02
   0.3119824726E+00   0.1337558109E+00   0.9230777651E-04  -0.1893553697E-04   0.9230777651E-04  -0.1893553696E-04   0.5865479865E-01   0.4502124717E-02   0.3157783011E-01  -0.2622464538E-02
   0.3123723797E+00   0.1139053015E+00   0.9318834292E-04  -0.1511073396E-04   0.9318834292E-04  -0.1511073396E-04   0.5432620665E-01   0.5941697259E-02   0.3013334928E-01  -0.2765368161E-02
   0.2891824886E+00   0.1826041885E-01   0.9346232125E-04  -0.1876872616E-05   0.9346232125E-04  -0.1876872615E-05   0.3872424442E-01   0.1090256494E-01   0.2481290841E-01  -0.1168234749E-02
   0.2876869125E+00   0.0000000000E+00   0.9345925919E-04   0.0000000000E+00   0.9345925920E-04   0.0000000000E+00   0.3812348204E-01   0.1106270371E-01   0.2459260101E-01  -0.3337647139E-03
   0.3085245305E+00   0.0000000000E+00   0.9559675498E-04   0.0000000000E+00   0.9559675498E-04   0.0000000000E+00   0.3938160649E-01   0.1154477727E-01   0.2546268262E-01  -0.1852502942E-03
   0.3095788535E+00   0.1840236774E-01   0.9561474046E-04  -0.1942779057E-05   0.9561474046E-04  -0.1942779056E-05   0.3984290520E-01   0.1133676316E-01   0.2558932239E-01  -0.7684877079E-03
   0.2123398987E+00   0.1636346279E+00   0.6634284454E-04  -0.2799203057E-04   0.6634284454E-04  -0.2799203057E-04   0.6985659869E-01  -0.2366689760E-02   0.3374427957E-01  -0.4666864165E-02
   0.2164478239E+00   0.1467225814E+00   0.6966742617E-04  -0.2333680413E-04   0.6966742617E-04  -0.2333680413E-04   0.6576413931E-01  -0.2313538373E-02   0.3172466596E-01  -0.6379238387E-02
   0.2311016292E+00   0.1466901578E+00   0.7332708090E-04  -0.2277011646E-04   0.7332708090E-04  -0.2277011646E-04   0.6466200724E-01  -0.8203452152E-03   0.3192019260E-01  -0.6003939614E-02
   0.2322925287E+00   0.1630514607E+00   0.7170984845E-04  -0.2685717213E-04   0.7170984845E-04  -0.2685717213E-04   0.6832440525E-01  -0.9501637514E-03   0.3368644701E-01  -0.4795235205E-02
   0.2279404251E+00   0.1845387860E-01   0.8748454909E-04  -0.1606848219E-05   0.8748454909E-04  -0.1606848219E-05   0.3171113337E-01   0.7814497886E-02   0.1976242037E-01  -0.2949591380E-02
   0.2307916126E+00   0.3704131364E-01   0.8666481989E-04  -0.3425582123E-05   0.8666481989E-04  -0.3425582123E-05   0.3493892882E-01   0.7051631617E-02   0.2099486031E-01  -0.5813632147E-02
   0.1835023932E+00   0.0000000000E+00   0.8452807641E-04   0.0000000000E+00   0.8452807642E-04   0.0000000000E+00   0.2082756603E-01   0.3200559352E-02   0.1201382241E-01  -0.1227433192E-02
   0.2043386519E+00   0.0000000000E+00   0.8599295812E-04   0.0000000000E+00   0.8599295812E-04   0.0000000000E+00   0.2606782492E-01   0.6104822379E-02   0.1608600192E-01  -0.1157473967E-02
   0.1418312228E+00   0.0000000000E+00   0.8227839046E-04   0.0000000000E+00   0.8227839047E-04   0.0000000000E+00   0.4715114209E-02  -0.8287293523E-02  -0.1786053935E-02  -0.3116285524E-02
   0.1458318896E+00   0.2097913029E-01   0.8110279974E-04  -0.1215553991E-05   0.8110279975E-04  -0.1215553991E-05   0.9767104497E-02  -0.8233310549E-02   0.7668816361E-03  -0.7389256767E-02
   0.3501999940E+00   0.2499026666E+00   0.1000000000E-03  -0.4866667841E-04   0.1000000000E-03  -0.4866667841E-04   0.7953473093E-01  -0.1426164516E-03   0.3969526332E-01   0.1437375460E-03
   0.3307438771E+00   0.2499025127E+00   0.9415953964E-04  -0.4874362795E-04   0.9415953964E-04  -0.4874362795E-04   0.7969806545E-01  -0.1663801192E-03   0.3976504735E-01  -0.1165683321E-03
   0.3309773962E+00   0.2309604886E+00   0.9442158621E-04  -0.4313868652E-04   0.9442158621E-04  -0.4313868651E-04   0.7780608382E-01   0.2453518868E-03   0.3902493734E-01  -0.3841760179E-03
   0.3501999940E+00   0.2306832457E+00   0.1000000000E-03  -0.4299312895E-04   0.1000000000E-03  -0.4299312895E-04   0.7758504921E-01   0.2171972576E-03   0.3890034521E-01   0.1351831597E-03
   0.2731743740E+00   0.2315767247E+00   0.7739601424E-04  -0.4439863835E-04   0.7739601424E-04  -0.4439863835E-04   0.8013851571E-01   0.1309238210E-03   0.4013391707E-01  -0.1082366077E-02
   0.2924288057E+00   0.2314020593E+00   0.8312586203E-04  -0.4381436659E-04   0.8312586203E-04  -0.4381436659E-04   0.7911937172E-01   0.1778070734E-03   0.3964779642E-01  -0.9325549404E-03
   0.2918313661E+00   0.2499011851E+00   0.8235452859E-04  -0.4940743463E-04   0.8235452858E-04  -0.4940743463E-04   0.8129035168E-01  -0.1968499494E-03   0.4054593993E-01  -0.1978314656E-03
   0.2723748810E+00   0.2498999302E+00   0.7633002253E-04  -0.5003492452E-04   0.7633002253E-04  -0.5003492452E-04   0.8254561572E-01  -0.2240266923E-03   0.4115997130E-01  -0.2865667722E-03
   0.3501999940E+00   0.1730217372E+00   0.1000000000E-03  -0.2759540841E-04   0.1000000000E-03  -0.2759540840E-04   0.6683867528E-01   0.2523570873E-02   0.3468042946E-01   0.1514565820E-04
   0.3309688316E+00   0.1732589675E+00   0.9535482082E-04  -0.2767522796E-04   0.9535482082E-04  -0.2767522796E-04   0.6693053319E-01   0.2408012599E-02   0.3466857951E-01  -0.1065831943E-02
   0.3309611537E+00   0.1538010240E+00   0.9573284337E-04  -0.2316398337E-04   0.9573284337E-04  -0.2316398337E-04   0.6282210111E-01   0.3563421114E-02   0.3319209726E-01  -0.1233923446E-02
   0.3501999940E+00   0.1537998797E+00   0.1000000000E-03  -0.2314016535E-04   0.1000000000E-03  -0.2314016534E-04   0.6275906645E-01   0.3667320510E-02   0.3321252922E-01   0.7462998685E-04
   0.3501999940E+00   0.1345772292E+00   0.1000000000E-03  -0.1908090482E-04   0.1000000000E-03  -0.1908090481E-04   0.5862130428E-01   0.4949071246E-02   0.3178455206E-01  -0.3434660760E-04
   0.3501999940E+00   0.1153538174E+00   0.1000000000E-03  -0.1539929809E-04   0.1000000000E-03  -0.1539929809E-04   0.5455165095E-01   0.6346936768E-02   0.3044868487E-01   0.1899966822E-04
   0.3501999940E+00   0.9612961715E-01   0.1000000000E-03  -0.1211537749E-04   0.1000000000E-03  -0.1211537749E-04   0.5066904285E-01   0.7725443467E-02   0.2919665921E-01  -0.6265677259E-04
   0.3501999940E+00   0.7690471114E-01   0.1000000000E-03  -0.9184332421E-05   0.1000000000E-03  -0.9184332418E-05   0.4721173204E-01   0.9071999646E-02   0.2814130300E-01  -0.1355861982E-04
   0.3501999940E+00   0.5767914295E-01   0.1000000000E-03  -0.6582527009E-05   0.1000000000E-03  -0.6582527007E-05   0.4429128180E-01   0.1020619486E-01   0.2724819335E-01  -0.6060466514E-04
   0.0000000000E+00   0.2498370051E+00   0.0000000000E+00  -0.8149746203E-04   0.0000000000E+00  -0.8149746203E-04   0.4936227108E-01   0.9615389946E-03   0.2516140180E-01   0.1115967390E-02
   0.3760523100E-01   0.2160749076E+00   0.9095902028E-05  -0.7188619510E-04   0.9095902027E-05  -0.7188619510E-04   0.6900266682E-01   0.2443651775E-02   0.3572244484E-01   0.6060130889E-02
   0.3621185409E-01   0.1999688499E+00   0.9273294122E-05  -0.6792457416E-04   0.9273294121E-05  -0.6792457416E-04   0.7492351510E-01   0.4726366421E-02   0.3982414426E-01   0.7168144579E-02
   0.5561204776E-01   0.1984801865E+00   0.1456287875E-04  -0.6441875425E-04   0.1456287875E-04  -0.6441875425E-04   0.7682090252E-01   0.2455608023E-02   0.3963746251E-01   0.9396100872E-02
   0.5753530231E-01   0.2147883834E+00   0.1428110589E-04  -0.6848280675E-04   0.1428110589E-04  -0.6848280675E-04   0.7191857191E-01   0.1173318370E-02   0.3654521422E-01   0.8064886584E-02
   0.1781666589E-01   0.2002756019E+00   0.4498895218E-05  -0.6988554124E-04   0.4498895218E-05  -0.6988554124E-04   0.7382115659E-01   0.6026382066E-02   0.3992297085E-01   0.3351493871E-02
   0.5822452020E-01   0.2321724992E+00   0.1319614922E-04  -0.7279439147E-04   0.1319614922E-04  -0.7279439147E-04   0.6526349150E-01   0.2300459454E-03   0.3274611378E-01   0.4534868583E-02
   0.1556323963E+00   0.2498792386E+00   0.3841767024E-04  -0.6038069287E-04   0.3841767024E-04  -0.6038069287E-04   0.8570068046E-01  -0.3724051185E-03   0.4266328439E-01   0.4045543574E-03
   0.1361755218E+00   0.2498730671E+00   0.3220591412E-04  -0.6346642670E-04   0.3220591412E-04  -0.6346642670E-04   0.8301992649E-01  -0.2690481464E-03   0.4137461166E-01   0.7258565953E-03
   0.1750895824E+00   0.2498846238E+00   0.4479270187E-04  -0.5768807948E-04   0.4479270187E-04  -0.5768807948E-04   0.8702867314E-01  -0.3771683153E-03   0.4332488590E-01   0.1865711590E-03
   0.1760186709E+00   0.2323922833E+00   0.4726693581E-04  -0.5191483191E-04   0.4726693581E-04  -0.5191483191E-04   0.8413397762E-01  -0.3161814557E-03   0.4190805990E-01   0.4062370612E-03
   0.2251752222E+00   0.0000000000E+00   0.8761410396E-04   0.0000000000E+00   0.8761410396E-04   0.0000000000E+00   0.3054271556E-01   0.8136978203E-02   0.1933946009E-01  -0.7380266863E-03
   0.2460122169E+00   0.0000000000E+00   0.8943994614E-04   0.0000000000E+00   0.8943994615E-04   0.0000000000E+00   0.3380206730E-01   0.9404076592E-02   0.2160263988E-01  -0.6441367086E-03
   0.2484250918E+00   0.1833899553E-01   0.8937489957E-04  -0.1716185479E-05   0.8937489958E-04  -0.1716185479E-05   0.3478694103E-01   0.9239133394E-02   0.2201259695E-01  -0.2210866841E-02
   0.1966635052E+00   0.1994356998E+00   0.5746961302E-04  -0.3944161739E-04   0.5746961302E-04  -0.3944161739E-04   0.7752972830E-01  -0.2005916859E-02   0.3776115048E-01  -0.1467453613E-02
   0.2156855001E+00   0.1983171982E+00   0.6318752934E-04  -0.3752942070E-04   0.6318752934E-04  -0.3752942070E-04   0.7631321654E-01  -0.1150634246E-02   0.3758053952E-01  -0.2418079593E-02
   0.2156649087E+00   0.2150530927E+00   0.6143037008E-04  -0.4247766559E-04   0.6143037008E-04  -0.4247766559E-04   0.7943157968E-01  -0.6625365955E-03   0.3938373385E-01  -0.1621837248E-02
   0.1963337570E+00   0.2155326533E+00   0.5552452146E-04  -0.4433435000E-04   0.5552452145E-04  -0.4433435000E-04   0.8029884596E-01  -0.1074787619E-02   0.3961123693E-01  -0.7620541364E-03
   0.1175764040E+00   0.2323140160E+00   0.2926500587E-04  -0.6149199035E-04   0.2926500587E-04  -0.6149199035E-04   0.7849643521E-01  -0.4826641608E-03   0.3900610539E-01   0.3620439933E-02
   0.1189441871E+00   0.2151355915E+00   0.3177856354E-04  -0.5605726337E-04   0.3177856354E-04  -0.5605726338E-04   0.7894199679E-01  -0.2075036029E-02   0.3843271171E-01   0.5974958210E-02
   0.2140041537E+00   0.2498929091E+00   0.5763483218E-04  -0.5354545263E-04   0.5763483218E-04  -0.5354545263E-04   0.8652245950E-01  -0.3466272133E-03   0.4308705438E-01  -0.1474507563E-03
   0.1945468895E+00   0.2498891784E+00   0.5122075120E-04  -0.5541081615E-04   0.5122075120E-04  -0.5541081615E-04   0.8719036800E-01  -0.3843908600E-03   0.4340212051E-01  -0.4677529624E-04
   0.1955420051E+00   0.2323198078E+00   0.5343405928E-04  -0.4962561167E-04   0.5343405928E-04  -0.4962561167E-04   0.8412061970E-01  -0.1962359210E-03   0.4196135264E-01  -0.3076728803E-03
   0.2150312621E+00   0.2321881599E+00   0.5955807259E-04  -0.4778303944E-04   0.5955807259E-04  -0.4778303944E-04   0.8348672782E-01  -0.8497937214E-04   0.4170004021E-01  -0.8125641219E-03
   0.2344654241E+00   0.2318609930E+00   0.6561904229E-04  -0.4629149007E-04   0.6561904228E-04  -0.4629149007E-04   0.8245817863E-01   0.9910578402E-05   0.4123321992E-01  -0.1078795442E-02
   0.2538401130E+00   0.2317336845E+00   0.7155251930E-04  -0.4520775136E-04   0.7155251930E-04  -0.4520775136E-04   0.8127066885E-01   0.7250107739E-04   0.4067077153E-01  -0.1165452666E-02
   0.2529182026E+00   0.2498981926E+00   0.7020879472E-04  -0.5090370895E-04   0.7020879471E-04  -0.5090370895E-04   0.8396131367E-01  -0.2635093640E-03   0.4184806517E-01  -0.2450977323E-03
   0.2334612715E+00   0.2498958831E+00   0.6396877371E-04  -0.5205846648E-04   0.6396877371E-04  -0.5205846648E-04   0.8534496800E-01  -0.3106355115E-03   0.4251631590E-01  -0.2633809994E-03
   0.3112876916E+00   0.2499020254E+00   0.8828480315E-04  -0.4898732006E-04   0.8828480315E-04  -0.4898732006E-04   0.8034866522E-01  -0.1625126150E-03   0.4009227444E-01  -0.1723515009E-03
   0.3116801077E+00   0.2311854206E+00   0.8879584278E-04  -0.4340020787E-04   0.8879584278E-04  -0.4340020786E-04   0.7829363172E-01   0.1898115357E-03   0.3924093679E-01  -0.6457294736E-03
   0.5564471554E-01   0.8309465280E-01   0.4384591793E-04  -0.2615334942E-04   0.4384591793E-04  -0.2615334942E-04   0.8026327749E-01   0.2790034837E-01   0.5408073129E-01  -0.4831780782E-01
   0.7200846883E-01   0.9409005046E-01   0.3927231734E-04  -0.2553386918E-04   0.3927231735E-04  -0.2553386919E-04   0.8592440493E-01   0.4032771543E-02   0.4497768866E-01  -0.2061324831E-01
   0.6204857565E-01   0.1069228718E+00   0.3023387339E-04  -0.3276812101E-04   0.3023387340E-04  -0.3276812101E-04   0.9929043915E-01   0.9024016036E-02   0.5415614445E-01  -0.1210308653E-01
   0.3832730499E-01   0.9232611766E-01   0.2948119683E-04  -0.3091711830E-04   0.2948119683E-04  -0.3091711831E-04   0.1309399029E+00   0.1664889670E-01   0.7379292393E-01  -0.3960502056E-01
   0.0000000000E+00   0.1998591911E+00   0.0000000000E+00  -0.7040595360E-04   0.0000000000E+00  -0.7040595360E-04   0.7385888810E-01   0.6682694610E-02   0.4026998594E-01   0.1365822014E-02
   0.0000000000E+00   0.1832011542E+00   0.0000000000E+00  -0.6609141623E-04   0.0000000000E+00  -0.6609141624E-04   0.8035789757E-01   0.1034268833E-01   0.4534938595E-01   0.1307193597E-02
   0.3653802163E-01   0.1167848928E+00   0.1569186447E-04  -0.4126159995E-04   0.1569186447E-04  -0.4126159995E-04   0.1258995806E+00   0.1380687473E-01   0.6985183062E-01  -0.1105824026E-01
   0.2668494623E+00   0.0000000000E+00   0.9139065835E-04   0.0000000000E+00   0.9139065835E-04   0.0000000000E+00   0.3634684896E-01   0.1041777466E-01   0.2338184416E-01  -0.4112471658E-03
   0.2688087066E+00   0.1828788966E-01   0.9138078565E-04  -0.1810471941E-05   0.9138078566E-04  -0.1810471940E-05   0.3702224199E-01   0.1018047163E-01   0.2360088479E-01  -0.1664990705E-02
   0.2366918737E+00   0.7429980798E-01   0.8373537475E-04  -0.8194061465E-05   0.8373537475E-04  -0.8194061463E-05   0.4429113744E-01   0.4271610365E-02   0.2428088828E-01  -0.8364156197E-02
   0.2553896659E+00   0.7382129143E-01   0.8654845546E-04  -0.8299887155E-05   0.8654845546E-04  -0.8299887153E-05   0.4486158326E-01   0.6043586306E-02   0.2545207573E-01  -0.6660160722E-02
   0.3105263231E+00   0.3711893979E-01   0.9543305760E-04  -0.4011153479E-05   0.9543305760E-04  -0.4011153477E-05   0.4130146785E-01   0.1079292696E-01   0.2604667646E-01  -0.1558956206E-02
   0.2906264881E+00   0.3676946115E-01   0.9318803885E-04  -0.3889072954E-05   0.9318803885E-04  -0.3889072952E-05   0.4031775322E-01   0.1029080811E-01   0.2530377458E-01  -0.2402152194E-02
   0.3501999940E+00   0.2114633531E+00   0.1000000000E-03  -0.3755546060E-04   0.1000000000E-03  -0.3755546059E-04   0.7431403589E-01   0.7384311406E-03   0.3752548299E-01   0.7863402766E-04
   0.3310978579E+00   0.2119054145E+00   0.9471996211E-04  -0.3772476438E-04   0.9471996211E-04  -0.3772476438E-04   0.7445179210E-01   0.6565581358E-03   0.3755342403E-01  -0.6833987313E-03
   0.3310330630E+00   0.1926365371E+00   0.9501600493E-04  -0.3255043068E-04   0.9501600493E-04  -0.3255043067E-04   0.7089745452E-01   0.1483088446E-02   0.3618954768E-01  -0.9044429115E-03
   0.3501999940E+00   0.1922428899E+00   0.1000000000E-03  -0.3240304017E-04   0.1000000000E-03  -0.3240304017E-04   0.7072646691E-01   0.1502303730E-02   0.3611366303E-01   0.1093514758E-03
   0.2927307481E+00   0.2126072953E+00   0.8399753673E-04  -0.3837734494E-04   0.8399753673E-04  -0.3837734494E-04   0.7552714698E-01   0.4415640118E-03   0.3798359581E-01  -0.1749796145E-02
   0.2736610521E+00   0.2130654360E+00   0.7856155706E-04  -0.3896401000E-04   0.7856155706E-04  -0.3896401000E-04   0.7636721265E-01   0.2486050511E-03   0.3830714269E-01  -0.2104190874E-02
   0.2735149836E+00   0.1942050547E+00   0.7973481111E-04  -0.3372413591E-04   0.7973481111E-04  -0.3372413591E-04   0.7271043213E-01   0.6337241170E-03   0.3667134468E-01  -0.2822161824E-02
   0.2925886966E+00   0.1933805566E+00   0.8488481800E-04  -0.3311420738E-04   0.8488481800E-04  -0.3311420737E-04   0.7192667277E-01   0.9946868053E-03   0.3645995057E-01  -0.2362857335E-02
   0.1945665125E+00   0.5815927394E-01   0.7994925960E-04  -0.5421731829E-05   0.7994925961E-04  -0.5421731827E-05   0.3644750627E-01   0.3384220784E-03   0.1839259631E-01  -0.1181901287E-01
   0.2142594313E+00   0.5660265912E-01   0.8277616645E-04  -0.5461989800E-05   0.8277616646E-04  -0.5461989799E-05   0.3781584054E-01   0.3511612686E-02   0.2066331334E-01  -0.9467832984E-02
   0.7323279303E-01   0.1305152889E+00   0.2691186591E-04  -0.3838704938E-04   0.2691186591E-04  -0.3838704938E-04   0.9505674627E-01  -0.1474938544E-02   0.4678996805E-01   0.2968970623E-02
   0.5553250938E-01   0.1223962215E+00   0.2244389009E-04  -0.3961922713E-04   0.2244389009E-04  -0.3961922713E-04   0.1072935484E+00   0.3747980484E-02   0.5551965403E-01  -0.4624309347E-02
   0.8084353609E-01   0.1172135596E+00   0.3315784337E-04  -0.3126369039E-04   0.3315784338E-04  -0.3126369039E-04   0.8964714781E-01  -0.8456933937E-02   0.4059429503E-01  -0.2750021939E-02
   0.5835568521E-01   0.2498462499E+00   0.1117580493E-04  -0.7687503353E-04   0.1117580493E-04  -0.7687503353E-04   0.6019300190E-01   0.5628596029E-03   0.3037732319E-01   0.1249991595E-02
   0.7822875431E-01   0.2132924823E+00   0.2004825389E-04  -0.6407382943E-04   0.2004825389E-04  -0.6407382943E-04   0.7482630589E-01   0.8395001804E-05   0.3741660210E-01   0.8612490956E-02
   0.7803922228E-01   0.1933177396E+00   0.2136123887E-04  -0.5831668903E-04   0.2136123887E-04  -0.5831668903E-04   0.7970004788E-01  -0.4878722888E-03   0.3960529567E-01   0.1042491925E-01
   0.1768555109E+00   0.2157064024E+00   0.4953444757E-04  -0.4659878436E-04   0.4953444757E-04  -0.4659878436E-04   0.8071540590E-01  -0.1483784557E-02   0.3961501835E-01   0.5196382807E-03
   0.3116920986E+00   0.1536833333E+00   0.9143830075E-04  -0.2318684444E-04   0.9143830075E-04  -0.2318684443E-04   0.6302412189E-01   0.3253122472E-02   0.3313795941E-01  -0.2369343736E-02
   0.3116780357E+00   0.1733825036E+00   0.9066534891E-04  -0.2780671435E-04   0.9066534891E-04  -0.2780671435E-04   0.6722223563E-01   0.2210447378E-02   0.3471564718E-01  -0.2065237638E-02
   0.1167192318E+00   0.2498663105E+00   0.2628239330E-04  -0.6684477044E-04   0.2628239330E-04  -0.6684477044E-04   0.7859726412E-01  -0.1437175195E-03   0.3922598876E-01   0.1036646947E-02
   0.7082142594E-01   0.7066680662E-01   0.5537227175E-04  -0.2193739069E-04   0.5537227175E-04  -0.2193739069E-04   0.2892124152E-01   0.1831034129E-01   0.2361531909E-01  -0.2270264550E-01
   0.8399493494E-01   0.7962807273E-01   0.5098926954E-04  -0.1844763527E-04   0.5098926954E-04  -0.1844763527E-04   0.5199056541E-01   0.4894442178E-04   0.2601923452E-01  -0.2142253945E-01
   0.2350730232E+00   0.2142291446E+00   0.6728257966E-04  -0.4092972004E-04   0.6728257966E-04  -0.4092972004E-04   0.7839957348E-01  -0.2983835426E-03   0.3904981396E-01  -0.2073924572E-02
   0.1775423991E+00   0.1998301997E+00   0.5165255184E-04  -0.4164364738E-04   0.5165255184E-04  -0.4164364738E-04   0.7864236976E-01  -0.2731601969E-02   0.3795462479E-01   0.1230185420E-04
   0.1586153333E+00   0.1996990460E+00   0.4585715390E-04  -0.4419600217E-04   0.4585715390E-04  -0.4419600217E-04   0.7927480298E-01  -0.3367466026E-02   0.3795290940E-01   0.1897070332E-02
   0.1597778673E+00   0.1838328249E+00   0.4820665312E-04  -0.3909303491E-04   0.4820665312E-04  -0.3909303491E-04   0.7815506857E-01  -0.5112831808E-02   0.3652038796E-01   0.9185530268E-03
   0.1779194690E+00   0.1845134585E+00   0.5370701534E-04  -0.3694326972E-04   0.5370701534E-04  -0.3694326972E-04   0.7648005718E-01  -0.4201002650E-02   0.3613880448E-01  -0.1031999985E-02
   0.2544447468E+00   0.2136387483E+00   0.7299991556E-04  -0.3980335831E-04   0.7299991556E-04  -0.3980335830E-04   0.7737734235E-01   0.1622051697E-04   0.3869600750E-01  -0.2225726593E-02
   0.3118902375E+00   0.2122565572E+00   0.8937377054E-04  -0.3798740026E-04   0.8937377054E-04  -0.3798740025E-04   0.7493800101E-01   0.6005994260E-03   0.3776854483E-01  -0.1250406997E-02
   0.3118453481E+00   0.1929676417E+00   0.8999605200E-04  -0.3275862865E-04   0.8999605200E-04  -0.3275862864E-04   0.7124119305E-01   0.1236160345E-02   0.3623795192E-01  -0.1702007824E-02
   0.6713757226E-01   0.1439820580E+00   0.2233092820E-04  -0.4464150206E-04   0.2233092820E-04  -0.4464150206E-04   0.9473670943E-01  -0.9830409574E-04   0.4731825628E-01   0.6494801656E-02
   0.6215455178E-01   0.1545402484E+00   0.1924009152E-04  -0.4959479866E-04   0.1924009152E-04  -0.4959479866E-04   0.9358074044E-01   0.3011772702E-02   0.4829529065E-01   0.8829144048E-02
   0.1526928591E+00   0.3951010683E-01   0.7848653875E-04  -0.2805983625E-05   0.7848653876E-04  -0.2805983625E-05   0.2015489891E-01  -0.9009952437E-02   0.5572361788E-02  -0.1418757801E-01
   0.1355025728E+00   0.4589087672E-01   0.7468988049E-04  -0.3931241231E-05   0.7468988049E-04  -0.3931241231E-05   0.2154259219E-01  -0.1301805048E-01   0.4262185612E-02  -0.1807086878E-01
   0.1626666079E+00   0.0000000000E+00   0.8330695164E-04   0.0000000000E+00   0.8330695165E-04   0.0000000000E+00   0.1398216741E-01  -0.1178786724E-02   0.6401562307E-02  -0.1902697481E-02
   0.1665952228E+00   0.1949633590E-01   0.8263541152E-04  -0.1210147989E-05   0.8263541153E-04  -0.1210147989E-05   0.1678325482E-01  -0.1336070043E-02   0.7723437918E-02  -0.5859473288E-02
   0.2756175902E+00   0.9270144625E-01   0.8809112041E-04  -0.1135657486E-04   0.8809112041E-04  -0.1135657486E-04   0.4963275373E-01   0.5919703888E-02   0.2777567328E-01  -0.5436840138E-02
   0.2938095884E+00   0.9346749079E-01   0.9099922123E-04  -0.1155860695E-04   0.9099922123E-04  -0.1155860695E-04   0.4994801016E-01   0.6772066333E-02   0.2835947105E-01  -0.4053870737E-02
   0.2939495062E+00   0.1128190168E+00   0.8989458791E-04  -0.1489707627E-04   0.8989458791E-04  -0.1489707626E-04   0.5408864460E-01   0.5361873143E-02   0.2972466437E-01  -0.4080213225E-02
   0.2760772847E+00   0.1113453242E+00   0.8670183091E-04  -0.1461289017E-04   0.8670183091E-04  -0.1461289017E-04   0.5394126025E-01   0.4506026071E-02   0.2922305869E-01  -0.5333370034E-02
   0.2930588901E+00   0.7442133443E-01   0.9191955840E-04  -0.8663433359E-05   0.9191955840E-04  -0.8663433356E-05   0.4610484130E-01   0.8135414934E-02   0.2711958571E-01  -0.3798461972E-02
   0.1712500987E+00   0.3887659676E-01   0.8053032894E-04  -0.2816369224E-05   0.8053032894E-04  -0.2816369223E-05   0.2429136022E-01  -0.1234339336E-02   0.1152827987E-01  -0.1213932820E-01
   0.2931416367E+00   0.1327118589E+00   0.8851485642E-04  -0.1875255269E-04   0.8851485642E-04  -0.1875255268E-04   0.5877864402E-01   0.3944812627E-02   0.3136110109E-01  -0.3965047998E-02
   0.5194351136E-01   0.1832470458E+00   0.1421973246E-04  -0.6072158001E-04   0.1421973246E-04  -0.6072158001E-04   0.8199969789E-01   0.4145518557E-02   0.4307174677E-01   0.9740763815E-02
   0.5044924022E-01   0.1684788040E+00   0.1443701242E-04  -0.5661599418E-04   0.1443701242E-04  -0.5661599418E-04   0.8832474765E-01   0.6382475419E-02   0.4735266446E-01   0.9897175082E-02
   0.2919250994E+00   0.5549358354E-01   0.9265371574E-04  -0.6119877811E-05   0.9265371574E-04  -0.6119877809E-05   0.4285294352E-01   0.9353839032E-02   0.2610286921E-01  -0.3223167307E-02
   0.2918392830E+00   0.1532477232E+00   0.8698347653E-04  -0.2321888678E-04   0.8698347653E-04  -0.2321888678E-04   0.6322887791E-01   0.2716658825E-02   0.3297210891E-01  -0.3433153281E-02
   0.2707485327E+00   0.3668502692E-01   0.9097487496E-04  -0.3755239665E-05   0.9097487497E-04  -0.3755239664E-05   0.3898860789E-01   0.9573299615E-02   0.2428046814E-01  -0.3338977977E-02
   0.2508675448E+00   0.3680701729E-01   0.8881039791E-04  -0.3612653898E-05   0.8881039791E-04  -0.3612653896E-05   0.3717585348E-01   0.8494576425E-02   0.2283475825E-01  -0.4460194087E-02
   0.2337057270E+00   0.5568896074E-01   0.8535249534E-04  -0.5609229110E-05   0.8535249534E-04  -0.5609229108E-05   0.3923428226E-01   0.5749648363E-02   0.2249151547E-01  -0.7493269785E-02
   0.2532129800E+00   0.5531591892E-01   0.8782349773E-04  -0.5776192012E-05   0.8782349773E-04  -0.5776192010E-05   0.4064924972E-01   0.7377491567E-02   0.2401289038E-01  -0.5837328416E-02
   0.2350034157E+00   0.1969826617E+00   0.6886033148E-04  -0.3594417185E-04   0.6886033148E-04  -0.3594417185E-04   0.7503545393E-01  -0.4909627515E-03   0.3727150014E-01  -0.2919558902E-02
   0.2543697230E+00   0.1956057685E+00   0.7439501971E-04  -0.3469073345E-04   0.7439501971E-04  -0.3469073345E-04   0.7376180975E-01   0.4556663441E-04   0.3690295012E-01  -0.3035606574E-02
   0.1597106345E+00   0.7268024967E-01   0.7111026424E-04  -0.7703963551E-05   0.7111026424E-04  -0.7703963550E-05   0.4372820532E-01  -0.8270444648E-02   0.1772852576E-01  -0.1691465993E-01
   0.1738899471E+00   0.6065069215E-01   0.7650853260E-04  -0.5513022908E-05   0.7650853260E-04  -0.5513022907E-05   0.3627326819E-01  -0.4073049513E-02   0.1609978733E-01  -0.1511983083E-01
   0.1842664996E+00   0.8232073156E-01   0.7350331699E-04  -0.9288820105E-05   0.7350331700E-04  -0.9288820103E-05   0.4749110430E-01  -0.4973976339E-02   0.2125813881E-01  -0.1394226791E-01
   0.1695378440E+00   0.8993194756E-01   0.6867300355E-04  -0.1116591911E-04   0.6867300355E-04  -0.1116591911E-04   0.5199812068E-01  -0.7815847260E-02   0.2209069489E-01  -0.1424141420E-01
   0.9889065818E-01   0.2140894885E+00   0.2588873969E-04  -0.5994474903E-04   0.2588873969E-04  -0.5994474903E-04   0.7732906778E-01  -0.1227669321E-02   0.3804993822E-01   0.7923328967E-02
   0.1398258170E+00   0.1992918336E+00   0.4004500595E-04  -0.4716569449E-04   0.4004500595E-04  -0.4716569449E-04   0.7976653008E-01  -0.3745098024E-02   0.3800995581E-01   0.3990388121E-02
   0.1209566239E+00   0.1985382256E+00   0.3422146126E-04  -0.5053171642E-04   0.3422146126E-04  -0.5053171642E-04   0.7986961632E-01  -0.3884173421E-02   0.3799196160E-01   0.6244889876E-02
   0.2183328949E+00   0.7552025497E-01   0.8074594056E-04  -0.8221565186E-05   0.8074594057E-04  -0.8221565185E-05   0.4408152493E-01   0.2038354187E-02   0.2305947836E-01  -0.1022947756E-01
   0.8035744929E-01   0.1527060145E+00   0.2568689300E-04  -0.4454576279E-04   0.2568689299E-04  -0.4454576279E-04   0.8992195585E-01  -0.3478946710E-02   0.4322064014E-01   0.7833504007E-02
   0.6987704352E-01   0.1666373645E+00   0.2071271153E-04  -0.5175022677E-04   0.2071271153E-04  -0.5175022677E-04   0.8675532381E-01   0.4072709662E-03   0.4358042576E-01   0.1020921604E-01
   0.1415304649E+00   0.1830315468E+00   0.4256293204E-04  -0.4172910918E-04   0.4256293204E-04  -0.4172910918E-04   0.7931432076E-01  -0.5735631977E-02   0.3678860860E-01   0.3149050998E-02
   0.2726643501E+00   0.1744493738E+00   0.8090405624E-04  -0.2856309483E-04   0.8090405624E-04  -0.2856309483E-04   0.6864119661E-01   0.9701172936E-03   0.3480496084E-01  -0.3616091431E-02
   0.2921146963E+00   0.1735730708E+00   0.8585615186E-04  -0.2802458407E-04   0.8585615186E-04  -0.2802458406E-04   0.6764755884E-01   0.1646237723E-02   0.3464620534E-01  -0.3060540430E-02
   0.9432470585E-01   0.1609523631E+00   0.2955537609E-04  -0.4396393080E-04   0.2955537608E-04  -0.4396393080E-04   0.8587288958E-01  -0.6401112159E-02   0.3973509399E-01   0.7550542633E-02
   0.8723078829E-01   0.1753827403E+00   0.2560844554E-04  -0.5054884165E-04   0.2560844554E-04  -0.5054884165E-04   0.8454569559E-01  -0.3335859447E-02   0.4060410597E-01   0.9813892978E-02
   0.2742594226E+00   0.7395654703E-01   0.8926029527E-04  -0.8468632693E-05   0.8926029527E-04  -0.8468632690E-05   0.4548322009E-01   0.7271587883E-02   0.2637687644E-01  -0.5152785612E-02
   0.2263015233E+00   0.1122709157E+00   0.7681666680E-04  -0.1501566523E-04   0.7681666681E-04  -0.1501566523E-04   0.5584786611E-01  -0.2107103263E-03   0.2781802152E-01  -0.8740270510E-02
   0.2226022506E+00   0.9416171006E-01   0.7873131690E-04  -0.1143372191E-04   0.7873131690E-04  -0.1143372190E-04   0.5033327478E-01   0.6037668828E-03   0.2546801146E-01  -0.9905260847E-02
   0.2725662966E+00   0.5525014193E-01   0.9024528207E-04  -0.5952933617E-05   0.9024528207E-04  -0.5952933615E-05   0.4186027157E-01   0.8540582166E-02   0.2519992286E-01  -0.4452789530E-02
   0.1570208107E+00   0.5348516296E-01   0.7559535639E-04  -0.4559568231E-05   0.7559535639E-04  -0.4559568231E-05   0.3070387767E-01  -0.8347429289E-02   0.1117800062E-01  -0.1695941768E-01
   0.1468980480E+00   0.6074524971E-01   0.7202550303E-04  -0.5811792686E-05   0.7202550303E-04  -0.5811792685E-05   0.3469013542E-01  -0.1043786630E-01   0.1212589203E-01  -0.1686448814E-01
   0.1239485800E+00   0.1490374992E+00   0.4166298421E-04  -0.3357788918E-04   0.4166298421E-04  -0.3357788918E-04   0.8118796925E-01  -0.1087129073E-01   0.3515763610E-01   0.8146303851E-03
   0.1446974295E+00   0.1472998504E+00   0.4892123588E-04  -0.2958880370E-04   0.4892123588E-04  -0.2958880370E-04   0.7626625525E-01  -0.1040966258E-01   0.3292763777E-01  -0.2593878419E-02
   0.1432556321E+00   0.1660611674E+00   0.4537205097E-04  -0.3596927967E-04   0.4537205097E-04  -0.3596927967E-04   0.7881458683E-01  -0.8174896896E-02   0.3531913857E-01   0.1099403377E-02
   0.1255636171E+00   0.1662347822E+00   0.3954553754E-04  -0.3913491619E-04   0.3954553754E-04  -0.3913491619E-04   0.8080231854E-01  -0.8159995984E-02   0.3632043486E-01   0.3190583027E-02
   0.6672279978E-01   0.1807719675E+00   0.1874788914E-04  -0.5692725001E-04   0.1874788914E-04  -0.5692725001E-04   0.8357707382E-01   0.1870943603E-02   0.4272315423E-01   0.1031507509E-01
   0.1096121528E+00   0.1660355384E+00   0.3419092447E-04  -0.4229428805E-04   0.3419092447E-04  -0.4229428805E-04   0.8389991246E-01  -0.7685483051E-02   0.3810645256E-01   0.5806317692E-02
   0.1054938065E+00   0.1804985168E+00   0.3115472904E-04  -0.4801612239E-04   0.3115472904E-04  -0.4801612239E-04   0.8176532212E-01  -0.5346400976E-02   0.3820869638E-01   0.7903710359E-02
   0.2148318505E+00   0.1816176487E+00   0.6482325439E-04  -0.3281167059E-04   0.6482325439E-04  -0.3281167059E-04   0.7321121611E-01  -0.1813490609E-02   0.3569814877E-01  -0.3408739509E-02
   0.2340471734E+00   0.1797580299E+00   0.7034017522E-04  -0.3120904702E-04   0.7034017522E-04  -0.3120904702E-04   0.7160798539E-01  -0.7648447547E-03   0.3542086189E-01  -0.3937087688E-02
   0.2753956504E+00   0.1304687198E+00   0.8503522364E-04  -0.1836159183E-04   0.8503522364E-04  -0.1836159183E-04   0.5851153577E-01   0.3379671056E-02   0.3094498450E-01  -0.5074585498E-02
   0.2704848496E+00   0.1522399265E+00   0.8215731875E-04  -0.2318972992E-04   0.8215731875E-04  -0.2318972991E-04   0.6385763884E-01   0.1787551009E-02   0.3282193847E-01  -0.4666225502E-02
   0.2534449743E+00   0.1774272850E+00   0.7573012696E-04  -0.2983547629E-04   0.7573012696E-04  -0.2983547629E-04   0.6988175819E-01   0.3162259249E-03   0.3509829008E-01  -0.4014184553E-02
   0.1221975835E+00   0.5811436909E-01   0.6866473929E-04  -0.6615803740E-05   0.6866473930E-04  -0.6615803740E-05   0.2972218847E-01  -0.1722293631E-01   0.6249501087E-02  -0.1846612172E-01
   0.1101615942E+00   0.7308122683E-01   0.6017811759E-04  -0.1116758397E-04   0.6017811759E-04  -0.1116758397E-04   0.4578402237E-01  -0.1772575987E-01   0.1402885066E-01  -0.1897012672E-01
   0.1475935468E+00   0.8121534099E-01   0.6608839057E-04  -0.9937053688E-05   0.6608839057E-04  -0.9937053687E-05   0.5075844518E-01  -0.1176967132E-01   0.1949399704E-01  -0.1679650636E-01
   0.1353666855E+00   0.7049170067E-01   0.6682775007E-04  -0.8121463820E-05   0.6682775007E-04  -0.8121463819E-05   0.4254832345E-01  -0.1392338312E-01   0.1431218392E-01  -0.1886149378E-01
   0.1010381342E+00   0.1968582413E+00   0.2813657879E-04  -0.5421832799E-04   0.2813657878E-04  -0.5421832800E-04   0.8020328895E-01  -0.3113297713E-02   0.3854422472E-01   0.8566978434E-02
   0.1236047143E+00   0.1822770653E+00   0.3686514901E-04  -0.4480185477E-04   0.3686514901E-04  -0.4480185477E-04   0.8072898178E-01  -0.5981564894E-02   0.3737296097E-01   0.5450656064E-02
   0.1612128469E+00   0.1678859835E+00   0.5087247353E-04  -0.3390274016E-04   0.5087247353E-04  -0.3390274016E-04   0.7618599483E-01  -0.7141193762E-02   0.3452171009E-01  -0.1092809797E-02
   0.1782573966E+00   0.1697841023E+00   0.5580780410E-04  -0.3249783163E-04   0.5580780410E-04  -0.3249783163E-04   0.7457064602E-01  -0.5251690306E-02   0.3465878467E-01  -0.2379348180E-02
   0.8811939105E-01   0.1397556605E+00   0.3055282577E-04  -0.3787425656E-04   0.3055282577E-04  -0.3787425656E-04   0.8924061734E-01  -0.8666517715E-02   0.4028624407E-01   0.3668296586E-02
   0.9948956281E-01   0.8893087738E-01   0.5018740693E-04  -0.1741456117E-04   0.5018740693E-04  -0.1741456117E-04   0.6760526123E-01  -0.1500600439E-01   0.2629910243E-01  -0.1548696269E-01
   0.9644885801E-01   0.1275895231E+00   0.3624180264E-04  -0.3159845297E-04   0.3624180264E-04  -0.3159845297E-04   0.8719197029E-01  -0.1103491412E-01   0.3807776651E-01  -0.1159157440E-02
   0.2506890069E+00   0.1600450687E+00   0.7669995768E-04  -0.2547564535E-04   0.7669995768E-04  -0.2547564535E-04   0.6672307903E-01   0.5064431722E-03   0.3361408881E-01  -0.4876843109E-02
   0.2595172354E+00   0.1274994108E+00   0.8197770898E-04  -0.1787658415E-04   0.8197770898E-04  -0.1787658414E-04   0.5858949214E-01   0.2095713778E-02   0.3034199611E-01  -0.6039030360E-02
   0.1962955810E+00   0.1839744131E+00   0.5923551403E-04  -0.3491444346E-04   0.5923551402E-04  -0.3491444346E-04   0.7491845346E-01  -0.2937444131E-02   0.3598978485E-01  -0.2511900639E-02
   0.2584452027E+00   0.1414628075E+00   0.8033184414E-04  -0.2094877473E-04   0.8033184414E-04  -0.2094877473E-04   0.6161474952E-01   0.1096905377E-02   0.3135520033E-01  -0.5595973171E-02
   0.2461020444E+00   0.1445988647E+00   0.7716272371E-04  -0.2186314206E-04   0.7716272371E-04  -0.2186314206E-04   0.6287770069E-01   0.5501625483E-03   0.3171329734E-01  -0.5698502097E-02
   0.1917983212E+00   0.1589333217E+00   0.6131407795E-04  -0.2812114185E-04   0.6131407795E-04  -0.2812114185E-04   0.7010560677E-01  -0.4684278750E-02   0.3271000980E-01  -0.4681081888E-02
   0.1946269340E+00   0.1697282541E+00   0.6062101879E-04  -0.3092493716E-04   0.6062101879E-04  -0.3092493716E-04   0.7259710198E-01  -0.3777688232E-02   0.3440901868E-01  -0.3579592776E-02
   0.1798888210E+00   0.1552400030E+00   0.5843049793E-04  -0.2803448368E-04   0.5843049793E-04  -0.2803448368E-04   0.7153457159E-01  -0.6157065916E-02   0.3268809906E-01  -0.4072711163E-02
   0.1010473632E+00   0.1484912712E+00   0.3370462477E-04  -0.3811341452E-04   0.3370462477E-04  -0.3811341452E-04   0.8575308139E-01  -0.8542045606E-02   0.3860474578E-01   0.3911426076E-02
   0.2005389873E+00   0.7796354373E-01   0.7741613006E-04  -0.8479834556E-05   0.7741613007E-04  -0.8479834554E-05   0.4457781620E-01  -0.1213502366E-02   0.2168172327E-01  -0.1243088879E-01
   0.2114957774E+00   0.1146392381E+00   0.7324917655E-04  -0.1576492978E-04   0.7324917655E-04  -0.1576492978E-04   0.5763090421E-01  -0.2163344346E-02   0.2773322526E-01  -0.9252669194E-02
   0.2067279957E+00   0.9687134040E-01   0.7518336736E-04  -0.1202814918E-04   0.7518336736E-04  -0.1202814918E-04   0.5228165966E-01  -0.1934250480E-02   0.2517320111E-01  -0.1104170373E-01
   0.9000445488E-01   0.1039496051E+00   0.4111393807E-04  -0.2447597051E-04   0.4111393807E-04  -0.2447597051E-04   0.8068003082E-01  -0.1317414853E-01   0.3375226608E-01  -0.8910283768E-02
   0.1245950978E+00   0.8336306418E-01   0.5964888669E-04  -0.1206220991E-04   0.5964888670E-04  -0.1206220991E-04   0.5502475031E-01  -0.1645161865E-01   0.1928618010E-01  -0.1758484755E-01
   0.1088420837E+00   0.1151429002E+00   0.4389184808E-04  -0.2437288328E-04   0.4389184809E-04  -0.2437288328E-04   0.7870355316E-01  -0.1406759960E-01   0.3231733042E-01  -0.7123008429E-02
   0.2439735909E+00   0.1279533950E+00   0.7857045300E-04  -0.1814951808E-04   0.7857045300E-04  -0.1814951807E-04   0.5899004150E-01   0.8500465748E-03   0.2991944564E-01  -0.7034619937E-02
   0.1990137578E+00   0.1516903488E+00   0.6435238638E-04  -0.2562262176E-04   0.6435238638E-04  -0.2562262176E-04   0.6888686711E-01  -0.3848793203E-02   0.3251838657E-01  -0.5367040172E-02
   0.2055042073E+00   0.1443892770E+00   0.6716617396E-04  -0.2325049668E-04   0.6716617396E-04  -0.2325049668E-04   0.6683143797E-01  -0.3565065655E-02   0.3163255349E-01  -0.6514555702E-02
   0.1925355370E+00   0.1007944585E+00   0.7145252090E-04  -0.1307876778E-04   0.7145252091E-04  -0.1307876778E-04   0.5491902738E-01  -0.4302079567E-02   0.2530796774E-01  -0.1159239077E-01
   0.1417977594E+00   0.1241685537E+00   0.5274668234E-04  -0.2253717160E-04   0.5274668234E-04  -0.2253717160E-04   0.7183450443E-01  -0.1288832596E-01   0.2947249977E-01  -0.7526615270E-02
   0.1459808018E+00   0.1118525744E+00   0.5705490213E-04  -0.1832678614E-04   0.5705490213E-04  -0.1832678614E-04   0.6636396002E-01  -0.1297947463E-01   0.2669170885E-01  -0.1074399825E-01
   0.1587195359E+00   0.1176310739E+00   0.5934945325E-04  -0.1892254689E-04   0.5934945325E-04  -0.1892254689E-04   0.6576231798E-01  -0.1061371191E-01   0.2757375155E-01  -0.9912353026E-02
   0.1542045524E+00   0.1313306334E+00   0.5503972339E-04  -0.2339780750E-04   0.5503972340E-04  -0.2339780750E-04   0.7109310952E-01  -0.1060843100E-01   0.3024173441E-01  -0.7144354252E-02
   0.1638735970E+00   0.1519222724E+00   0.5418751909E-04  -0.2868381252E-04   0.5418751909E-04  -0.2868381252E-04   0.7306594906E-01  -0.8086402321E-02   0.3248912357E-01  -0.3614615839E-02
   0.1114654258E+00   0.1548722278E+00   0.3637092325E-04  -0.3801062364E-04   0.3637092325E-04  -0.3801062364E-04   0.8285216588E-01  -0.9875017804E-02   0.3648784427E-01   0.4185358332E-02
   0.1373568789E+00   0.1346906717E+00   0.4895094278E-04  -0.2660613300E-04   0.4895094278E-04  -0.2660613300E-04   0.7618112076E-01  -0.1405164046E-01   0.3106411885E-01  -0.4114053843E-02
   0.1806273971E+00   0.1056254471E+00   0.6772153228E-04  -0.1453795814E-04   0.6772153228E-04  -0.1453795814E-04   0.5776915460E-01  -0.6889303640E-02   0.2543941668E-01  -0.1171833731E-01
   0.1510936333E+00   0.1000075373E+00   0.6154266489E-04  -0.1453435853E-04   0.6154266489E-04  -0.1453435853E-04   0.5968735468E-01  -0.1167076401E-01   0.2400781517E-01  -0.1331860436E-01
   0.1382217538E+00   0.9237069013E-01   0.6033392239E-04  -0.1338063416E-04   0.6033392239E-04  -0.1338063416E-04   0.5839534622E-01  -0.1438842530E-01   0.2200302039E-01  -0.1561940364E-01
   0.1558914835E+00   0.9052222696E-01   0.6538173640E-04  -0.1187011818E-04   0.6538173640E-04  -0.1187011817E-04   0.5405348736E-01  -0.1106021064E-01   0.2149620843E-01  -0.1594904582E-01
   0.1273552325E+00   0.1185251141E+00   0.4942676046E-04  -0.2260293852E-04   0.4942676046E-04  -0.2260293853E-04   0.7434079682E-01  -0.1576786439E-01   0.2928588049E-01  -0.8096293396E-02
   0.1260301387E+00   0.1330816564E+00   0.4536236640E-04  -0.2774780059E-04   0.4536236640E-04  -0.2774780059E-04   0.7843695480E-01  -0.1238805493E-01   0.3302378945E-01  -0.4040494271E-02
   0.1145226407E+00   0.1296605826E+00   0.4225084005E-04  -0.2853268589E-04   0.4225084004E-04  -0.2853268589E-04   0.8010730252E-01  -0.1396422652E-01   0.3307087657E-01  -0.2829104837E-02
   0.2291260519E+00   0.1294532139E+00   0.7507247466E-04  -0.1873704469E-04   0.7507247466E-04  -0.1873704469E-04   0.6030003711E-01  -0.6278358758E-03   0.2983550389E-01  -0.7427598334E-02
   0.2012661707E+00   0.1331962425E+00   0.6784533249E-04  -0.2055227491E-04   0.6784533249E-04  -0.2055227491E-04   0.6378652350E-01  -0.4030942388E-02   0.2987719300E-01  -0.7516307357E-02
   0.1976560698E+00   0.1180755730E+00   0.6944189022E-04  -0.1694952240E-04   0.6944189023E-04  -0.1694952240E-04   0.6018208304E-01  -0.4381463991E-02   0.2789975152E-01  -0.9266053019E-02
   0.2150493188E+00   0.1311195418E+00   0.7153689963E-04  -0.1950960656E-04   0.7153689963E-04  -0.1950960656E-04   0.6176518314E-01  -0.2122646383E-02   0.2982067195E-01  -0.7733833349E-02
   0.1086665803E+00   0.1384489921E+00   0.3822364448E-04  -0.3280794030E-04   0.3822364448E-04  -0.3280794030E-04   0.8371789133E-01  -0.1178348562E-01   0.3596648351E-01   0.5892569842E-03
   0.1688578019E+00   0.1364467900E+00   0.5839942516E-04  -0.2355049669E-04   0.5839942516E-04  -0.2355049669E-04   0.6972602566E-01  -0.8644046117E-02   0.3054037895E-01  -0.6737712763E-02
   0.1864217302E+00   0.1395796980E+00   0.6282707787E-04  -0.2308202395E-04   0.6282707787E-04  -0.2308202395E-04   0.6725418272E-01  -0.6286744310E-02   0.3048310953E-01  -0.6806055137E-02
   0.1627688975E+00   0.1046750376E+00   0.6352974417E-04  -0.1507722212E-04   0.6352974417E-04  -0.1507722212E-04   0.6046698008E-01  -0.1011051212E-01   0.2517773041E-01  -0.1193793059E-01
   0.1845118863E+00   0.1214291192E+00   0.6554314795E-04  -0.1835290294E-04   0.6554314795E-04  -0.1835290294E-04   0.6276240463E-01  -0.6154900490E-02   0.2830318599E-01  -0.9300561000E-02
   0.1716682016E+00   0.1217750113E+00   0.6210029813E-04  -0.1915036966E-04   0.6210029813E-04  -0.1915036966E-04   0.6471687227E-01  -0.8633611569E-02   0.2804106952E-01  -0.9414630463E-02
   0.1157128887E+00   0.9810954966E-01   0.5180383543E-04  -0.1756157041E-04   0.5180383543E-04  -0.1756157041E-04   0.6712614568E-01  -0.1729739206E-01   0.2491387852E-01  -0.1331852681E-01
   0.1315283790E+00   0.1052794341E+00   0.5441247638E-04  -0.1774942547E-04   0.5441247639E-04  -0.1774942547E-04   0.6750646491E-01  -0.1504444492E-01   0.2623048538E-01  -0.1202105259E-01
   0.1719750689E+00   0.1103100029E+00   0.6458543516E-04  -0.1609702924E-04   0.6458543516E-04  -0.1609702924E-04   0.5978181533E-01  -0.7942370975E-02   0.2591920378E-01  -0.1142778879E-01
           1           2           3           4
           5           6           7           8
           9          10          11          12
          13          14          15          16
          17          18          19          20
          21          22          23          24
          25          26          27          28
          29          30          31          32
          33          34           4           3
           2           1          35          36
          37          38          39          40
          41          42          36          35
          43          41          44          45
          46           9          47          48
          41          35          39          44
          49          50          51          52
          52          51          53          54
          55          56          57          58
          56          59          60          57
          61          62          63          64
          65          66          67          68
          69          70          71          72
          73          74          25          28
          27          75          76          28
          77          78          24          23
          79          80          81          82
          83          84          85          86
          87          88          89          90
          90          89          62          91
          61          92          91          62
          92          61          59          93
          56          94          93          59
          95          55          54          53
          46          96          10           9
          97          98          99         100
          12         101          98          97
          97         100         102          47
         103         104          31          30
         105         103          30         106
          73         107         108         109
         110         111         112         113
          32          31         114         115
         116         117         118         119
         120         121         122         123
         121          83          86         122
          80         124         125          81
         126         127         128         129
         130         101          12          11
         131          43         101         130
          34         129         132           4
          42          41          43         131
          35           1          40          39
         101          43          45          98
         133         134         109         108
         135         136          13          16
         137         138          65          68
          94          56          55          95
          58         137          54          55
          49          52          68          67
         139         140         141         142
         140         139          82          81
          88          87         142         141
         143         144         145         146
         147          26          25         148
         149         150         128         151
           5           8         152         102
         132         129         128         150
         153         100          99         154
          48          47         102         152
          59          61          64          60
         106         155         113         118
          62          89         156          63
          88         157         156          89
         123         116         119         120
          66          65         134         133
         144         143          84          83
           9          12          97          47
         104         158         114          31
         159         160         127         126
         119         112         161         120
         117         105         106         118
         162         163         164         165
          83         121         166         144
         167         168         141         140
         167         143         146         168
           6         114         158           7
          38          37         169         170
          40         132         150          37
         160         159          20          19
          78         171         172          24
          18          17          21          24
         173         174          78          77
         132          40           1           4
          28          76         107          73
         175         176         177         178
         176         179          57          60
         137          68          52          54
          60          64         177         176
         163         162         155          29
          75          27         174         173
         180         174          27          26
          64          63         181         177
          98          45         182          99
         183         182          45          44
          38         183          44          39
          58          57         179         184
         185         181          63         156
         134         186         187         109
         188          74         187         189
         138         186         134          65
          88         141         168         157
         166         121         120         161
         190         191         166         161
         155         106          30          29
         192         193         194         195
         118         113         112         119
         125          84         143         167
         124          85          84         125
           6         196         115         114
         196           6           5         153
         197          32         115         198
         111         190         161         112
         199         148         188         135
         170         169         200         201
         202         164         163         197
         203         204         146         145
         205         206         201         200
         187          74          73         109
         176         175         207         179
         208         209          16          15
         210         186         138         184
         184         138         137          58
         179         207         210         184
         211         212         172         171
          78         174         180         171
         125         167         140          81
          37         150         149         169
         213         214         215         216
         217         182         183         201
         170         201         183          38
         218         219         206         205
         111         220         221         190
         157         168         146         204
         177         181         222         178
         222         181         185         223
         186         210         189         187
         224         191         190         221
         100         153           5         102
         185         156         157         204
         113         155         162         110
          26         147         193         180
          29          32         197         163
         225         226          19          18
         144         166         191         145
         212         192         227         228
         198         115         196         229
         206         154         217         201
         153         154         229         196
         172         225          18          24
         148          25          74         188
          14          13         175         178
         207         175          13         136
         189         136         135         188
         230         202         197         198
         210         207         136         189
         165         164         231         232
         169         149         233         200
         234         160          19         226
         217         154          99         182
         203         145         191         224
         151         235         233         149
         236         223         203         224
         185         204         203         223
         178         222         237          14
         110         162         165         238
         239         223         236         240
         238         220         111         110
         219         230         198         229
         241         242         232         243
         242          69         220         238
          72          71         240         236
         244         205         200         233
         215         231         164         202
         211         171         180         193
         228         225         172         212
         194         193         147         245
         245         147         148         199
         135          16         209         199
         209         208         246         247
         127         160         234         248
         193         192         212         211
         226         225         228         249
         151         128         127         248
         248         250         235         151
          72         221         220          69
          14         237         251          15
          70          69         252         253
         206         219         229         154
         238         165         232         242
          72         236         224         221
         216         215         202         230
         245         247         254         194
         255         256         257         258
         230         219         218         216
         214         259         231         215
         216         218         260         213
         261         255         258         214
         239         237         222         223
         194         254         262         195
         263         264         227         265
         250         266         267         268
         199         209         247         245
         240          71         269         251
         270         271         246         272
         260         244         273         213
         237         239         240         251
         218         205         244         260
          70         272         269          71
         232         231         259         243
         274         275         243         259
         257         256         263         276
         277         275         274         278
         234         226         249         279
         271         277         262         254
         271         254         247         246
         246         208         269         272
         244         233         235         273
         251         269         208          15
         275         270         253         252
         234         279         250         248
         279         249         264         280
         259         214         258         274
         262         281         276         195
         195         276         263         265
         257         276         281         278
         278         274         258         257
         266         280         256         255
         261         214         213         267
         267         266         255         261
         266         250         279         280
         228         227         264         249
         256         280         264         263
         265         227         192         195
         281         262         277         278
         235         250         268         273
         273         268         267         213
         277         271         270         275
         253         270         272          70
         252          69         242         241
         243         275         252         241
 VARIABLES = X,Y,DU1,DU2,U1,U2,S11,S22,S33,S12
 ZONE, T="0.3000D+01" F=FEPOINT, I=  281 J=  250
   0.1777295425E-01   0.1340855560E+00   0.5979183666E-05  -0.5074666781E-04   0.1195836733E-04  -0.1014933356E-03   0.1668269895E+00   0.2859112157E-01   0.9770710137E-01   0.4314837469E-02
   0.0000000000E+00   0.1331784080E+00   0.0000000000E+00  -0.5164400320E-04   0.0000000000E+00  -0.1032880064E-03   0.1720340515E+00   0.3732748924E-01   0.1046786767E+00   0.5306619677E-02
   0.0000000000E+00   0.1165332168E+00   0.0000000000E+00  -0.4448341175E-04   0.0000000000E+00  -0.8896682349E-04   0.2360068189E+00   0.2898657334E-01   0.1324940462E+00  -0.1060721239E-02
   0.1918096773E-01   0.1161597533E+00   0.8943576807E-05  -0.4381157079E-04   0.1788715362E-04  -0.8762314157E-04   0.2158860392E+00   0.3327706500E-01   0.1245790605E+00  -0.1673299252E-01
   0.7805633489E-01   0.2316690099E+00   0.1827856184E-04  -0.6913104341E-04   0.3655712368E-04  -0.1382620868E-03   0.1048877203E+00  -0.2726549587E-03   0.5230648651E-01   0.7389147860E-02
   0.9784892058E-01   0.2318593965E+00   0.2364022812E-04  -0.6528851146E-04   0.4728045623E-04  -0.1305770229E-03   0.1115636914E+00  -0.5408443253E-03   0.5551031331E-01   0.6807846366E-02
   0.9728448392E-01   0.2497889127E+00   0.2075334073E-04  -0.7036242747E-04   0.4150668146E-04  -0.1407248549E-03   0.1096181773E+00   0.9190674459E-04   0.5485394490E-01   0.1793678538E-02
   0.7782492356E-01   0.2497786277E+00   0.1571432008E-04  -0.7379078017E-04   0.3142864017E-04  -0.1475815603E-03   0.1000186202E+00   0.5023865243E-03   0.5025949814E-01   0.2072602627E-02
   0.1911055571E-01   0.2330898941E+00   0.4121701823E-05  -0.7764495146E-04   0.8243403646E-05  -0.1552899029E-03   0.8711500700E-01   0.9577664467E-03   0.4403550600E-01   0.2247484027E-02
   0.0000000000E+00   0.2330985777E+00   0.0000000000E+00  -0.7825211297E-04   0.0000000000E+00  -0.1565042259E-03   0.8569421733E-01   0.1020159434E-02   0.4335632124E-01   0.1841523826E-02
   0.0000000000E+00   0.2164432126E+00   0.0000000000E+00  -0.7448545528E-04   0.0000000000E+00  -0.1489709106E-03   0.9998409198E-01   0.5102958467E-02   0.5254247435E-01   0.1952536336E-02
   0.1854555439E-01   0.2165529431E+00   0.4419862540E-05  -0.7388995749E-04   0.8839725079E-05  -0.1477799150E-03   0.1009746255E+00   0.4714808348E-02   0.5284366001E-01   0.4292890410E-02
   0.2574607932E+00   0.9224068154E-01   0.8510241400E-04  -0.1119648826E-04   0.1702048280E-03  -0.2239297653E-04   0.7408066095E-01   0.6902181588E-02   0.4049061144E-01  -0.1031499278E-01
   0.2588519306E+00   0.1102426717E+00   0.8355088054E-04  -0.1441942128E-04   0.1671017611E-03  -0.2883884256E-04   0.8108819489E-01   0.5114999194E-02   0.4310073501E-01  -0.9859636286E-02
   0.2420963010E+00   0.1106330152E+00   0.8025633461E-04  -0.1455127495E-04   0.1605126692E-03  -0.2910254989E-04   0.8199173345E-01   0.2486755270E-02   0.4223839957E-01  -0.1168888812E-01
   0.2396261248E+00   0.9264772168E-01   0.8199625299E-04  -0.1119894145E-04   0.1639925060E-03  -0.2239788291E-04   0.7434447546E-01   0.4374490298E-02   0.3935869569E-01  -0.1255072429E-01
   0.9260263468E-01   0.3823480616E-01   0.7156092583E-04  -0.1117881282E-04   0.1431218517E-03  -0.2235762564E-04  -0.1187944919E-02  -0.4622497853E-01  -0.2370598760E-01   0.1340022903E-01
   0.1082597843E+00   0.4607834450E-01   0.7097475148E-04  -0.6732332491E-05   0.1419495030E-03  -0.1346466498E-04   0.1412956513E-01  -0.3589753361E-01  -0.1088376656E-01  -0.1265376131E-01
   0.9629654877E-01   0.6350526005E-01   0.6181745714E-04  -0.1231154978E-04   0.1236349143E-03  -0.2462309955E-04   0.3882807424E-01  -0.1782610233E-01   0.1050077594E-01  -0.1916672608E-01
   0.8334127863E-01   0.5550751389E-01   0.6477304371E-04  -0.1650326995E-04   0.1295460874E-03  -0.3300653991E-04   0.1402235665E-01  -0.3722221882E-02   0.5149964381E-02  -0.6180939381E-02
   0.9830510519E-01   0.1949277818E-01   0.7552619717E-04  -0.5418072787E-05   0.1510523943E-03  -0.1083614557E-04   0.1729109040E-02  -0.8329924309E-01  -0.4078425133E-01   0.1360933142E-01
   0.1002309697E+00   0.0000000000E+00   0.7698956511E-04   0.0000000000E+00   0.1539791302E-03   0.0000000000E+00   0.3855025553E-02  -0.9277407769E-01  -0.4445863688E-01  -0.3463805302E-02
   0.1210764645E+00   0.0000000000E+00   0.8104484716E-04   0.0000000000E+00   0.1620896943E-03   0.0000000000E+00  -0.7613612975E-02  -0.4908587863E-01  -0.2834917881E-01  -0.6513262085E-02
   0.1219660526E+00   0.2610521377E-01   0.7839618509E-04  -0.2364977028E-05   0.1567923702E-03  -0.4729954056E-05   0.3851035445E-02  -0.4051853975E-01  -0.1833338548E-01  -0.9327962372E-02
   0.2107978069E+00   0.3762348864E-01   0.8455596781E-04  -0.3248054236E-05   0.1691119356E-03  -0.6496108472E-05   0.4813907661E-01   0.7421989595E-02   0.2777997749E-01  -0.1128244973E-01
   0.1907052536E+00   0.3837342905E-01   0.8244785289E-04  -0.3023784091E-05   0.1648957058E-03  -0.6047568181E-05   0.4313821772E-01   0.3234523742E-02   0.2318590700E-01  -0.1475005133E-01
   0.1869605056E+00   0.1900892747E-01   0.8411786563E-04  -0.1331042425E-05   0.1682357313E-03  -0.2662084850E-05   0.3408271650E-01   0.4684210672E-02   0.1938307592E-01  -0.7229861453E-02
   0.2074893899E+00   0.1873361575E-01   0.8570262421E-04  -0.1469382204E-05   0.1714052484E-03  -0.2938764408E-05   0.4183874413E-01   0.8934659529E-02   0.2538619409E-01  -0.5738314304E-02
   0.1575539592E+00   0.2158093437E+00   0.4353741393E-04  -0.4936810452E-04   0.8707482785E-04  -0.9873620904E-04   0.1210372001E+00  -0.2686445061E-02   0.5917419402E-01   0.3217846660E-02
   0.1565760811E+00   0.2324414067E+00   0.4113669186E-04  -0.5469841745E-04   0.8227338372E-04  -0.1093968349E-03   0.1249229454E+00  -0.5892632850E-03   0.6216559771E-01   0.2025382862E-02
   0.1370846722E+00   0.2324563577E+00   0.3510040007E-04  -0.5792542449E-04   0.7020080013E-04  -0.1158508490E-03   0.1220810363E+00  -0.8394697948E-03   0.6061957086E-01   0.3635793686E-02
   0.1383280019E+00   0.2156551438E+00   0.3763061792E-04  -0.5254307642E-04   0.7526123585E-04  -0.1050861528E-03   0.1201330065E+00  -0.2975392015E-02   0.5857763566E-01   0.5992777140E-02
   0.0000000000E+00   0.9989810998E-01   0.0000000000E+00  -0.3396367171E-04   0.0000000000E+00  -0.6792734342E-04   0.2962888966E+00  -0.3992820878E-02   0.1461451149E+00   0.5102863719E-02
   0.1955603361E-01   0.9798099616E-01   0.1566706886E-04  -0.3251014675E-04   0.3133413771E-04  -0.6502029350E-04   0.2899215685E+00   0.9233745709E-02   0.1495746655E+00  -0.4919730433E-01
   0.1681425927E-01   0.1511671782E+00   0.5066822311E-05  -0.5651226527E-04   0.1013364462E-04  -0.1130245305E-03   0.1491194528E+00   0.2720120897E-01   0.8815856767E-01   0.5239161450E-02
   0.0000000000E+00   0.1498297181E+00   0.0000000000E+00  -0.5676264270E-04   0.0000000000E+00  -0.1135252854E-03   0.1475042115E+00   0.2765849644E-01   0.8757960236E-01   0.1829377589E-02
   0.5110610117E-01   0.1385295789E+00   0.1726368993E-04  -0.4668703629E-04   0.3452737986E-04  -0.9337407258E-04   0.1545538688E+00   0.1214905130E-01   0.8334979304E-01   0.7906221807E-02
   0.4909196934E-01   0.1539032740E+00   0.1502184627E-04  -0.5223400456E-04   0.3004369255E-04  -0.1044680091E-03   0.1401385986E+00   0.1082099314E-01   0.7547828629E-01   0.1248211228E-01
   0.3320522419E-01   0.1525719948E+00   0.9919829041E-05  -0.5482007311E-04   0.1983965808E-04  -0.1096401462E-03   0.1450213326E+00   0.1903345414E-01   0.8202575283E-01   0.9380137594E-02
   0.3440724142E-01   0.1355929502E+00   0.1192160629E-04  -0.4894592916E-04   0.2384321259E-04  -0.9789185832E-04   0.1619284120E+00   0.2004622899E-01   0.9098550076E-01   0.9688750788E-02
   0.1669847272E-01   0.1676194180E+00   0.4602139266E-05  -0.6124000426E-04   0.9204278532E-05  -0.1224800085E-03   0.1314511473E+00   0.1980455888E-01   0.7562634051E-01   0.5403919555E-02
   0.0000000000E+00   0.1664817562E+00   0.0000000000E+00  -0.6163860473E-04   0.0000000000E+00  -0.1232772095E-03   0.1336879602E+00   0.2287754628E-01   0.7828118761E-01   0.2794574839E-02
   0.1710503863E-01   0.1839284388E+00   0.4525410893E-05  -0.6569639220E-04   0.9050821786E-05  -0.1313927844E-03   0.1215611822E+00   0.1476150419E-01   0.6815997996E-01   0.5669811725E-02
   0.3341871381E-01   0.1684281474E+00   0.9401004198E-05  -0.5958154016E-04   0.1880200840E-04  -0.1191630803E-03   0.1318216077E+00   0.1549106912E-01   0.7365486526E-01   0.1204815436E-01
   0.3454095942E-01   0.1840876072E+00   0.9219105066E-05  -0.6387528069E-04   0.1843821013E-04  -0.1277505614E-03   0.1216590721E+00   0.1107240529E-01   0.6636441137E-01   0.1115440772E-01
   0.1945481454E-01   0.2497571658E+00   0.3456478702E-05  -0.8094473745E-04   0.6912957405E-05  -0.1618894749E-03   0.7610049762E-01   0.1361525310E-02   0.3873023684E-01   0.3861174191E-03
   0.3850321417E-01   0.2327169680E+00   0.8466155920E-05  -0.7577065066E-04   0.1693231184E-04  -0.1515413013E-03   0.9146003407E-01   0.6806024510E-03   0.4606939685E-01   0.5333974138E-02
   0.3891026994E-01   0.2497619595E+00   0.7126545285E-05  -0.7934684440E-04   0.1425309057E-04  -0.1586936888E-03   0.8191267820E-01   0.1188915150E-02   0.4154996566E-01   0.1638585832E-02
   0.3294600452E+00   0.0000000000E+00   0.9778806306E-04   0.0000000000E+00   0.1955761261E-03   0.0000000000E+00   0.6009472994E-01   0.1767217170E-01   0.3888267315E-01  -0.1619463158E-03
   0.3502999940E+00   0.0000000000E+00   0.1000000000E-03   0.0000000000E+00   0.2000000000E-03   0.0000000000E+00   0.6047985521E-01   0.1783555416E-01   0.3915692153E-01  -0.3040941971E-06
   0.3502999940E+00   0.1922455727E-01   0.1000000000E-03  -0.2070875391E-05   0.2000000000E-03  -0.4141750782E-05   0.6111887334E-01   0.1751193809E-01   0.3931461941E-01  -0.3910252385E-04
   0.3300561940E+00   0.1870853428E-01   0.9780234443E-04  -0.2003674211E-05   0.1956046889E-03  -0.4007348422E-05   0.6081808795E-01   0.1742622574E-01   0.3912137440E-01  -0.5520681837E-03
   0.3502999940E+00   0.3844884090E-01   0.1000000000E-03  -0.4233000990E-05   0.2000000000E-03  -0.8466001980E-05   0.6318798828E-01   0.1668904346E-01   0.3993771710E-01  -0.2626384436E-04
   0.3304989586E+00   0.3767064791E-01   0.9771021092E-04  -0.4128198119E-05   0.1954204218E-03  -0.8256396238E-05   0.6282466400E-01   0.1654623726E-01   0.3968465692E-01  -0.1155938011E-02
   0.3308510872E+00   0.5674340516E-01   0.9752608122E-04  -0.6439980613E-05   0.1950521624E-03  -0.1287996123E-04   0.6616190094E-01   0.1522593988E-01   0.4069310653E-01  -0.1551463797E-02
   0.3311294813E+00   0.7592955759E-01   0.9727144701E-04  -0.9030837119E-05   0.1945428940E-03  -0.1806167424E-04   0.7052184644E-01   0.1345841996E-01   0.4198929340E-01  -0.1869848577E-02
   0.3120952821E+00   0.7511895159E-01   0.9458169730E-04  -0.8853737581E-05   0.1891633946E-03  -0.1770747516E-04   0.6995078251E-01   0.1304850992E-01   0.4149881622E-01  -0.3757539131E-02
   0.3114301610E+00   0.5603432059E-01   0.9508099496E-04  -0.6292770224E-05   0.1901619899E-03  -0.1258554045E-04   0.6536631312E-01   0.1479355897E-01   0.4007913445E-01  -0.3178243686E-02
   0.3312732003E+00   0.9522014999E-01   0.9694777247E-04  -0.1195027025E-04   0.1938955449E-03  -0.2390054051E-04   0.7581207245E-01   0.1149830230E-01   0.4365431427E-01  -0.2019698780E-02
   0.3124705159E+00   0.9436529680E-01   0.9395363625E-04  -0.1177506746E-04   0.1879072725E-03  -0.2355013491E-04   0.7533909498E-01   0.1100637660E-01   0.4317187234E-01  -0.4061124471E-02
   0.3312584967E+00   0.1146637371E+00   0.9656657288E-04  -0.1527563873E-04   0.1931331458E-03  -0.3055127745E-04   0.8168978265E-01   0.9345466509E-02   0.4551671423E-01  -0.2087795453E-02
   0.3311161069E+00   0.1342180055E+00   0.9614131343E-04  -0.1900950512E-04   0.1922826269E-03  -0.3801901023E-04   0.8794515366E-01   0.7286876216E-02   0.4761506262E-01  -0.1984764156E-02
   0.3120747803E+00   0.1337368754E+00   0.9230777651E-04  -0.1893553697E-04   0.1846155530E-03  -0.3787107393E-04   0.8798219797E-01   0.6753187075E-02   0.4736674517E-01  -0.3933696807E-02
   0.3124655680E+00   0.1138901908E+00   0.9318834292E-04  -0.1511073396E-04   0.1863766858E-03  -0.3022146792E-04   0.8148930998E-01   0.8912545889E-02   0.4520002392E-01  -0.4148052241E-02
   0.2892759510E+00   0.1825854198E-01   0.9346232125E-04  -0.1876872615E-05   0.1869246425E-03  -0.3753745231E-05   0.5808636663E-01   0.1635384741E-01   0.3721936262E-01  -0.1752352123E-02
   0.2877803718E+00   0.0000000000E+00   0.9345925920E-04   0.0000000000E+00   0.1869185184E-03   0.0000000000E+00   0.5718522306E-01   0.1659405557E-01   0.3688890152E-01  -0.5006470708E-03
   0.3086201273E+00   0.0000000000E+00   0.9559675498E-04   0.0000000000E+00   0.1911935100E-03   0.0000000000E+00   0.5907240972E-01   0.1731716591E-01   0.3819402392E-01  -0.2778754413E-03
   0.3096744682E+00   0.1840042496E-01   0.9561474046E-04  -0.1942779056E-05   0.1912294809E-03  -0.3885558112E-05   0.5976435781E-01   0.1700514475E-01   0.3838398358E-01  -0.1152731562E-02
   0.2124062415E+00   0.1636066359E+00   0.6634284454E-04  -0.2799203057E-04   0.1326856891E-03  -0.5598406114E-04   0.1047848980E+00  -0.3550034639E-02   0.5061641935E-01  -0.7000296247E-02
   0.2165174913E+00   0.1466992446E+00   0.6966742617E-04  -0.2333680413E-04   0.1393348523E-03  -0.4667360826E-04   0.9864620897E-01  -0.3470307559E-02   0.4758699895E-01  -0.9568857581E-02
   0.2311749562E+00   0.1466673877E+00   0.7332708090E-04  -0.2277011646E-04   0.1466541618E-03  -0.4554023292E-04   0.9699301086E-01  -0.1230517823E-02   0.4788028889E-01  -0.9005909421E-02
   0.2323642385E+00   0.1630246035E+00   0.7170984845E-04  -0.2685717213E-04   0.1434196969E-03  -0.5371434426E-04   0.1024866079E+00  -0.1425245627E-02   0.5052967051E-01  -0.7192852808E-02
   0.2280279096E+00   0.1845227176E-01   0.8748454909E-04  -0.1606848219E-05   0.1749690982E-03  -0.3213696438E-05   0.4756670006E-01   0.1172174683E-01   0.2964363056E-01  -0.4424387070E-02
   0.2308782775E+00   0.3703788805E-01   0.8666481989E-04  -0.3425582123E-05   0.1733296398E-03  -0.6851164246E-05   0.5240839323E-01   0.1057744743E-01   0.3149229047E-01  -0.8720448220E-02
   0.1835869212E+00   0.0000000000E+00   0.8452807642E-04   0.0000000000E+00   0.1690561528E-03   0.0000000000E+00   0.3124134905E-01   0.4800839031E-02   0.1802073362E-01  -0.1841149788E-02
   0.2044246449E+00   0.0000000000E+00   0.8599295812E-04   0.0000000000E+00   0.1719859162E-03   0.0000000000E+00   0.3910173737E-01   0.9157233566E-02   0.2412900288E-01  -0.1736210950E-02
   0.1419135012E+00   0.0000000000E+00   0.8227839047E-04   0.0000000000E+00   0.1645567809E-03   0.0000000000E+00   0.7072671314E-02  -0.1243094029E-01  -0.2679080903E-02  -0.4674428286E-02
   0.1459129924E+00   0.2097791474E-01   0.8110279975E-04  -0.1215553991E-05   0.1622055995E-03  -0.2431107982E-05   0.1465065674E-01  -0.1234996582E-01   0.1150322453E-02  -0.1108388515E-01
   0.3502999940E+00   0.2498540000E+00   0.1000000000E-03  -0.4866667841E-04   0.2000000000E-03  -0.9733335682E-04   0.1193020964E+00  -0.2139246786E-03   0.5954289497E-01   0.2156063191E-03
   0.3308380366E+00   0.2498537691E+00   0.9415953964E-04  -0.4874362795E-04   0.1883190793E-03  -0.9748725590E-04   0.1195470982E+00  -0.2495701754E-03   0.5964757102E-01  -0.1748524981E-03
   0.3310718178E+00   0.2309173499E+00   0.9442158621E-04  -0.4313868651E-04   0.1888431724E-03  -0.8627737303E-04   0.1167091257E+00   0.3680278320E-03   0.5853740601E-01  -0.5762640269E-03
   0.3502999940E+00   0.2306402526E+00   0.1000000000E-03  -0.4299312895E-04   0.2000000000E-03  -0.8598625790E-04   0.1163775738E+00   0.3257958860E-03   0.5835051782E-01   0.2027747395E-03
   0.2732517700E+00   0.2315323261E+00   0.7739601424E-04  -0.4439863835E-04   0.1547920285E-03  -0.8879727670E-04   0.1202077736E+00   0.1963857321E-03   0.6020087561E-01  -0.1623549116E-02
   0.2925119316E+00   0.2313582449E+00   0.8312586203E-04  -0.4381436659E-04   0.1662517241E-03  -0.8762873318E-04   0.1186790576E+00   0.2667106126E-03   0.5947169464E-01  -0.1398832411E-02
   0.2919137206E+00   0.2498517777E+00   0.8235452858E-04  -0.4940743463E-04   0.1647090572E-03  -0.9881486926E-04   0.1219355275E+00  -0.2952749237E-03   0.6081890990E-01  -0.2967471985E-03
   0.2724512111E+00   0.2498498952E+00   0.7633002253E-04  -0.5003492452E-04   0.1526600451E-03  -0.1000698490E-03   0.1238184236E+00  -0.3360400365E-03   0.6173995695E-01  -0.4298501583E-03
   0.3502999940E+00   0.1729941418E+00   0.1000000000E-03  -0.2759540841E-04   0.2000000000E-03  -0.5519081681E-04   0.1002580129E+00   0.3785356309E-02   0.5202064418E-01   0.2271848730E-04
   0.3310641865E+00   0.1732312923E+00   0.9535482082E-04  -0.2767522796E-04   0.1907096416E-03  -0.5535045592E-04   0.1003957998E+00   0.3612018901E-02   0.5200286927E-01  -0.1598747915E-02
   0.3310568865E+00   0.1537778600E+00   0.9573284337E-04  -0.2316398337E-04   0.1914656867E-03  -0.4632796674E-04   0.9423315166E-01   0.5345131667E-02   0.4978814588E-01  -0.1850885169E-02
   0.3502999940E+00   0.1537767395E+00   0.1000000000E-03  -0.2314016534E-04   0.2000000000E-03  -0.4628033069E-04   0.9413859968E-01   0.5500980767E-02   0.4981879383E-01   0.1119449803E-03
   0.3502999940E+00   0.1345581483E+00   0.1000000000E-03  -0.1908090482E-04   0.2000000000E-03  -0.3816180963E-04   0.8793195642E-01   0.7423606867E-02   0.4767682809E-01  -0.5151991141E-04
   0.3502999940E+00   0.1153384181E+00   0.1000000000E-03  -0.1539929809E-04   0.2000000000E-03  -0.3079859618E-04   0.8182747643E-01   0.9520405150E-02   0.4567302731E-01   0.2849950230E-04
   0.3502999940E+00   0.9611750177E-01   0.1000000000E-03  -0.1211537749E-04   0.2000000000E-03  -0.2423075498E-04   0.7600356427E-01   0.1158816520E-01   0.4379498882E-01  -0.9398515889E-04
   0.3502999940E+00   0.7689552680E-01   0.1000000000E-03  -0.9184332419E-05   0.2000000000E-03  -0.1836866484E-04   0.7081759806E-01   0.1360799947E-01   0.4221195451E-01  -0.2033792972E-04
   0.3502999940E+00   0.5767256042E-01   0.1000000000E-03  -0.6582527008E-05   0.2000000000E-03  -0.1316505402E-04   0.6643692270E-01   0.1530929229E-01   0.4087229003E-01  -0.9090699770E-04
   0.0000000000E+00   0.2497555076E+00   0.0000000000E+00  -0.8149746203E-04   0.0000000000E+00  -0.1629949241E-03   0.7404340662E-01   0.1442308496E-02   0.3774210270E-01   0.1673951084E-02
   0.3761432691E-01   0.2160030214E+00   0.9095902027E-05  -0.7188619510E-04   0.1819180405E-04  -0.1437723902E-03   0.1035040002E+00   0.3665477664E-02   0.5358366725E-01   0.9090196334E-02
   0.3622112738E-01   0.1999009253E+00   0.9273294121E-05  -0.6792457416E-04   0.1854658824E-04  -0.1358491483E-03   0.1123852727E+00   0.7089549632E-02   0.5973621640E-01   0.1075221687E-01
   0.5562661064E-01   0.1984157677E+00   0.1456287875E-04  -0.6441875425E-04   0.2912575750E-04  -0.1288375085E-03   0.1152313538E+00   0.3683412033E-02   0.5945619376E-01   0.1409415131E-01
   0.5754958342E-01   0.2147199006E+00   0.1428110589E-04  -0.6848280675E-04   0.2856221178E-04  -0.1369656135E-03   0.1078778579E+00   0.1759977553E-02   0.5481782133E-01   0.1209732988E-01
   0.1782116479E-01   0.2002057164E+00   0.4498895218E-05  -0.6988554124E-04   0.8997790435E-05  -0.1397710825E-03   0.1107317349E+00   0.9039573100E-02   0.5988445628E-01   0.5027240806E-02
   0.5823771635E-01   0.2320997048E+00   0.1319614922E-04  -0.7279439147E-04   0.2639229844E-04  -0.1455887829E-03   0.9789523724E-01   0.3450689194E-03   0.4911917068E-01   0.6802302875E-02
   0.1556708140E+00   0.2498188579E+00   0.3841767024E-04  -0.6038069287E-04   0.7683534048E-04  -0.1207613857E-03   0.1285510207E+00  -0.5586076807E-03   0.6399492658E-01   0.6068315361E-03
   0.1362077277E+00   0.2498096007E+00   0.3220591412E-04  -0.6346642670E-04   0.6441182825E-04  -0.1269328534E-03   0.1245298897E+00  -0.4035722205E-03   0.6206191749E-01   0.1088784893E-02
   0.1751343751E+00   0.2498269358E+00   0.4479270187E-04  -0.5768807948E-04   0.8958540374E-04  -0.1153761590E-03   0.1305430097E+00  -0.5657524725E-03   0.6498732884E-01   0.2798567385E-03
   0.1760659378E+00   0.2323403685E+00   0.4726693581E-04  -0.5191483191E-04   0.9453387162E-04  -0.1038296638E-03   0.1262009664E+00  -0.4742721832E-03   0.6286208986E-01   0.6093555917E-03
   0.2252628363E+00   0.0000000000E+00   0.8761410396E-04   0.0000000000E+00   0.1752282079E-03   0.0000000000E+00   0.4581407335E-01   0.1220546730E-01   0.2900919013E-01  -0.1107040029E-02
   0.2461016568E+00   0.0000000000E+00   0.8943994614E-04   0.0000000000E+00   0.1788798923E-03   0.0000000000E+00   0.5070310094E-01   0.1410611489E-01   0.3240395982E-01  -0.9662050629E-03
   0.2485144667E+00   0.1833727934E-01   0.8937489958E-04  -0.1716185479E-05   0.1787497992E-03  -0.3432370958E-05   0.5218041155E-01   0.1385870009E-01   0.3301889543E-01  -0.3316300261E-02
   0.1967209748E+00   0.1993962581E+00   0.5746961302E-04  -0.3944161739E-04   0.1149392260E-03  -0.7888323477E-04   0.1162945924E+00  -0.3008875289E-02   0.5664172572E-01  -0.2201180419E-02
   0.2157486876E+00   0.1982796687E+00   0.6318752934E-04  -0.3752942070E-04   0.1263750587E-03  -0.7505884139E-04   0.1144698248E+00  -0.1725951368E-02   0.5637080928E-01  -0.3627119389E-02
   0.2157263391E+00   0.2150106150E+00   0.6143037008E-04  -0.4247766559E-04   0.1228607402E-03  -0.8495533117E-04   0.1191473695E+00  -0.9938048943E-03   0.5907560078E-01  -0.2432755872E-02
   0.1963892816E+00   0.2154883189E+00   0.5552452146E-04  -0.4433435000E-04   0.1110490429E-03  -0.8866870000E-04   0.1204482689E+00  -0.1612181429E-02   0.5941685539E-01  -0.1143081205E-02
   0.1176056690E+00   0.2322525240E+00   0.2926500587E-04  -0.6149199035E-04   0.5853001173E-04  -0.1229839807E-03   0.1177446528E+00  -0.7239962416E-03   0.5850915808E-01   0.5430659899E-02
   0.1189759657E+00   0.2150795342E+00   0.3177856354E-04  -0.5605726338E-04   0.6355712708E-04  -0.1121145268E-03   0.1184129952E+00  -0.3112554047E-02   0.5764906756E-01   0.8962437315E-02
   0.2140617885E+00   0.2498393636E+00   0.5763483218E-04  -0.5354545263E-04   0.1152696644E-03  -0.1070909053E-03   0.1297836892E+00  -0.5199408212E-03   0.6463058157E-01  -0.2211761345E-03
   0.1945981103E+00   0.2498337676E+00   0.5122075120E-04  -0.5541081615E-04   0.1024415024E-03  -0.1108216323E-03   0.1307855520E+00  -0.5765862889E-03   0.6510318076E-01  -0.7016294434E-04
   0.1955954392E+00   0.2322701822E+00   0.5343405928E-04  -0.4962561167E-04   0.1068681186E-03  -0.9925122334E-04   0.1261809295E+00  -0.2943538808E-03   0.6294202897E-01  -0.4615093204E-03
   0.2150908202E+00   0.2321403769E+00   0.5955807259E-04  -0.4778303944E-04   0.1191161452E-03  -0.9556607887E-04   0.1252300917E+00  -0.1274690583E-03   0.6255006031E-01  -0.1218846183E-02
   0.2345310431E+00   0.2318147015E+00   0.6561904229E-04  -0.4629149007E-04   0.1312380846E-03  -0.9258298015E-04   0.1236872679E+00   0.1486586931E-04   0.6184982988E-01  -0.1618193163E-02
   0.2539116656E+00   0.2316884767E+00   0.7155251930E-04  -0.4520775136E-04   0.1431050386E-03  -0.9041550272E-04   0.1219060033E+00   0.1087516145E-03   0.6100615729E-01  -0.1748179000E-02
   0.2529884114E+00   0.2498472889E+00   0.7020879471E-04  -0.5090370895E-04   0.1404175894E-03  -0.1018074179E-03   0.1259419705E+00  -0.3952640459E-03   0.6277209776E-01  -0.3676465984E-03
   0.2335252403E+00   0.2498438246E+00   0.6396877371E-04  -0.5205846648E-04   0.1279375474E-03  -0.1041169330E-03   0.1280174520E+00  -0.4659532680E-03   0.6377447385E-01  -0.3950714991E-03
   0.3113759764E+00   0.2498530380E+00   0.8828480315E-04  -0.4898732006E-04   0.1765696063E-03  -0.9797464012E-04   0.1205229978E+00  -0.2437689205E-03   0.6013841167E-01  -0.2585272514E-03
   0.3117689035E+00   0.2311420204E+00   0.8879584278E-04  -0.4340020787E-04   0.1775916856E-03  -0.8680041573E-04   0.1174404476E+00   0.2847173011E-03   0.5886140519E-01  -0.9685942104E-03
   0.5568856145E-01   0.8306849945E-01   0.4384591793E-04  -0.2615334942E-04   0.8769183586E-04  -0.5230669885E-04   0.1203949162E+00   0.4185052255E-01   0.8112109694E-01  -0.7247671173E-01
   0.7204774115E-01   0.9406451659E-01   0.3927231735E-04  -0.2553386918E-04   0.7854463469E-04  -0.5106773837E-04   0.1288866074E+00   0.6049157316E-02   0.6746653300E-01  -0.3091987247E-01
   0.6207880952E-01   0.1068901036E+00   0.3023387339E-04  -0.3276812101E-04   0.6046774679E-04  -0.6553624203E-04   0.1489356587E+00   0.1353602405E-01   0.8123421667E-01  -0.1815462979E-01
   0.3835678619E-01   0.9229520055E-01   0.2948119683E-04  -0.3091711831E-04   0.5896239366E-04  -0.6183423661E-04   0.1964098544E+00   0.2497334505E-01   0.1106893859E+00  -0.5940753084E-01
   0.0000000000E+00   0.1997887851E+00   0.0000000000E+00  -0.7040595360E-04   0.0000000000E+00  -0.1408119072E-03   0.1107883321E+00   0.1002404191E-01   0.6040497890E-01   0.2048733022E-02
   0.0000000000E+00   0.1831350628E+00   0.0000000000E+00  -0.6609141624E-04   0.0000000000E+00  -0.1321828325E-03   0.1205368464E+00   0.1551403250E-01   0.6802407892E-01   0.1960790396E-02
   0.3655371349E-01   0.1167436312E+00   0.1569186447E-04  -0.4126159995E-04   0.3138372894E-04  -0.8252319989E-04   0.1888493710E+00   0.2071031210E-01   0.1047777459E+00  -0.1658736039E-01
   0.2669408530E+00   0.0000000000E+00   0.9139065835E-04   0.0000000000E+00   0.1827813167E-03   0.0000000000E+00   0.5452027344E-01   0.1562666199E-01   0.3507276624E-01  -0.6168707486E-03
   0.2689000874E+00   0.1828607918E-01   0.9138078566E-04  -0.1810471940E-05   0.1827615713E-03  -0.3620943881E-05   0.5553336299E-01   0.1527070745E-01   0.3540132718E-01  -0.2497486058E-02
   0.2367756091E+00   0.7429161392E-01   0.8373537475E-04  -0.8194061464E-05   0.1674707495E-03  -0.1638812293E-04   0.6643670616E-01   0.6407415546E-02   0.3642133241E-01  -0.1254623430E-01
   0.2554762144E+00   0.7381299154E-01   0.8654845546E-04  -0.8299887154E-05   0.1730969109E-03  -0.1659977431E-04   0.6729237489E-01   0.9065379461E-02   0.3817811360E-01  -0.9990241083E-02
   0.3106217562E+00   0.3711492864E-01   0.9543305760E-04  -0.4011153478E-05   0.1908661152E-03  -0.8022306956E-05   0.6195220178E-01   0.1618939044E-01   0.3907001470E-01  -0.2338434309E-02
   0.2907196761E+00   0.3676557208E-01   0.9318803885E-04  -0.3889072953E-05   0.1863760777E-03  -0.7778145906E-05   0.6047662984E-01   0.1543621217E-01   0.3795566187E-01  -0.3603228291E-02
   0.3502999940E+00   0.2114257976E+00   0.1000000000E-03  -0.3755546059E-04   0.2000000000E-03  -0.7511092118E-04   0.1114710538E+00   0.1107646712E-02   0.5628822448E-01   0.1179510415E-03
   0.3311925779E+00   0.2118676897E+00   0.9471996211E-04  -0.3772476438E-04   0.1894399242E-03  -0.7544952876E-04   0.1116776882E+00   0.9848372082E-03   0.5633013606E-01  -0.1025098097E-02
   0.3311280790E+00   0.1926039867E+00   0.9501600493E-04  -0.3255043068E-04   0.1900320099E-03  -0.6510086135E-04   0.1063461818E+00   0.2224632669E-02   0.5428432152E-01  -0.1356664367E-02
   0.3502999940E+00   0.1922104869E+00   0.1000000000E-03  -0.3240304017E-04   0.2000000000E-03  -0.6480608034E-04   0.1060897004E+00   0.2253455593E-02   0.5417049455E-01   0.1640272137E-03
   0.2928147456E+00   0.2125689180E+00   0.8399753673E-04  -0.3837734494E-04   0.1679950735E-03  -0.7675468988E-04   0.1132907205E+00   0.6623460199E-03   0.5697539371E-01  -0.2624694217E-02
   0.2737396137E+00   0.2130264720E+00   0.7856155706E-04  -0.3896401000E-04   0.1571231141E-03  -0.7792802000E-04   0.1145508190E+00   0.3729075747E-03   0.5746071403E-01  -0.3156286311E-02
   0.2735947184E+00   0.1941713306E+00   0.7973481111E-04  -0.3372413591E-04   0.1594696222E-03  -0.6744827182E-04   0.1090656482E+00   0.9505861764E-03   0.5500701702E-01  -0.4233242736E-02
   0.2926735815E+00   0.1933474424E+00   0.8488481800E-04  -0.3311420738E-04   0.1697696360E-03  -0.6622841475E-04   0.1078900092E+00   0.1492030206E-02   0.5468992586E-01  -0.3544286003E-02
   0.1946464618E+00   0.5815385220E-01   0.7994925961E-04  -0.5421731828E-05   0.1598985192E-03  -0.1084346366E-04   0.5467125940E-01   0.5076331175E-03   0.2758889447E-01  -0.1772851931E-01
   0.2143422075E+00   0.5659719713E-01   0.8277616645E-04  -0.5461989799E-05   0.1655523329E-03  -0.1092397960E-04   0.5672376081E-01   0.5267419032E-02   0.3099497001E-01  -0.1420174948E-01
   0.7325970490E-01   0.1304769019E+00   0.2691186591E-04  -0.3838704938E-04   0.5382373182E-04  -0.7677409877E-04   0.1425851194E+00  -0.2212407816E-02   0.7018495207E-01   0.4453455934E-02
   0.5555495327E-01   0.1223566023E+00   0.2244389009E-04  -0.3961922713E-04   0.4488778018E-04  -0.7923845426E-04   0.1609403226E+00   0.5621970725E-02   0.8327948105E-01  -0.6936464021E-02
   0.8087669393E-01   0.1171822959E+00   0.3315784337E-04  -0.3126369039E-04   0.6631568675E-04  -0.6252738079E-04   0.1344707217E+00  -0.1268540091E-01   0.6089144255E-01  -0.4125032908E-02
   0.5836686101E-01   0.2497693749E+00   0.1117580493E-04  -0.7687503353E-04   0.2235160986E-04  -0.1537500671E-03   0.9028950285E-01   0.8442894043E-03   0.4556598479E-01   0.1874987392E-02
   0.7824880256E-01   0.2132284085E+00   0.2004825389E-04  -0.6407382943E-04   0.4009650777E-04  -0.1281476589E-03   0.1122394588E+00   0.1259250190E-04   0.5612490315E-01   0.1291873643E-01
   0.7806058352E-01   0.1932594229E+00   0.2136123887E-04  -0.5831668903E-04   0.4272247774E-04  -0.1166333781E-03   0.1195500718E+00  -0.7318084327E-03   0.5940794351E-01   0.1563737887E-01
   0.1769050453E+00   0.2156598036E+00   0.4953444757E-04  -0.4659878436E-04   0.9906889514E-04  -0.9319756872E-04   0.1210731088E+00  -0.2225676837E-02   0.5942252753E-01   0.7794574210E-03
   0.3117835369E+00   0.1536601465E+00   0.9143830075E-04  -0.2318684443E-04   0.1828766015E-03  -0.4637368887E-04   0.9453618284E-01   0.4879683710E-02   0.4970693912E-01  -0.3554015604E-02
   0.3117687010E+00   0.1733546969E+00   0.9066534891E-04  -0.2780671435E-04   0.1813306978E-03  -0.5561342870E-04   0.1008333534E+00   0.3315671065E-02   0.5207347077E-01  -0.3097856457E-02
   0.1167455142E+00   0.2497994657E+00   0.2628239330E-04  -0.6684477044E-04   0.5256478660E-04  -0.1336895409E-03   0.1178958962E+00  -0.2155762768E-03   0.5883898315E-01   0.1554970421E-02
   0.7087679822E-01   0.7064486923E-01   0.5537227175E-04  -0.2193739069E-04   0.1107445435E-03  -0.4387478138E-04   0.4338186229E-01   0.2746551194E-01   0.3542297864E-01  -0.3405396825E-01
   0.8404592421E-01   0.7960962509E-01   0.5098926954E-04  -0.1844763527E-04   0.1019785391E-03  -0.3689527054E-04   0.7798584811E-01   0.7341663264E-04   0.3902885178E-01  -0.3213380917E-01
   0.2351403057E+00   0.2141882148E+00   0.6728257966E-04  -0.4092972004E-04   0.1345651593E-03  -0.8185944007E-04   0.1175993602E+00  -0.4475753125E-03   0.5857472094E-01  -0.3110886858E-02
   0.1775940517E+00   0.1997885561E+00   0.5165255184E-04  -0.4164364738E-04   0.1033051037E-03  -0.8328729476E-04   0.1179635546E+00  -0.4097402952E-02   0.5693193719E-01   0.1845278130E-04
   0.1586611905E+00   0.1996548500E+00   0.4585715390E-04  -0.4419600217E-04   0.9171430780E-04  -0.8839200434E-04   0.1189122045E+00  -0.5051199039E-02   0.5692936411E-01   0.2845605498E-02
   0.1598260740E+00   0.1837937319E+00   0.4820665312E-04  -0.3909303491E-04   0.9641330624E-04  -0.7818606982E-04   0.1172326028E+00  -0.7669247713E-02   0.5478058193E-01   0.1377829540E-02
   0.1779731760E+00   0.1844765152E+00   0.5370701534E-04  -0.3694326972E-04   0.1074140307E-03  -0.7388653944E-04   0.1147200858E+00  -0.6301503975E-02   0.5420820672E-01  -0.1547999978E-02
   0.2545177467E+00   0.2135989449E+00   0.7299991556E-04  -0.3980335830E-04   0.1459998311E-03  -0.7960671661E-04   0.1160660135E+00   0.2433077576E-04   0.5804401125E-01  -0.3338589889E-02
   0.3119796113E+00   0.2122185698E+00   0.8937377054E-04  -0.3798740025E-04   0.1787475411E-03  -0.7597480051E-04   0.1124070015E+00   0.9008991363E-03   0.5665281725E-01  -0.1875610496E-02
   0.3119353442E+00   0.1929348831E+00   0.8999605200E-04  -0.3275862865E-04   0.1799921040E-03  -0.6551725729E-04   0.1068617896E+00   0.1854240512E-02   0.5435692788E-01  -0.2553011736E-02
   0.6715990318E-01   0.1439374165E+00   0.2233092820E-04  -0.4464150206E-04   0.4466185639E-04  -0.8928300412E-04   0.1421050641E+00  -0.1474561444E-03   0.7097738443E-01   0.9742202484E-02
   0.6217379187E-01   0.1544906536E+00   0.1924009152E-04  -0.4959479866E-04   0.3848018303E-04  -0.9918959732E-04   0.1403711107E+00   0.4517659056E-02   0.7244293598E-01   0.1324371607E-01
   0.1527713456E+00   0.3950730085E-01   0.7848653876E-04  -0.2805983625E-05   0.1569730775E-03  -0.5611967250E-05   0.3023234837E-01  -0.1351492865E-01   0.8358542683E-02  -0.2128136701E-01
   0.1355772626E+00   0.4588694548E-01   0.7468988049E-04  -0.3931241231E-05   0.1493797610E-03  -0.7862482462E-05   0.3231388829E-01  -0.1952707572E-01   0.6393278417E-02  -0.2710630316E-01
   0.1627499149E+00   0.0000000000E+00   0.8330695164E-04   0.0000000000E+00   0.1666139033E-03   0.0000000000E+00   0.2097325111E-01  -0.1768180088E-02   0.9602343459E-02  -0.2854046221E-02
   0.1666778582E+00   0.1949512576E-01   0.8263541152E-04  -0.1210147989E-05   0.1652708230E-03  -0.2420295977E-05   0.2517488223E-01  -0.2004105065E-02   0.1158515688E-01  -0.8789209931E-02
   0.2757056814E+00   0.9269008968E-01   0.8809112041E-04  -0.1135657486E-04   0.1761822408E-03  -0.2271314973E-04   0.7444913059E-01   0.8879555829E-02   0.4166350992E-01  -0.8155260207E-02
   0.2939005877E+00   0.9345593218E-01   0.9099922123E-04  -0.1155860695E-04   0.1819984425E-03  -0.2311721390E-04   0.7492201524E-01   0.1015809950E-01   0.4253920657E-01  -0.6080806105E-02
   0.2940394008E+00   0.1128041198E+00   0.8989458791E-04  -0.1489707626E-04   0.1797891758E-03  -0.2979415253E-04   0.8113296690E-01   0.8042809712E-02   0.4458699655E-01  -0.6120319837E-02
   0.2761639865E+00   0.1113307113E+00   0.8670183091E-04  -0.1461289017E-04   0.1734036618E-03  -0.2922578034E-04   0.8091189037E-01   0.6759039108E-02   0.4383458803E-01  -0.8000055052E-02
   0.2931508097E+00   0.7441267100E-01   0.9191955840E-04  -0.8663433358E-05   0.1838391168E-03  -0.1732686672E-04   0.6915726194E-01   0.1220312240E-01   0.4067937857E-01  -0.5697692958E-02
   0.1713306290E+00   0.3887378039E-01   0.8053032894E-04  -0.2816369223E-05   0.1610606579E-03  -0.5632738446E-05   0.3643704034E-01  -0.1851509006E-02   0.1729241981E-01  -0.1820899230E-01
   0.2932301516E+00   0.1326931063E+00   0.8851485642E-04  -0.1875255268E-04   0.1770297128E-03  -0.3750510537E-04   0.8816796603E-01   0.5917218940E-02   0.4704165163E-01  -0.5947571997E-02
   0.5195773110E-01   0.1831863243E+00   0.1421973246E-04  -0.6072158001E-04   0.2843946492E-04  -0.1214431600E-03   0.1229995468E+00   0.6218277833E-02   0.6460762016E-01   0.1461114572E-01
   0.5046367724E-01   0.1684221880E+00   0.1443701242E-04  -0.5661599418E-04   0.2887402484E-04  -0.1132319884E-03   0.1324871215E+00   0.9573713130E-02   0.7102899669E-01   0.1484576262E-01
   0.2920177531E+00   0.5548746367E-01   0.9265371574E-04  -0.6119877810E-05   0.1853074315E-03  -0.1223975562E-04   0.6427941529E-01   0.1403075855E-01   0.3915430382E-01  -0.4834750961E-02
   0.2919262664E+00   0.1532245043E+00   0.8698347653E-04  -0.2321888678E-04   0.1739669531E-03  -0.4643777356E-04   0.9484331687E-01   0.4074988235E-02   0.4945816337E-01  -0.5149729922E-02
   0.2708395076E+00   0.3668127168E-01   0.9097487496E-04  -0.3755239664E-05   0.1819497499E-03  -0.7510479328E-05   0.5848291184E-01   0.1435994942E-01   0.3642070220E-01  -0.5008466966E-02
   0.2509563552E+00   0.3680340464E-01   0.8881039791E-04  -0.3612653897E-05   0.1776207958E-03  -0.7225307794E-05   0.5576378021E-01   0.1274186463E-01   0.3425213737E-01  -0.6690291130E-02
   0.2337910795E+00   0.5568335151E-01   0.8535249534E-04  -0.5609229109E-05   0.1707049907E-03  -0.1121845822E-04   0.5885142339E-01   0.8624472543E-02   0.3373727321E-01  -0.1123990468E-01
   0.2533008035E+00   0.5531014272E-01   0.8782349773E-04  -0.5776192011E-05   0.1756469955E-03  -0.1155238402E-04   0.6097387459E-01   0.1106623735E-01   0.3601933557E-01  -0.8755992624E-02
   0.2350722760E+00   0.1969467175E+00   0.6886033148E-04  -0.3594417185E-04   0.1377206630E-03  -0.7188834371E-04   0.1125531809E+00  -0.7364441277E-03   0.5590725021E-01  -0.4379338353E-02
   0.2544441181E+00   0.1955710778E+00   0.7439501971E-04  -0.3469073345E-04   0.1487900394E-03  -0.6938146690E-04   0.1106427146E+00   0.6834995097E-04   0.5535442518E-01  -0.4553409861E-02
   0.1597817448E+00   0.7267254571E-01   0.7111026424E-04  -0.7703963551E-05   0.1422205285E-03  -0.1540792710E-04   0.6559230799E-01  -0.1240566697E-01   0.2659278864E-01  -0.2537198989E-01
   0.1739664556E+00   0.6064517913E-01   0.7650853260E-04  -0.5513022908E-05   0.1530170652E-03  -0.1102604582E-04   0.5440990228E-01  -0.6109574269E-02   0.2414968100E-01  -0.2267974625E-01
   0.1843400030E+00   0.8231144274E-01   0.7350331699E-04  -0.9288820104E-05   0.1470066340E-03  -0.1857764021E-04   0.7123665645E-01  -0.7460964508E-02   0.3188720821E-01  -0.2091340186E-01
   0.1696065170E+00   0.8992078164E-01   0.6867300355E-04  -0.1116591911E-04   0.1373460071E-03  -0.2233183823E-04   0.7799718102E-01  -0.1172377089E-01   0.3313604233E-01  -0.2136212131E-01
   0.9891654692E-01   0.2140295438E+00   0.2588873969E-04  -0.5994474903E-04   0.5177747937E-04  -0.1198894981E-03   0.1159936017E+00  -0.1841503982E-02   0.5707490732E-01   0.1188499345E-01
   0.1398658620E+00   0.1992446679E+00   0.4004500595E-04  -0.4716569449E-04   0.8009001191E-04  -0.9433138899E-04   0.1196497951E+00  -0.5617647037E-02   0.5701493372E-01   0.5985582182E-02
   0.1209908454E+00   0.1984876939E+00   0.3422146126E-04  -0.5053171642E-04   0.6844292253E-04  -0.1010634328E-03   0.1198044245E+00  -0.5826260130E-02   0.5698794240E-01   0.9367334814E-02
   0.2184136408E+00   0.7551203340E-01   0.8074594056E-04  -0.8221565185E-05   0.1614918811E-03  -0.1644313037E-04   0.6612228740E-01   0.3057531280E-02   0.3458921754E-01  -0.1534421635E-01
   0.8038313618E-01   0.1526614687E+00   0.2568689299E-04  -0.4454576279E-04   0.5137378599E-04  -0.8909152559E-04   0.1348829338E+00  -0.5218420062E-02   0.6483096021E-01   0.1175025601E-01
   0.6989775623E-01   0.1665856143E+00   0.2071271153E-04  -0.5175022677E-04   0.4142542306E-04  -0.1035004535E-03   0.1301329857E+00   0.6109064477E-03   0.6537063864E-01   0.1531382405E-01
   0.1415730278E+00   0.1829898177E+00   0.4256293204E-04  -0.4172910918E-04   0.8512586408E-04  -0.8345821836E-04   0.1189714811E+00  -0.8603447965E-02   0.5518291291E-01   0.4723576498E-02
   0.2727452542E+00   0.1744208107E+00   0.8090405624E-04  -0.2856309483E-04   0.1618081125E-03  -0.5712618966E-04   0.1029617949E+00   0.1455175942E-02   0.5220744126E-01  -0.5424137147E-02
   0.2922005525E+00   0.1735450462E+00   0.8585615186E-04  -0.2802458406E-04   0.1717123037E-03  -0.5604916813E-04   0.1014713383E+00   0.2469356584E-02   0.5196930801E-01  -0.4590810645E-02
   0.9435426123E-01   0.1609083992E+00   0.2955537609E-04  -0.4396393080E-04   0.5911075217E-04  -0.8792786160E-04   0.1288093344E+00  -0.9601668238E-02   0.5960264099E-01   0.1132581395E-01
   0.8725639674E-01   0.1753321915E+00   0.2560844554E-04  -0.5054884165E-04   0.5121689108E-04  -0.1010976833E-03   0.1268185434E+00  -0.5003789171E-02   0.6090615896E-01   0.1472083947E-01
   0.2743486829E+00   0.7394807840E-01   0.8926029527E-04  -0.8468632691E-05   0.1785205905E-03  -0.1693726538E-04   0.6822483014E-01   0.1090738183E-01   0.3956531466E-01  -0.7729178418E-02
   0.2263783400E+00   0.1122559000E+00   0.7681666680E-04  -0.1501566523E-04   0.1536333336E-03  -0.3003133046E-04   0.8377179917E-01  -0.3160654910E-03   0.4172703228E-01  -0.1311040576E-01
   0.2226809820E+00   0.9415027633E-01   0.7873131690E-04  -0.1143372191E-04   0.1574626338E-03  -0.2286744381E-04   0.7549991217E-01   0.9056503249E-03   0.3820201719E-01  -0.1485789127E-01
   0.2726565418E+00   0.5524418900E-01   0.9024528207E-04  -0.5952933616E-05   0.1804905641E-03  -0.1190586723E-04   0.6279040735E-01   0.1281087325E-01   0.3779988429E-01  -0.6679184294E-02
   0.1570964061E+00   0.5348060340E-01   0.7559535639E-04  -0.4559568231E-05   0.1511907128E-03  -0.9119136462E-05   0.4605581650E-01  -0.1252114393E-01   0.1676700094E-01  -0.2543912652E-01
   0.1469700735E+00   0.6073943792E-01   0.7202550303E-04  -0.5811792686E-05   0.1440510061E-03  -0.1162358537E-04   0.5203520313E-01  -0.1565679945E-01   0.1818883805E-01  -0.2529673222E-01
   0.1239902430E+00   0.1490039213E+00   0.4166298421E-04  -0.3357788918E-04   0.8332596842E-04  -0.6715577836E-04   0.1217819539E+00  -0.1630693609E-01   0.5273645414E-01   0.1221945578E-02
   0.1447463507E+00   0.1472702616E+00   0.4892123588E-04  -0.2958880370E-04   0.9784247176E-04  -0.5917760740E-04   0.1143993829E+00  -0.1561449387E-01   0.4939145665E-01  -0.3890817628E-02
   0.1433010042E+00   0.1660251982E+00   0.4537205097E-04  -0.3596927967E-04   0.9074410195E-04  -0.7193855933E-04   0.1182218802E+00  -0.1226234534E-01   0.5297870786E-01   0.1649105066E-02
   0.1256031626E+00   0.1661956473E+00   0.3954553754E-04  -0.3913491619E-04   0.7909107507E-04  -0.7826983238E-04   0.1212034778E+00  -0.1223999398E-01   0.5448065228E-01   0.4785874541E-02
   0.6674154767E-01   0.1807150402E+00   0.1874788914E-04  -0.5692725001E-04   0.3749577827E-04  -0.1138545000E-03   0.1253656107E+00   0.2806415404E-02   0.6408473135E-01   0.1547261263E-01
   0.1096463438E+00   0.1659932441E+00   0.3419092447E-04  -0.4229428805E-04   0.6838184895E-04  -0.8458857610E-04   0.1258498687E+00  -0.1152822458E-01   0.5715967884E-01   0.8709476538E-02
   0.1055249612E+00   0.1804505006E+00   0.3115472904E-04  -0.4801612239E-04   0.6230945808E-04  -0.9603224477E-04   0.1226479832E+00  -0.8019601464E-02   0.5731304458E-01   0.1185556554E-01
   0.2148966738E+00   0.1815848370E+00   0.6482325439E-04  -0.3281167059E-04   0.1296465088E-03  -0.6562334119E-04   0.1098168242E+00  -0.2720235914E-02   0.5354722316E-01  -0.5113109263E-02
   0.2341175135E+00   0.1797268209E+00   0.7034017522E-04  -0.3120904702E-04   0.1406803504E-03  -0.6241809404E-04   0.1074119781E+00  -0.1147267132E-02   0.5313129283E-01  -0.5905631532E-02
   0.2754806857E+00   0.1304503582E+00   0.8503522364E-04  -0.1836159183E-04   0.1700704473E-03  -0.3672318366E-04   0.8776730365E-01   0.5069506584E-02   0.4641747675E-01  -0.7611878248E-02
   0.2705670070E+00   0.1522167368E+00   0.8215731875E-04  -0.2318972991E-04   0.1643146375E-03  -0.4637945983E-04   0.9578645826E-01   0.2681326515E-02   0.4923290771E-01  -0.6999338254E-02
   0.2535207044E+00   0.1773974496E+00   0.7573012696E-04  -0.2983547629E-04   0.1514602539E-03  -0.5967095258E-04   0.1048226373E+00   0.4743388855E-03   0.5264743512E-01  -0.6021276829E-02
   0.1222662482E+00   0.5810775329E-01   0.6866473929E-04  -0.6615803740E-05   0.1373294786E-03  -0.1323160748E-04   0.4458328271E-01  -0.2583440447E-01   0.9374251631E-02  -0.2769918258E-01
   0.1102217724E+00   0.7307005925E-01   0.6017811759E-04  -0.1116758397E-04   0.1203562352E-03  -0.2233516794E-04   0.6867603355E-01  -0.2658863980E-01   0.2104327600E-01  -0.2845519008E-01
   0.1476596352E+00   0.8120540394E-01   0.6608839057E-04  -0.9937053688E-05   0.1321767811E-03  -0.1987410738E-04   0.7613766776E-01  -0.1765450699E-01   0.2924099555E-01  -0.2519475955E-01
   0.1354335133E+00   0.7048357921E-01   0.6682775007E-04  -0.8121463820E-05   0.1336555001E-03  -0.1624292764E-04   0.6382248518E-01  -0.2088507468E-01   0.2146827587E-01  -0.2829224067E-01
   0.1010662707E+00   0.1968040230E+00   0.2813657879E-04  -0.5421832799E-04   0.5627315757E-04  -0.1084366560E-03   0.1203049334E+00  -0.4669946567E-02   0.5781633708E-01   0.1285046765E-01
   0.1236415794E+00   0.1822322634E+00   0.3686514901E-04  -0.4480185477E-04   0.7373029803E-04  -0.8960370954E-04   0.1210934727E+00  -0.8972347342E-02   0.5605944145E-01   0.8175984097E-02
   0.1612637194E+00   0.1678520808E+00   0.5087247353E-04  -0.3390274016E-04   0.1017449471E-03  -0.6780548032E-04   0.1142789922E+00  -0.1071179064E-01   0.5178256513E-01  -0.1639214695E-02
   0.1783132044E+00   0.1697516045E+00   0.5580780410E-04  -0.3249783163E-04   0.1116156082E-03  -0.6499566326E-04   0.1118559690E+00  -0.7877535461E-02   0.5198817700E-01  -0.3569022270E-02
   0.8814994388E-01   0.1397177862E+00   0.3055282577E-04  -0.3787425656E-04   0.6110565153E-04  -0.7574851312E-04   0.1338609260E+00  -0.1299977657E-01   0.6042936610E-01   0.5502444878E-02
   0.9953975022E-01   0.8891346282E-01   0.5018740693E-04  -0.1741456117E-04   0.1003748139E-03  -0.3482912234E-04   0.1014078918E+00  -0.2250900659E-01   0.3944865364E-01  -0.2323044404E-01
   0.9648509981E-01   0.1275579246E+00   0.3624180264E-04  -0.3159845297E-04   0.7248360528E-04  -0.6319690594E-04   0.1307879554E+00  -0.1655237118E-01   0.5711664977E-01  -0.1738736161E-02
   0.2507657069E+00   0.1600195931E+00   0.7669995768E-04  -0.2547564535E-04   0.1533999154E-03  -0.5095129070E-04   0.1000846185E+00   0.7596647578E-03   0.5042113321E-01  -0.7315264663E-02
   0.2595992131E+00   0.1274815342E+00   0.8197770898E-04  -0.1787658414E-04   0.1639554180E-03  -0.3575316829E-04   0.8788423820E-01   0.3143570666E-02   0.4551299416E-01  -0.9058545539E-02
   0.1963548165E+00   0.1839394987E+00   0.5923551402E-04  -0.3491444346E-04   0.1184710280E-03  -0.6982888692E-04   0.1123776802E+00  -0.4406166196E-02   0.5398467728E-01  -0.3767850958E-02
   0.2585255345E+00   0.1414418587E+00   0.8033184414E-04  -0.2094877473E-04   0.1606636883E-03  -0.4189754946E-04   0.9242212427E-01   0.1645358066E-02   0.4703280049E-01  -0.8393959756E-02
   0.2461792072E+00   0.1445770016E+00   0.7716272371E-04  -0.2186314206E-04   0.1543254474E-03  -0.4372628411E-04   0.9431655103E-01   0.8252438222E-03   0.4756994601E-01  -0.8547753145E-02
   0.1918596352E+00   0.1589052006E+00   0.6131407795E-04  -0.2812114185E-04   0.1226281559E-03  -0.5624228370E-04   0.1051584102E+00  -0.7026418125E-02   0.4906501470E-01  -0.7021622831E-02
   0.1946875551E+00   0.1696973292E+00   0.6062101879E-04  -0.3092493716E-04   0.1212420376E-03  -0.6184987432E-04   0.1088956530E+00  -0.5666532350E-02   0.5161352801E-01  -0.5369389163E-02
   0.1799472515E+00   0.1552119685E+00   0.5843049793E-04  -0.2803448368E-04   0.1168609959E-03  -0.5606896735E-04   0.1073018574E+00  -0.9235598873E-02   0.4903214859E-01  -0.6109066744E-02
   0.1010810679E+00   0.1484531578E+00   0.3370462477E-04  -0.3811341452E-04   0.6740924953E-04  -0.7622682904E-04   0.1286296221E+00  -0.1281306841E-01   0.5790711867E-01   0.5867139114E-02
   0.2006164034E+00   0.7795506390E-01   0.7741613006E-04  -0.8479834555E-05   0.1548322601E-03  -0.1695966911E-04   0.6686672430E-01  -0.1820253546E-02   0.3252258491E-01  -0.1864633318E-01
   0.2115690265E+00   0.1146234732E+00   0.7324917655E-04  -0.1576492978E-04   0.1464983531E-03  -0.3152985956E-04   0.8644635632E-01  -0.3245016518E-02   0.4159983789E-01  -0.1387900379E-01
   0.2068031791E+00   0.9685931225E-01   0.7518336736E-04  -0.1202814918E-04   0.1503667347E-03  -0.2405629836E-04   0.7842248948E-01  -0.2901375722E-02   0.3775980167E-01  -0.1656255560E-01
   0.9004556881E-01   0.1039251291E+00   0.4111393807E-04  -0.2447597051E-04   0.8222787614E-04  -0.4895194102E-04   0.1210200462E+00  -0.1976122280E-01   0.5062839913E-01  -0.1336542565E-01
   0.1246547467E+00   0.8335100197E-01   0.5964888669E-04  -0.1206220991E-04   0.1192977734E-03  -0.2412441983E-04   0.8253712547E-01  -0.2467742798E-01   0.2892927015E-01  -0.2637727132E-01
   0.1088859755E+00   0.1151185274E+00   0.4389184808E-04  -0.2437288328E-04   0.8778369617E-04  -0.4874576657E-04   0.1180553297E+00  -0.2110139940E-01   0.4847599563E-01  -0.1068451264E-01
   0.2440521614E+00   0.1279352454E+00   0.7857045300E-04  -0.1814951808E-04   0.1571409060E-03  -0.3629903615E-04   0.8848506225E-01   0.1275069862E-02   0.4487916845E-01  -0.1055192991E-01
   0.1990781102E+00   0.1516647261E+00   0.6435238638E-04  -0.2562262176E-04   0.1287047728E-03  -0.5124524352E-04   0.1033303007E+00  -0.5773189803E-02   0.4877757986E-01  -0.8050560258E-02
   0.2055713735E+00   0.1443660265E+00   0.6716617396E-04  -0.2325049668E-04   0.1343323479E-03  -0.4650099337E-04   0.1002471570E+00  -0.5347598484E-02   0.4744883024E-01  -0.9771833554E-02
   0.1926069896E+00   0.1007813797E+00   0.7145252091E-04  -0.1307876778E-04   0.1429050418E-03  -0.2615753556E-04   0.8237854108E-01  -0.6453119348E-02   0.3796195161E-01  -0.1738858616E-01
   0.1418505060E+00   0.1241460165E+00   0.5274668234E-04  -0.2253717160E-04   0.1054933647E-03  -0.4507434321E-04   0.1077517566E+00  -0.1933248895E-01   0.4420874965E-01  -0.1128992290E-01
   0.1460378567E+00   0.1118342476E+00   0.5705490213E-04  -0.1832678614E-04   0.1141098043E-03  -0.3665357228E-04   0.9954594003E-01  -0.1946921194E-01   0.4003756327E-01  -0.1611599737E-01
   0.1587788854E+00   0.1176121514E+00   0.5934945325E-04  -0.1892254689E-04   0.1186989065E-03  -0.3784509378E-04   0.9864347696E-01  -0.1592056787E-01   0.4136062732E-01  -0.1486852954E-01
   0.1542595922E+00   0.1313072356E+00   0.5503972340E-04  -0.2339780750E-04   0.1100794468E-03  -0.4679561500E-04   0.1066396643E+00  -0.1591264650E-01   0.4536260162E-01  -0.1071653138E-01
   0.1639277846E+00   0.1518935886E+00   0.5418751909E-04  -0.2868381252E-04   0.1083750382E-03  -0.5736762504E-04   0.1095989236E+00  -0.1212960348E-01   0.4873368536E-01  -0.5421923759E-02
   0.1115017968E+00   0.1548342171E+00   0.3637092325E-04  -0.3801062364E-04   0.7274184650E-04  -0.7602124729E-04   0.1242782488E+00  -0.1481252671E-01   0.5473176640E-01   0.6278037498E-02
   0.1374058298E+00   0.1346640656E+00   0.4895094278E-04  -0.2660613300E-04   0.9790188557E-04  -0.5321226601E-04   0.1142716811E+00  -0.2107746069E-01   0.4659617828E-01  -0.6171080765E-02
   0.1806951186E+00   0.1056109091E+00   0.6772153228E-04  -0.1453795814E-04   0.1354430646E-03  -0.2907591627E-04   0.8665373189E-01  -0.1033395546E-01   0.3815912501E-01  -0.1757750597E-01
   0.1511551760E+00   0.9999300292E-01   0.6154266489E-04  -0.1453435853E-04   0.1230853298E-03  -0.2906871706E-04   0.8953103202E-01  -0.1750614602E-01   0.3601172275E-01  -0.1997790655E-01
   0.1382820878E+00   0.9235730950E-01   0.6033392239E-04  -0.1338063416E-04   0.1206678448E-03  -0.2676126833E-04   0.8759301932E-01  -0.2158263795E-01   0.3300453058E-01  -0.2342910546E-01
   0.1559568652E+00   0.9051035685E-01   0.6538173640E-04  -0.1187011818E-04   0.1307634728E-03  -0.2374023635E-04   0.8108023104E-01  -0.1659031595E-01   0.3224431265E-01  -0.2392356873E-01
   0.1274046593E+00   0.1185025112E+00   0.4942676046E-04  -0.2260293853E-04   0.9885352092E-04  -0.4520587705E-04   0.1115111952E+00  -0.2365179658E-01   0.4392882073E-01  -0.1214444009E-01
   0.1260755011E+00   0.1330539086E+00   0.4536236640E-04  -0.2774780059E-04   0.9072473280E-04  -0.5549560118E-04   0.1176554322E+00  -0.1858208240E-01   0.4953568417E-01  -0.6060741407E-02
   0.1145648915E+00   0.1296320499E+00   0.4225084005E-04  -0.2853268589E-04   0.8450168009E-04  -0.5706537179E-04   0.1201609538E+00  -0.2094633977E-01   0.4960631485E-01  -0.4243657256E-02
   0.2292011244E+00   0.1294344769E+00   0.7507247466E-04  -0.1873704469E-04   0.1501449493E-03  -0.3747408938E-04   0.9045005566E-01  -0.9417538142E-03   0.4475325584E-01  -0.1114139750E-01
   0.2013340160E+00   0.1331756902E+00   0.6784533249E-04  -0.2055227491E-04   0.1356906650E-03  -0.4110454981E-04   0.9567978525E-01  -0.6046413583E-02   0.4481578950E-01  -0.1127446104E-01
   0.1977255117E+00   0.1180586234E+00   0.6944189023E-04  -0.1694952240E-04   0.1388837805E-03  -0.3389904479E-04   0.9027312457E-01  -0.6572195986E-02   0.4184962728E-01  -0.1389907953E-01
   0.2151208557E+00   0.1311000322E+00   0.7153689963E-04  -0.1950960656E-04   0.1430737993E-03  -0.3901921313E-04   0.9264777471E-01  -0.3183969572E-02   0.4473100793E-01  -0.1160075002E-01
   0.1087048039E+00   0.1384161842E+00   0.3822364448E-04  -0.3280794030E-04   0.7644728896E-04  -0.6561588061E-04   0.1255768370E+00  -0.1767522843E-01   0.5394972527E-01   0.8838854763E-03
   0.1689162013E+00   0.1364232395E+00   0.5839942516E-04  -0.2355049669E-04   0.1167988503E-03  -0.4710099339E-04   0.1045890385E+00  -0.1296606918E-01   0.4581056843E-01  -0.1010656915E-01
   0.1864845572E+00   0.1395566159E+00   0.6282707787E-04  -0.2308202395E-04   0.1256541557E-03  -0.4616404790E-04   0.1008812741E+00  -0.9430116465E-02   0.4572466429E-01  -0.1020908271E-01
   0.1628324272E+00   0.1046599603E+00   0.6352974417E-04  -0.1507722212E-04   0.1270594883E-03  -0.3015444423E-04   0.9070047012E-01  -0.1516576818E-01   0.3776659562E-01  -0.1790689589E-01
   0.1845774294E+00   0.1214107663E+00   0.6554314795E-04  -0.1835290294E-04   0.1310862959E-03  -0.3670580588E-04   0.9414360694E-01  -0.9232350734E-02   0.4245477899E-01  -0.1395084150E-01
   0.1717303019E+00   0.1217558609E+00   0.6210029813E-04  -0.1915036966E-04   0.1242005963E-03  -0.3830073932E-04   0.9707530840E-01  -0.1295041735E-01   0.4206160428E-01  -0.1412194569E-01
   0.1157646925E+00   0.9809198809E-01   0.5180383543E-04  -0.1756157041E-04   0.1036076709E-03  -0.3512314081E-04   0.1006892185E+00  -0.2594608809E-01   0.3737081778E-01  -0.1997779022E-01
   0.1315827914E+00   0.1052616847E+00   0.5441247639E-04  -0.1774942547E-04   0.1088249528E-03  -0.3549885095E-04   0.1012596974E+00  -0.2256666738E-01   0.3934572807E-01  -0.1803157888E-01
   0.1720396543E+00   0.1102939059E+00   0.6458543516E-04  -0.1609702924E-04   0.1291708703E-03  -0.3219405848E-04   0.8967272300E-01  -0.1191355646E-01   0.3887880568E-01  -0.1714168319E-01
           1           2           3           4
           5           6           7           8
           9          10          11          12
          13          14          15          16
          17          18          19          20
          21          22          23          24
          25          26          27          28
          29          30          31          32
          33          34           4           3
           2           1          35          36
          37          38          39          40
          41          42          36          35
          43          41          44          45
          46           9          47          48
          41          35          39          44
          49          50          51          52
          52          51          53          54
          55          56          57          58
          56          59          60          57
          61          62          63          64
          65          66          67          68
          69          70          71          72
          73          74          25          28
          27          75          76          28
          77          78          24          23
          79          80          81          82
          83          84          85          86
          87          88          89          90
          90          89          62          91
          61          92          91          62
          92          61          59          93
          56          94          93          59
          95          55          54          53
          46          96          10           9
          97          98          99         100
          12         101          98          97
          97         100         102          47
         103         104          31          30
         105         103          30         106
          73         107         108         109
         110         111         112         113
          32          31         114         115
         116         117         118         119
         120         121         122         123
         121          83          86         122
          80         124         125          81
         126         127         128         129
         130         101          12          11
         131          43         101         130
          34         129         132           4
          42          41          43         131
          35           1          40          39
         101          43          45          98
         133         134         109         108
         135         136          13          16
         137         138          65          68
          94          56          55          95
          58         137          54          55
          49          52          68          67
         139         140         141         142
         140         139          82          81
          88          87         142         141
         143         144         145         146
         147          26          25         148
         149         150         128         151
           5           8         152         102
         132         129         128         150
         153         100          99         154
          48          47         102         152
          59          61          64          60
         106         155         113         118
          62          89         156          63
          88         157         156          89
         123         116         119         120
          66          65         134         133
         144         143          84          83
           9          12          97          47
         104         158         114          31
         159         160         127         126
         119         112         161         120
         117         105         106         118
         162         163         164         165
          83         121         166         144
         167         168         141         140
         167         143         146         168
           6         114         158           7
          38          37         169         170
          40         132         150          37
         160         159          20          19
          78         171         172          24
          18          17          21          24
         173         174          78          77
         132          40           1           4
          28          76         107          73
         175         176         177         178
         176         179          57          60
         137          68          52          54
          60          64         177         176
         163         162         155          29
          75          27         174         173
         180         174          27          26
          64          63         181         177
          98          45         182          99
         183         182          45          44
          38         183          44          39
          58          57         179         184
         185         181          63         156
         134         186         187         109
         188          74         187         189
         138         186         134          65
          88         141         168         157
         166         121         120         161
         190         191         166         161
         155         106          30          29
         192         193         194         195
         118         113         112         119
         125          84         143         167
         124          85          84         125
           6         196         115         114
         196           6           5         153
         197          32         115         198
         111         190         161         112
         199         148         188         135
         170         169         200         201
         202         164         163         197
         203         204         146         145
         205         206         201         200
         187          74          73         109
         176         175         207         179
         208         209          16          15
         210         186         138         184
         184         138         137          58
         179         207         210         184
         211         212         172         171
          78         174         180         171
         125         167         140          81
          37         150         149         169
         213         214         215         216
         217         182         183         201
         170         201         183          38
         218         219         206         205
         111         220         221         190
         157         168         146         204
         177         181         222         178
         222         181         185         223
         186         210         189         187
         224         191         190         221
         100         153           5         102
         185         156         157         204
         113         155         162         110
          26         147         193         180
          29          32         197         163
         225         226          19          18
         144         166         191         145
         212         192         227         228
         198         115         196         229
         206         154         217         201
         153         154         229         196
         172         225          18          24
         148          25          74         188
          14          13         175         178
         207         175          13         136
         189         136         135         188
         230         202         197         198
         210         207         136         189
         165         164         231         232
         169         149         233         200
         234         160          19         226
         217         154          99         182
         203         145         191         224
         151         235         233         149
         236         223         203         224
         185         204         203         223
         178         222         237          14
         110         162         165         238
         239         223         236         240
         238         220         111         110
         219         230         198         229
         241         242         232         243
         242          69         220         238
          72          71         240         236
         244         205         200         233
         215         231         164         202
         211         171         180         193
         228         225         172         212
         194         193         147         245
         245         147         148         199
         135          16         209         199
         209         208         246         247
         127         160         234         248
         193         192         212         211
         226         225         228         249
         151         128         127         248
         248         250         235         151
          72         221         220          69
          14         237         251          15
          70          69         252         253
         206         219         229         154
         238         165         232         242
          72         236         224         221
         216         215         202         230
         245         247         254         194
         255         256         257         258
         230         219         218         216
         214         259         231         215
         216         218         260         213
         261         255         258         214
         239         237         222         223
         194         254         262         195
         263         264         227         265
         250         266         267         268
         199         209         247         245
         240          71         269         251
         270         271         246         272
         260         244         273         213
         237         239         240         251
         218         205         244         260
          70         272         269          71
         232         231         259         243
         274         275         243         259
         257         256         263         276
         277         275         274         278
         234         226         249         279
         271         277         262         254
         271         254         247         246
         246         208         269         272
         244         233         235         273
         251         269         208          15
         275         270         253         252
         234         279         250         248
         279         249         264         280
         259         214         258         274
         262         281         276         195
         195         276         263         265
         257         276         281         278
         278         274         258         257
         266         280         256         255
         261         214         213         267
         267         266         255         261
         266         250         279         280
         228         227         264         249
         256         280         264         263
         265         227         192         195
         281         262         277         278
         235         250         268         273
         273         268         267         213
         277         271         270         275
         253         270         272          70
         252          69         242         241
         243         275         252         241
