 VARIABLES = X,Y,Z,DU1,DU2,DU3,U1,U2,U3,S11,S22,S33,S12,S13,S23
 ZONE, T="0.1000D-01" F=FEPOINT, I=   12 J=    2 ET=BRICK
   0.0000000000E+00   0.0000000000E+00   0.0000000000E+00   0.0000000000E+00   0.0000000000E+00   0.0000000000E+00   0.0000000000E+00   0.0000000000E+00   0.0000000000E+00   0.0000000000E+00   0.0000000000E+00   0.0000000000E+00   0.0000000000E+00   0.0000000000E+00   0.0000000000E+00
   0.1000000000E+01   0.0000000000E+00   0.0000000000E+00   0.0000000000E+00   0.0000000000E+00   0.0000000000E+00   0.0000000000E+00   0.0000000000E+00   0.0000000000E+00   0.7408226459E-01   0.3648827958E-01   0.3648827958E-01   0.0000000000E+00   0.2051786282E-18   0.0000000000E+00
   0.1000000000E+01   0.1000000000E+01   0.0000000000E+00   0.0000000000E+00   0.0000000000E+00   0.0000000000E+00   0.0000000000E+00   0.0000000000E+00   0.0000000000E+00   0.7408226459E-01   0.3648827957E-01   0.3648827957E-01   0.0000000000E+00   0.5497744944E-19   0.0000000000E+00
   0.0000000000E+00   0.1000000000E+01   0.0000000000E+00   0.0000000000E+00   0.0000000000E+00   0.0000000000E+00   0.0000000000E+00   0.0000000000E+00   0.0000000000E+00   0.0000000000E+00   0.0000000000E+00   0.0000000000E+00   0.0000000000E+00   0.0000000000E+00   0.0000000000E+00
   0.0000000000E+00   0.0000000000E+00   0.1000000000E+01   0.0000000000E+00   0.0000000000E+00   0.0000000000E+00   0.0000000000E+00   0.0000000000E+00   0.0000000000E+00   0.0000000000E+00   0.0000000000E+00   0.0000000000E+00   0.0000000000E+00   0.0000000000E+00   0.0000000000E+00
   0.1000000000E+01   0.0000000000E+00   0.1000000000E+01   0.0000000000E+00   0.0000000000E+00   0.0000000000E+00   0.0000000000E+00   0.0000000000E+00   0.0000000000E+00   0.7408226459E-01   0.3648827957E-01   0.3648827957E-01   0.0000000000E+00   0.2051786282E-18   0.0000000000E+00
   0.1000000000E+01   0.1000000000E+01   0.1000000000E+01   0.0000000000E+00   0.0000000000E+00   0.0000000000E+00   0.0000000000E+00   0.0000000000E+00   0.0000000000E+00   0.7408226459E-01   0.3648827957E-01   0.3648827957E-01   0.0000000000E+00   0.5497744944E-19   0.0000000000E+00
   0.0000000000E+00   0.1000000000E+01   0.1000000000E+01   0.0000000000E+00   0.0000000000E+00   0.0000000000E+00   0.0000000000E+00   0.0000000000E+00   0.0000000000E+00   0.0000000000E+00   0.0000000000E+00   0.0000000000E+00   0.0000000000E+00   0.0000000000E+00   0.0000000000E+00
   0.2000100000E+01   0.0000000000E+00   0.0000000000E+00   0.1000000000E-03   0.0000000000E+00   0.0000000000E+00   0.0000000000E+00   0.0000000000E+00   0.0000000000E+00   0.1481645292E+00   0.7297655915E-01   0.7297655915E-01   0.0000000000E+00   0.8453454132E-18   0.0000000000E+00
   0.2000100000E+01   0.1000000000E+01   0.0000000000E+00   0.1000000000E-03   0.0000000000E+00   0.0000000000E+00   0.0000000000E+00   0.0000000000E+00   0.0000000000E+00   0.1481645292E+00   0.7297655915E-01   0.7297655915E-01   0.0000000000E+00   0.2265096278E-18   0.0000000000E+00
   0.2000100000E+01   0.0000000000E+00   0.1000000000E+01   0.1000000000E-03   0.0000000000E+00   0.0000000000E+00   0.0000000000E+00   0.0000000000E+00   0.0000000000E+00   0.1481645292E+00   0.7297655915E-01   0.7297655915E-01   0.0000000000E+00   0.8453454132E-18   0.0000000000E+00
   0.2000100000E+01   0.1000000000E+01   0.1000000000E+01   0.1000000000E-03   0.0000000000E+00   0.0000000000E+00   0.0000000000E+00   0.0000000000E+00   0.0000000000E+00   0.1481645292E+00   0.7297655914E-01   0.7297655914E-01   0.0000000000E+00   0.2265096278E-18   0.0000000000E+00
     1     2     3     4     5     6     7     8
     2     9    10     3     6    11    12     7
 VARIABLES = X,Y,Z,DU1,DU2,DU3,U1,U2,U3,S11,S22,S33,S12,S13,S23
 ZONE, T="0.2000D-01" F=FEPOINT, I=   12 J=    2 ET=BRICK
   0.0000000000E+00   0.0000000000E+00   0.0000000000E+00   0.0000000000E+00   0.0000000000E+00   0.0000000000E+00   0.0000000000E+00   0.0000000000E+00   0.0000000000E+00   0.1957480086E-02   0.1210358679E-04  -0.2622443853E-03  -0.1371739860E-03   0.1371739786E-03  -0.3309703365E-19
   0.1000002222E+01   0.0000000000E+00   0.1094648387E-05   0.2222467938E-05   0.0000000000E+00   0.1094648387E-05   0.0000000000E+00   0.0000000000E+00   0.0000000000E+00   0.1457680190E+00   0.6975700507E-01   0.6893396117E-01  -0.1371739860E-03   0.1371739786E-03  -0.5114632001E-19
   0.1000002222E+01   0.9999989054E+00   0.1094648387E-05   0.2222467938E-05  -0.1094648387E-05   0.1094648387E-05   0.0000000000E+00   0.0000000000E+00   0.0000000000E+00   0.1457680190E+00   0.6975700506E-01   0.6893396116E-01  -0.2743479647E-03   0.1371739786E-03   0.5312649819E-14
   0.0000000000E+00   0.1000000000E+01   0.0000000000E+00   0.0000000000E+00   0.0000000000E+00   0.0000000000E+00   0.0000000000E+00   0.0000000000E+00   0.0000000000E+00   0.1957480086E-02   0.1210358680E-04  -0.2622443852E-03  -0.2743479647E-03   0.1371739786E-03   0.1770863035E-14
   0.0000000000E+00   0.0000000000E+00   0.1000000000E+01   0.0000000000E+00   0.0000000000E+00   0.0000000000E+00   0.0000000000E+00   0.0000000000E+00   0.0000000000E+00   0.1957480086E-02   0.1210358680E-04  -0.2622443853E-03  -0.1371739860E-03  -0.1371739786E-03   0.3541773107E-14
   0.1000002222E+01   0.0000000000E+00   0.9999989054E+00   0.2222467938E-05   0.0000000000E+00  -0.1094648387E-05   0.0000000000E+00   0.0000000000E+00   0.0000000000E+00   0.1457680190E+00   0.6975700506E-01   0.6893396116E-01  -0.1371739860E-03  -0.1371739786E-03   0.1062537119E-13
   0.1000002222E+01   0.9999989054E+00   0.9999989054E+00   0.2222467938E-05  -0.1094648387E-05  -0.1094648387E-05   0.0000000000E+00   0.0000000000E+00   0.0000000000E+00   0.1457680190E+00   0.6975700506E-01   0.6893396116E-01  -0.2743479647E-03  -0.1371739786E-03   0.1593805995E-13
   0.0000000000E+00   0.1000000000E+01   0.1000000000E+01   0.0000000000E+00   0.0000000000E+00   0.0000000000E+00   0.0000000000E+00   0.0000000000E+00   0.0000000000E+00   0.1957480086E-02   0.1210358681E-04  -0.2622443852E-03  -0.2743479647E-03  -0.1371739786E-03   0.5312669846E-14
   0.2000200000E+01   0.0000000000E+00   0.2189296775E-05   0.1000000000E-03   0.0000000000E+00   0.2189296775E-05   0.1000000000E-03   0.0000000000E+00   0.0000000000E+00   0.2895785579E+00   0.1395019065E+00   0.1381301667E+00  -0.1371739860E-03   0.1371739786E-03   0.4167522601E-19
   0.2000200000E+01   0.9999978107E+00   0.2189296774E-05   0.1000000000E-03  -0.2189296774E-05   0.2189296774E-05   0.1000000000E-03   0.0000000000E+00   0.0000000000E+00   0.2895785579E+00   0.1395019065E+00   0.1381301667E+00  -0.2743479646E-03   0.1371739786E-03   0.8854604333E-14
   0.2000200000E+01   0.0000000000E+00   0.9999978107E+00   0.1000000000E-03   0.0000000000E+00  -0.2189296774E-05   0.1000000000E-03   0.0000000000E+00   0.0000000000E+00   0.2895785579E+00   0.1395019065E+00   0.1381301667E+00  -0.1371739860E-03  -0.1371739786E-03   0.1770905241E-13
   0.2000200000E+01   0.9999978107E+00   0.9999978107E+00   0.1000000000E-03  -0.2189296774E-05  -0.2189296774E-05   0.1000000000E-03   0.0000000000E+00   0.0000000000E+00   0.2895785579E+00   0.1395019065E+00   0.1381301667E+00  -0.2743479646E-03  -0.1371739786E-03   0.2656361399E-13
     1     2     3     4     5     6     7     8
     2     9    10     3     6    11    12     7
 VARIABLES = X,Y,Z,DU1,DU2,DU3,U1,U2,U3,S11,S22,S33,S12,S13,S23
 ZONE, T="0.3000D-01" F=FEPOINT, I=   12 J=    2 ET=BRICK
   0.0000000000E+00   0.0000000000E+00   0.0000000000E+00   0.0000000000E+00   0.0000000000E+00   0.0000000000E+00   0.0000000000E+00   0.0000000000E+00   0.0000000000E+00   0.7113826183E-02   0.1035301831E-03  -0.8590133874E-03  -0.4882437345E-03   0.4876167889E-03  -0.6269193212E-06
   0.1000008008E+01   0.0000000000E+00   0.3892432814E-05   0.5785673411E-05   0.0000000000E+00   0.2797784426E-05   0.2222467938E-05   0.0000000000E+00   0.1094648387E-05   0.2137067290E+00   0.9797956780E-01   0.9507117802E-01  -0.4866966596E-03   0.4879302485E-03  -0.1567298346E-06
   0.1000008020E+01   0.9999960829E+00   0.3892432814E-05   0.5798019069E-05  -0.2822475743E-05   0.2797784426E-05   0.2222467938E-05  -0.1094648387E-05   0.1094648387E-05   0.2137066767E+00   0.9797951555E-01   0.9507128251E-01  -0.9764874427E-03   0.4880869783E-03  -0.1567298157E-06
   0.0000000000E+00   0.9999999914E+00  -0.3752112199E-08   0.0000000000E+00  -0.8593546544E-08  -0.3752112199E-08   0.0000000000E+00   0.0000000000E+00   0.0000000000E+00   0.7115679976E-02   0.1022898267E-03  -0.8596268244E-03  -0.9780345176E-03   0.4879302485E-03  -0.6269193149E-06
   0.0000000000E+00   0.0000000000E+00   0.1000000004E+01   0.0000000000E+00   0.0000000000E+00   0.3752112198E-08   0.0000000000E+00   0.0000000000E+00   0.0000000000E+00   0.7113826183E-02   0.1035301831E-03  -0.8590133874E-03  -0.4882437345E-03  -0.4885571679E-03  -0.3134596566E-06
   0.1000008008E+01   0.0000000000E+00   0.9999961076E+00   0.5785673411E-05   0.0000000000E+00  -0.2797784426E-05   0.2222467938E-05   0.0000000000E+00  -0.1094648387E-05   0.2137067290E+00   0.9797956780E-01   0.9507117802E-01  -0.4866966596E-03  -0.4884004381E-03  -0.7836488184E-07
   0.1000008020E+01   0.9999960829E+00   0.9999961076E+00   0.5798019069E-05  -0.2822475743E-05  -0.2797784426E-05   0.2222467938E-05  -0.1094648387E-05  -0.1094648387E-05   0.2137066767E+00   0.9797951555E-01   0.9507128250E-01  -0.9764874426E-03  -0.4883220731E-03  -0.7836486293E-07
   0.0000000000E+00   0.9999999914E+00   0.1000000004E+01   0.0000000000E+00  -0.8593546544E-08   0.3752112198E-08   0.0000000000E+00   0.0000000000E+00   0.0000000000E+00   0.7115679976E-02   0.1022898267E-03  -0.8596268244E-03  -0.9780345176E-03  -0.4884004380E-03  -0.3134596503E-06
   0.2000300000E+01   0.0000000000E+00   0.7788617740E-05   0.1000000000E-03   0.0000000000E+00   0.5599320965E-05   0.2000000000E-03   0.0000000000E+00   0.2189296775E-05   0.4202998407E+00   0.1958558144E+00   0.1910009515E+00  -0.4882437345E-03   0.4882437082E-03  -0.1233047934E-15
   0.2000300000E+01   0.9999921743E+00   0.7788617739E-05   0.1000000000E-03  -0.5636357940E-05   0.5599320965E-05   0.2000000000E-03  -0.2189296774E-05   0.2189296774E-05   0.4202977779E+00   0.1958568458E+00   0.1910019829E+00  -0.9780345176E-03   0.4882437082E-03   0.3138959235E-13
   0.2000300000E+01   0.0000000000E+00   0.9999922114E+00   0.1000000000E-03   0.0000000000E+00  -0.5599320965E-05   0.2000000000E-03   0.0000000000E+00  -0.2189296774E-05   0.4202998407E+00   0.1958558144E+00   0.1910009515E+00  -0.4882437345E-03  -0.4882437082E-03   0.6262986804E-13
   0.2000300000E+01   0.9999921743E+00   0.9999922114E+00   0.1000000000E-03  -0.5636357940E-05  -0.5599320965E-05   0.2000000000E-03  -0.2189296774E-05  -0.2189296774E-05   0.4202977779E+00   0.1958568458E+00   0.1910019829E+00  -0.9780345175E-03  -0.4882437082E-03   0.9414275449E-13
     1     2     3     4     5     6     7     8
     2     9    10     3     6    11    12     7
 VARIABLES = X,Y,Z,DU1,DU2,DU3,U1,U2,U3,S11,S22,S33,S12,S13,S23
 ZONE, T="0.4000D-01" F=FEPOINT, I=   12 J=    2 ET=BRICK
   0.0000000000E+00   0.0000000000E+00   0.0000000000E+00   0.0000000000E+00   0.0000000000E+00   0.0000000000E+00   0.0000000000E+00   0.0000000000E+00   0.0000000000E+00   0.1662413775E-01   0.4085366428E-03  -0.1743046142E-02  -0.1111562876E-02   0.1108679169E-02  -0.2898088926E-05
   0.1000018520E+01   0.0000000000E+00   0.8853017671E-05   0.1051217156E-04   0.0000000000E+00   0.4960584857E-05   0.8008141349E-05   0.0000000000E+00   0.3892432814E-05   0.2768518330E+00   0.1197229467E+00   0.1131616375E+00  -0.1103491480E-02   0.1110129409E-02  -0.7222720609E-06
   0.1000018585E+01   0.9999910186E+00   0.8853025507E-05   0.1056424152E-04  -0.5064295469E-05   0.4960592694E-05   0.8020487007E-05  -0.3917124131E-05   0.3892432814E-05   0.2768515917E+00   0.1197227054E+00   0.1131621201E+00  -0.2223126575E-02   0.1110854806E-02  -0.7210935980E-06
   0.0000000000E+00   0.9999999533E+00  -0.1738561003E-07   0.0000000000E+00  -0.3814826627E-07  -0.1363349783E-07   0.0000000000E+00  -0.8593546544E-08  -0.3752112199E-08   0.1663392982E-01   0.4021850357E-03  -0.1746486602E-02  -0.2231197529E-02   0.1110130177E-02  -0.2895437467E-05
   0.0000000000E+00   0.0000000000E+00   0.1000000017E+01   0.0000000000E+00   0.0000000000E+00   0.1360569093E-07   0.0000000000E+00   0.0000000000E+00   0.3752112198E-08   0.1662413795E-01   0.4085391961E-03  -0.1743048891E-02  -0.1111564054E-02  -0.1113024782E-02  -0.1442515649E-05
   0.1000018520E+01   0.0000000000E+00   0.9999911470E+00   0.1051218567E-04   0.0000000000E+00  -0.4960577804E-05   0.8008141348E-05   0.0000000000E+00  -0.3892432814E-05   0.2768518322E+00   0.1197229483E+00   0.1131616367E+00  -0.1103492659E-02  -0.1112299564E-02  -0.3603012413E-06
   0.1000018585E+01   0.9999910186E+00   0.9999911470E+00   0.1056424857E-04  -0.5064288416E-05  -0.4960578588E-05   0.8020487006E-05  -0.3917124130E-05  -0.3892432813E-05   0.2768515909E+00   0.1197227070E+00   0.1131621193E+00  -0.2223128343E-02  -0.1111939442E-02  -0.3591227785E-06
   0.0000000000E+00   0.9999999533E+00   0.1000000017E+01   0.0000000000E+00  -0.3812005490E-07   0.1364760351E-07   0.0000000000E+00  -0.8593546544E-08   0.3752112198E-08   0.1663392962E-01   0.4021877854E-03  -0.1746489155E-02  -0.2231199591E-02  -0.1112302100E-02  -0.1439864190E-05
   0.2000400000E+01   0.0000000000E+00   0.1772339001E-04   0.1000000000E-03   0.0000000000E+00   0.9934772271E-05   0.3000000000E-03   0.0000000000E+00   0.7788617740E-05   0.5370804955E+00   0.2390383223E+00   0.2280643883E+00  -0.1111563760E-02   0.1111576702E-02   0.3501468578E-08
   0.2000400000E+01   0.9999820839E+00   0.1772342095E-04   0.1000000000E-03  -0.1009045443E-04   0.9934803212E-05   0.3000000000E-03  -0.7825654715E-05   0.7788617739E-05   0.5370697367E+00   0.2390437072E+00   0.2280697621E+00  -0.2231199296E-02   0.1111577078E-02   0.3796145273E-08
   0.2000400000E+01   0.0000000000E+00   0.9999822766E+00   0.1000000000E-03   0.0000000000E+00  -0.9934772271E-05   0.3000000000E-03   0.0000000000E+00  -0.7788617739E-05   0.5370804933E+00   0.2390383237E+00   0.2280643891E+00  -0.1111564349E-02  -0.1111577292E-02  -0.2028302931E-08
   0.2000400000E+01   0.9999820839E+00   0.9999822766E+00   0.1000000000E-03  -0.1009045443E-04  -0.9934803212E-05   0.3000000000E-03  -0.7825654714E-05  -0.7788617739E-05   0.5370697350E+00   0.2390437084E+00   0.2280697627E+00  -0.2231200180E-02  -0.1111579141E-02  -0.1733626236E-08
     1     2     3     4     5     6     7     8
     2     9    10     3     6    11    12     7
 VARIABLES = X,Y,Z,DU1,DU2,DU3,U1,U2,U3,S11,S22,S33,S12,S13,S23
 ZONE, T="0.5000D-01" F=FEPOINT, I=   12 J=    2 ET=BRICK
   0.0000000000E+00   0.0000000000E+00   0.0000000000E+00   0.0000000000E+00   0.0000000000E+00   0.0000000000E+00   0.0000000000E+00   0.0000000000E+00   0.0000000000E+00   0.3152668557E-01   0.1132714872E-02  -0.2734066371E-02  -0.2043004904E-02   0.2035409824E-02  -0.7694042213E-05
   0.1000034702E+01   0.0000000000E+00   0.1625776011E-04   0.1618193973E-04   0.0000000000E+00   0.7404742435E-05   0.1852031291E-04   0.0000000000E+00   0.8853017671E-05   0.3345221201E+00   0.1340276746E+00   0.1221006029E+00  -0.2017774524E-02   0.2039263539E-02  -0.1909042825E-05
   0.1000034904E+01   0.9999833424E+00   0.1625780919E-04   0.1631889943E-04  -0.7676199889E-05   0.7404783680E-05   0.1858472852E-04  -0.8981419600E-05   0.8853025507E-05   0.3345214803E+00   0.1340270348E+00   0.1221018825E+00  -0.4086015243E-02   0.2041192922E-02  -0.1901662002E-05
   0.0000000000E+00   0.9999998469E+00  -0.4631222177E-07   0.0000000000E+00  -0.1063825575E-06  -0.2892661174E-07   0.0000000000E+00  -0.4674181281E-07  -0.1738561003E-07   0.3155773626E-01   0.1113299267E-02  -0.2745701466E-02  -0.4111242851E-02   0.2039269143E-02  -0.7677417453E-05
   0.0000000000E+00   0.0000000000E+00   0.1000000046E+01   0.0000000000E+00   0.0000000000E+00   0.2876173177E-07   0.0000000000E+00   0.0000000000E+00   0.1735780312E-07   0.3152668681E-01   0.1132730874E-02  -0.2734083619E-02  -0.2043012298E-02  -0.2046938965E-02  -0.3803786797E-05
   0.1000034702E+01   0.0000000000E+00   0.9999837423E+00   0.1618201416E-04   0.0000000000E+00  -0.7404704999E-05   0.1852032701E-04   0.0000000000E+00  -0.8853010618E-05   0.3345221152E+00   0.1340276845E+00   0.1221005979E+00  -0.2017781915E-02  -0.2045011488E-02  -0.9493170328E-06
   0.1000034904E+01   0.9999833424E+00   0.9999837423E+00   0.1631893668E-04  -0.7676162810E-05  -0.7404709286E-05   0.1858473558E-04  -0.8981412547E-05  -0.8853011401E-05   0.3345214754E+00   0.1340270446E+00   0.1221018776E+00  -0.4086026331E-02  -0.2044064114E-02  -0.9419362096E-06
   0.0000000000E+00   0.9999998471E+00   0.1000000046E+01   0.0000000000E+00  -0.1062338367E-06   0.2900103178E-07   0.0000000000E+00  -0.4671360144E-07   0.1739971571E-07   0.3155773505E-01   0.1113316500E-02  -0.2745717482E-02  -0.4111255792E-02  -0.2045028166E-02  -0.3787162037E-05
   0.2000500000E+01   0.0000000000E+00   0.3256161965E-04   0.1000000000E-03   0.0000000000E+00   0.1483822964E-04   0.4000000000E-03   0.0000000000E+00   0.1772339001E-04   0.6375201267E+00   0.2669251953E+00   0.2469301392E+00  -0.2043010449E-02   0.2043098761E-02   0.2347916774E-07
   0.2000500000E+01   0.9999668378E+00   0.3256183221E-04   0.1000000000E-03  -0.1524607925E-04   0.1483841125E-04   0.4000000000E-03  -0.1791610914E-04   0.1772342095E-04   0.6374865077E+00   0.2669420426E+00   0.2469469109E+00  -0.4111253941E-02   0.2043101902E-02   0.2531694828E-07
   0.2000500000E+01   0.0000000000E+00   0.9999674384E+00   0.1000000000E-03   0.0000000000E+00  -0.1483822961E-04   0.4000000000E-03   0.0000000000E+00  -0.1772339001E-04   0.6375201132E+00   0.2669252039E+00   0.2469301441E+00  -0.2043014142E-02  -0.2043102504E-02  -0.1430174383E-07
   0.2000500000E+01   0.9999668378E+00   0.9999674382E+00   0.1000000000E-03  -0.1524607932E-04  -0.1483841128E-04   0.4000000000E-03  -0.1791610914E-04  -0.1772342095E-04   0.6374864966E+00   0.2669420500E+00   0.2469469146E+00  -0.4111259480E-02  -0.2043114861E-02  -0.1246396329E-07
     1     2     3     4     5     6     7     8
     2     9    10     3     6    11    12     7
 VARIABLES = X,Y,Z,DU1,DU2,DU3,U1,U2,U3,S11,S22,S33,S12,S13,S23
 ZONE, T="0.6000D-01" F=FEPOINT, I=   12 J=    2 ET=BRICK
   0.0000000000E+00   0.0000000000E+00   0.0000000000E+00   0.0000000000E+00   0.0000000000E+00   0.0000000000E+00   0.0000000000E+00   0.0000000000E+00   0.0000000000E+00   0.5271213362E-01   0.2545759425E-02  -0.3522423110E-02  -0.3293274816E-02   0.3278814148E-02  -0.1485232778E-04
   0.1000057246E+01   0.0000000000E+00   0.2619395509E-04   0.2254417549E-04   0.0000000000E+00   0.9936194979E-05   0.3470225264E-04   0.0000000000E+00   0.1625776011E-04   0.3864357912E+00   0.1404527657E+00   0.1214751044E+00  -0.3232220429E-02   0.3286260049E-02  -0.3660184237E-05
   0.1000057734E+01   0.9999728426E+00   0.2619412827E-04   0.2283014453E-04  -0.1049982968E-04   0.9936319084E-05   0.3490362795E-04  -0.1665761949E-04   0.1625780919E-04   0.3864345589E+00   0.1404515334E+00   0.1214775688E+00  -0.6586569062E-02   0.3289995766E-02  -0.3634139982E-05
   0.0000000000E+00   0.9999996100E+00  -0.8986675705E-07   0.0000000000E+00  -0.2368566255E-06  -0.4355453529E-07   0.0000000000E+00  -0.1531243703E-06  -0.4631222177E-07   0.5278849239E-01   0.2499989815E-02  -0.3553012272E-02  -0.6647613646E-02   0.3286283694E-02  -0.1479358567E-04
   0.0000000000E+00   0.0000000000E+00   0.1000000089E+01   0.0000000000E+00   0.0000000000E+00   0.4297626433E-07   0.0000000000E+00   0.0000000000E+00   0.4611953489E-07   0.5271213808E-01   0.2545815935E-02  -0.3522484084E-02  -0.3293300968E-02  -0.3301038820E-02  -0.7262103933E-05
   0.1000057247E+01   0.0000000000E+00   0.9999738062E+00   0.2254440015E-04   0.0000000000E+00  -0.9936081103E-05   0.3470234117E-04   0.0000000000E+00  -0.1625771562E-04   0.3864357738E+00   0.1404528004E+00   0.1214750870E+00  -0.3232246554E-02  -0.3297313667E-02  -0.1811832150E-05
   0.1000057734E+01   0.9999728427E+00   0.9999738062E+00   0.2283025716E-04  -0.1049971827E-04  -0.9936094633E-05   0.3490367226E-04  -0.1665757536E-04  -0.1625772069E-04   0.3864345415E+00   0.1404515682E+00   0.1214775515E+00  -0.6586608259E-02  -0.3295512694E-02  -0.1785787894E-05
   0.0000000000E+00   0.9999996106E+00   0.1000000090E+01   0.0000000000E+00  -0.2364081862E-06   0.4377917067E-07   0.0000000000E+00  -0.1529474382E-06   0.4640074749E-07   0.5278848815E-01   0.2500050676E-02  -0.3553068896E-02  -0.6647659422E-02  -0.3297376403E-02  -0.7203361827E-05
   0.2000600000E+01   0.0000000000E+00   0.5247693302E-04   0.1000000000E-03   0.0000000000E+00   0.1991531337E-04   0.5000000000E-03   0.0000000000E+00   0.3256161965E-04   0.7201644227E+00   0.2783647068E+00   0.2464627229E+00  -0.3293294423E-02   0.3293640512E-02   0.9045980397E-07
   0.2000600000E+01   0.9999460748E+00   0.5247777513E-04   0.1000000000E-03  -0.2076299000E-04   0.1991594293E-04   0.5000000000E-03  -0.3316218839E-04   0.3256183221E-04   0.7200831030E+00   0.2784055154E+00   0.2465032340E+00  -0.6647652860E-02   0.3293655452E-02   0.9691148079E-07
   0.2000600000E+01   0.0000000000E+00   0.9999475231E+00   0.1000000000E-03   0.0000000000E+00  -0.1991531319E-04   0.5000000000E-03   0.0000000000E+00  -0.3256161962E-04   0.7201643748E+00   0.2783647372E+00   0.2464627404E+00  -0.3293307469E-02  -0.3293653953E-02  -0.5828942059E-07
   0.2000600000E+01   0.9999460748E+00   0.9999475222E+00   0.1000000000E-03  -0.2076299048E-04  -0.1991594311E-04   0.5000000000E-03  -0.3316218846E-04  -0.3256183223E-04   0.7200830637E+00   0.2784055415E+00   0.2465032472E+00  -0.6647672426E-02  -0.3293701371E-02  -0.5183774375E-07
     1     2     3     4     5     6     7     8
     2     9    10     3     6    11    12     7
 VARIABLES = X,Y,Z,DU1,DU2,DU3,U1,U2,U3,S11,S22,S33,S12,S13,S23
 ZONE, T="0.7000D-01" F=FEPOINT, I=   12 J=    2 ET=BRICK
   0.0000000000E+00   0.0000000000E+00   0.0000000000E+00   0.0000000000E+00   0.0000000000E+00   0.0000000000E+00   0.0000000000E+00   0.0000000000E+00   0.0000000000E+00   0.8089358644E-01   0.4962987852E-02  -0.3689737645E-02  -0.4846771348E-02   0.4825999520E-02  -0.2193883962E-04
   0.1000086577E+01   0.0000000000E+00   0.3855349052E-04   0.2933022183E-04   0.0000000000E+00   0.1235953543E-04   0.5724642814E-04   0.0000000000E+00   0.2619395509E-04   0.4327157768E+00   0.1390837679E+00   0.1115718994E+00  -0.4720892516E-02   0.4837005427E-02  -0.5341399802E-05
   0.1000087581E+01   0.9999594694E+00   0.3855393713E-04   0.2984772741E-04  -0.1337318823E-04   0.1235980886E-04   0.5773377248E-04  -0.2715744917E-04   0.2619412827E-04   0.4327139652E+00   0.1390819562E+00   0.1115755226E+00  -0.9693593132E-02   0.4842555623E-02  -0.5274234631E-05
   0.0000000000E+00   0.9999991509E+00  -0.1339914084E-06   0.0000000000E+00  -0.4591116085E-06  -0.4412465139E-07   0.0000000000E+00  -0.3899809959E-06  -0.8986675705E-07   0.8105383518E-01   0.4871428229E-02  -0.3758426762E-02  -0.9819446616E-02   0.4837080770E-02  -0.2178709269E-04
   0.0000000000E+00   0.0000000000E+00   0.1000000132E+01   0.0000000000E+00   0.0000000000E+00   0.4256876466E-07   0.0000000000E+00   0.0000000000E+00   0.8909579922E-07   0.8089359818E-01   0.4963133730E-02  -0.3689895260E-02  -0.4846838984E-02  -0.4858725435E-02  -0.1050358690E-04
   0.1000086577E+01   0.0000000000E+00   0.9999614469E+00   0.2933071889E-04   0.0000000000E+00  -0.1235928089E-04   0.5724674131E-04   0.0000000000E+00  -0.2619379672E-04   0.4327157320E+00   0.1390838574E+00   0.1115718546E+00  -0.4720960036E-02  -0.4853216746E-02  -0.2623949823E-05
   0.1000087582E+01   0.9999594698E+00   0.9999614469E+00   0.2984797713E-04  -0.1337294325E-04  -0.1235931257E-04   0.5773392942E-04  -0.2715729363E-04  -0.2619381532E-04   0.4327139204E+00   0.1390820458E+00   0.1115754779E+00  -0.9693694456E-02  -0.4850635592E-02  -0.2556784652E-05
   0.0000000000E+00   0.9999991525E+00   0.1000000135E+01   0.0000000000E+00  -0.4581208335E-06   0.4462166616E-07   0.0000000000E+00  -0.3893556244E-06   0.9017991816E-07   0.8105382444E-01   0.4871585346E-02  -0.3758573138E-02  -0.9819565029E-02  -0.4853392944E-02  -0.1035183997E-04
   0.2000700000E+01   0.0000000000E+00   0.7723845082E-04   0.1000000000E-03   0.0000000000E+00   0.2476151780E-04   0.6000000000E-03   0.0000000000E+00   0.5247693302E-04   0.7845453306E+00   0.2732118099E+00   0.2268189110E+00  -0.4846822046E-02   0.4847841983E-02   0.2615942244E-06
   0.2000700000E+01   0.9999197871E+00   0.7724096458E-04   0.1000000000E-03  -0.2628767928E-04   0.2476318945E-04   0.6000000000E-03  -0.5392517839E-04   0.5247777513E-04   0.7843777523E+00   0.2732960400E+00   0.2269022592E+00  -0.9819548011E-02   0.4847894840E-02   0.2781248737E-06
   0.2000700000E+01   0.0000000000E+00   0.9999227616E+00   0.1000000000E-03   0.0000000000E+00  -0.2476151709E-04   0.6000000000E-03   0.0000000000E+00  -0.5247693281E-04   0.7845452066E+00   0.2732118884E+00   0.2268189564E+00  -0.4846855734E-02  -0.4847877408E-02  -0.1793235727E-06
   0.2000700000E+01   0.9999197871E+00   0.9999227590E+00   0.1000000000E-03  -0.2628768113E-04  -0.2476319014E-04   0.6000000000E-03  -0.5392517893E-04  -0.5247777534E-04   0.7843776508E+00   0.2732961072E+00   0.2269022934E+00  -0.9819598529E-02  -0.4848013875E-02  -0.1627929234E-06
     1     2     3     4     5     6     7     8
     2     9    10     3     6    11    12     7
 VARIABLES = X,Y,Z,DU1,DU2,DU3,U1,U2,U3,S11,S22,S33,S12,S13,S23
 ZONE, T="0.8000D-01" F=FEPOINT, I=   12 J=    2 ET=BRICK
   0.0000000000E+00   0.0000000000E+00   0.0000000000E+00   0.0000000000E+00   0.0000000000E+00   0.0000000000E+00   0.0000000000E+00   0.0000000000E+00   0.0000000000E+00   0.1165789123E+00   0.8717053400E-02  -0.2744836064E-02  -0.6662038663E-02   0.6642133967E-02  -0.2280648796E-04
   0.1000122844E+01   0.0000000000E+00   0.5304556205E-04   0.3626692249E-04   0.0000000000E+00   0.1449207153E-04   0.8657664997E-04   0.0000000000E+00   0.3855349052E-04   0.4738669139E+00   0.1305046980E+00   0.9333625325E-01  -0.6429977614E-02   0.6653567115E-02  -0.5384088107E-05
   0.1000124696E+01   0.9999433281E+00   0.5304648352E-04   0.3711461678E-04  -0.1614124429E-04   0.1449254638E-04   0.8758149989E-04  -0.4053063740E-04   0.3855393713E-04   0.4738650554E+00   0.1305028396E+00   0.9333997002E-01  -0.1332418193E-01   0.6659426297E-02  -0.5245503972E-05
   0.0000000000E+00   0.9999983426E+00  -0.1425825206E-06   0.0000000000E+00  -0.8082952230E-06  -0.8591112158E-08   0.0000000000E+00  -0.8490926044E-06  -0.1339914084E-06   0.1168800642E+00   0.8553978244E-02  -0.2882912816E-02  -0.1355619050E-01   0.6653767831E-02  -0.2249268314E-04
   0.0000000000E+00   0.0000000000E+00   0.1000000137E+01   0.0000000000E+00   0.0000000000E+00   0.5047949885E-08   0.0000000000E+00   0.0000000000E+00   0.1316645639E-06   0.1165789371E+00   0.8717354791E-02  -0.2745162282E-02  -0.6662178744E-02  -0.6675830476E-02  -0.1030728604E-04
   0.1000122845E+01   0.0000000000E+00   0.9999469553E+00   0.3626779108E-04   0.0000000000E+00  -0.1449162017E-04   0.8657746021E-04   0.0000000000E+00  -0.3855307761E-04   0.4738668214E+00   0.1305048828E+00   0.9333616086E-01  -0.6430117327E-02  -0.6670101911E-02  -0.2596510182E-05
   0.1000124697E+01   0.9999433289E+00   0.9999469552E+00   0.3711505445E-04  -0.1614082003E-04  -0.1449167994E-04   0.8758190655E-04  -0.4053023687E-04  -0.3855312789E-04   0.4738649630E+00   0.1305030244E+00   0.9333987763E-01  -0.1332439164E-01  -0.6667640120E-02  -0.2457926047E-05
   0.0000000000E+00   0.9999983460E+00   0.1000000144E+01   0.0000000000E+00  -0.8065675225E-06   0.9459624912E-08   0.0000000000E+00  -0.8474764579E-06   0.1348015843E-06   0.1168800426E+00   0.8554302873E-02  -0.2883215795E-02  -0.1355643580E-01  -0.6670510844E-02  -0.9993481227E-05
   0.2000800000E+01   0.0000000000E+00   0.1062274165E-03   0.1000000000E-03   0.0000000000E+00   0.2898896569E-04   0.7000000000E-03   0.0000000000E+00   0.7723845082E-04   0.8311625915E+00   0.2522998088E+00   0.1894022003E+00  -0.6662143630E-02   0.6664649217E-02   0.6291171054E-06
   0.2000800000E+01   0.9998883122E+00   0.1062336816E-03   0.1000000000E-03  -0.3147491774E-04   0.2899271699E-04   0.7000000000E-03  -0.8021285767E-04   0.7724096458E-04   0.8308538336E+00   0.2524552781E+00   0.1895554889E+00  -0.1355640043E-01   0.6664803433E-02   0.6629336667E-06
   0.2000800000E+01   0.0000000000E+00   0.9998937726E+00   0.1000000000E-03   0.0000000000E+00  -0.2898896369E-04   0.7000000000E-03   0.0000000000E+00  -0.7723844990E-04   0.8311623349E+00   0.2522999709E+00   0.1894022948E+00  -0.6662213258E-02  -0.6664724391E-02  -0.4612458049E-06
   0.2000800000E+01   0.9998883122E+00   0.9998937663E+00   0.1000000000E-03  -0.3147492296E-04  -0.2899271893E-04   0.7000000000E-03  -0.8021286006E-04  -0.7724096548E-04   0.8308536235E+00   0.2524554169E+00   0.1895555601E+00  -0.1355650483E-01  -0.6665050724E-02  -0.4274292436E-06
     1     2     3     4     5     6     7     8
     2     9    10     3     6    11    12     7
 VARIABLES = X,Y,Z,DU1,DU2,DU3,U1,U2,U3,S11,S22,S33,S12,S13,S23
 ZONE, T="0.9000D-01" F=FEPOINT, I=   12 J=    2 ET=BRICK
   0.0000000000E+00   0.0000000000E+00   0.0000000000E+00   0.0000000000E+00   0.0000000000E+00   0.0000000000E+00   0.0000000000E+00   0.0000000000E+00   0.0000000000E+00   0.1600470793E+00   0.1412231324E-01  -0.1718017087E-03  -0.8673758318E-02   0.8674011677E-02  -0.6094730858E-05
   0.1000165933E+01   0.0000000000E+00   0.6922212317E-04   0.4308970970E-04   0.0000000000E+00   0.1617656112E-04   0.1228435725E-03   0.0000000000E+00   0.5304556205E-04   0.5107274961E+00   0.1157370732E+00   0.6828597007E-01  -0.8280264782E-02   0.8676980108E-02  -0.9207532028E-06
   0.1000169075E+01   0.9999246625E+00   0.6922369044E-04   0.4437843449E-04  -0.1866560777E-04   0.1617720692E-04   0.1246961167E-03  -0.5667188169E-04   0.5304648352E-04   0.5107270824E+00   0.1157366594E+00   0.6828679755E-01  -0.1734769559E-01   0.8678836085E-02  -0.6850243115E-06
   0.0000000000E+00   0.9999970185E+00  -0.4837570642E-07   0.0000000000E+00  -0.1324154282E-05   0.9420681419E-07   0.0000000000E+00  -0.1657387827E-05  -0.1425825206E-06   0.1605683252E+00   0.1385639266E-01  -0.4271270435E-03  -0.1774109941E-01   0.8677451016E-02  -0.5559246916E-05
   0.0000000000E+00   0.0000000000E+00   0.1000000035E+01   0.0000000000E+00   0.0000000000E+00  -0.1013859243E-06   0.0000000000E+00   0.0000000000E+00   0.1367125138E-06   0.1600471230E+00   0.1412282687E-01  -0.1723590522E-03  -0.8673997876E-02  -0.8681889375E-02  -0.7971083966E-06
   0.1000165936E+01   0.0000000000E+00   0.9999307794E+00   0.4309090369E-04   0.0000000000E+00  -0.1617592517E-04   0.1228452513E-03   0.0000000000E+00  -0.5304469777E-04   0.5107273390E+00   0.1157373875E+00   0.6828581291E-01  -0.8280503395E-02  -0.8680384376E-02  -0.3001421698E-06
   0.1000169076E+01   0.9999246639E+00   0.9999307792E+00   0.4437903922E-04  -0.1866503359E-04  -0.1617601774E-04   0.1246969610E-03  -0.5667105690E-04  -0.5304480783E-04   0.5107269252E+00   0.1157369737E+00   0.6828664039E-01  -0.1734805387E-01  -0.8680445703E-02  -0.6441327855E-07
   0.0000000000E+00   0.9999970242E+00   0.1000000051E+01   0.0000000000E+00  -0.1321787875E-05  -0.9301283606E-07   0.0000000000E+00  -0.1654043980E-05   0.1442612092E-06   0.1605682896E+00   0.1385694593E-01  -0.4276447388E-03  -0.1774151906E-01  -0.8681209743E-02  -0.2616244549E-06
   0.2000900000E+01   0.0000000000E+00   0.1384788137E-03   0.1000000000E-03   0.0000000000E+00   0.3225139720E-04   0.8000000000E-03   0.0000000000E+00   0.1062274165E-03   0.8614099838E+00   0.2173535451E+00   0.1367399590E+00  -0.8673937741E-02   0.8679347477E-02   0.1326282314E-05
   0.2000900000E+01   0.9998523042E+00   0.1384925579E-03   0.1000000000E-03  -0.3600805749E-04   0.3225887636E-04   0.8000000000E-03  -0.1116877754E-03   0.1062336816E-03   0.8608867872E+00   0.2176175150E+00   0.1369991857E+00  -0.1774145826E-01   0.8679739036E-02   0.1383093012E-05
   0.2000900000E+01   0.0000000000E+00   0.9998615212E+00   0.1000000000E-03   0.0000000000E+00  -0.3225139265E-04   0.8000000000E-03   0.0000000000E+00  -0.1062274136E-03   0.8614095452E+00   0.2173538212E+00   0.1367401214E+00  -0.8674056463E-02  -0.8679480440E-02  -0.1045313917E-05
   0.2000900000E+01   0.9998523041E+00   0.9998615074E+00   0.1000000000E-03  -0.3600806934E-04  -0.3225888067E-04   0.8000000000E-03  -0.1116877830E-03  -0.1062336844E-03   0.8608864279E+00   0.2176177514E+00   0.1369993085E+00  -0.1774163623E-01  -0.8680163782E-02  -0.9885032179E-06
     1     2     3     4     5     6     7     8
     2     9    10     3     6    11    12     7
 VARIABLES = X,Y,Z,DU1,DU2,DU3,U1,U2,U3,S11,S22,S33,S12,S13,S23
 ZONE, T="0.1000D+00" F=FEPOINT, I=   12 J=    2 ET=BRICK
   0.0000000000E+00   0.0000000000E+00   0.0000000000E+00   0.0000000000E+00   0.0000000000E+00   0.0000000000E+00   0.0000000000E+00   0.0000000000E+00   0.0000000000E+00   0.2113303851E+00   0.2143511980E-01   0.4514180387E-02  -0.1079614916E-01   0.1085490465E-01   0.4614701231E-04
   0.1000215488E+01   0.0000000000E+00   0.8651389549E-04   0.4955476283E-04   0.0000000000E+00   0.1729177232E-04   0.1659332822E-03   0.0000000000E+00   0.6922212317E-04   0.5443994004E+00   0.9615140326E-01   0.3838804944E-01  -0.1017121143E-01   0.1083136587E-01   0.1253911902E-04
   0.1000220477E+01   0.9999038299E+00   0.8651604978E-04   0.5140214522E-04  -0.2083265313E-04   0.1729235934E-04   0.1690745512E-03  -0.7533748947E-04   0.6922369044E-04   0.5444034368E+00   0.9615543964E-01   0.3837997666E-01  -0.2159254645E-01   0.1082046289E-01   0.1286319017E-04
   0.0000000000E+00   0.9999949691E+00   0.2555772526E-06   0.0000000000E+00  -0.2049332491E-05   0.3039529590E-06   0.0000000000E+00  -0.2981542109E-05  -0.4837570642E-07   0.2121764129E+00   0.2103102344E-01   0.4072248926E-02  -0.2221735983E-01   0.1083236929E-01   0.4688716879E-04
   0.0000000000E+00   0.0000000000E+00   0.9999997180E+00   0.0000000000E+00   0.0000000000E+00  -0.3172826279E-06   0.0000000000E+00   0.0000000000E+00   0.3532658945E-07   0.2113304486E+00   0.2143582816E-01   0.4513408434E-02  -0.1079648150E-01  -0.1078287096E-01   0.2722945964E-04
   0.1000215492E+01   0.0000000000E+00   0.9999134882E+00   0.4955587961E-04   0.0000000000E+00  -0.1729113944E-04   0.1659361550E-03   0.0000000000E+00  -0.6922062294E-04   0.5443991844E+00   0.9615183535E-01   0.3838783339E-01  -0.1017154171E-01  -0.1079461086E-01   0.6484531714E-05
   0.1000220479E+01   0.9999038318E+00   0.9999134879E+00   0.5140271842E-04  -0.2083213816E-04  -0.1729125148E-04   0.1690760002E-03  -0.7533609049E-04  -0.6922082557E-04   0.5444032208E+00   0.9615587173E-01   0.3837976061E-01  -0.2159304266E-01  -0.1080195495E-01   0.6808602866E-05
   0.0000000000E+00   0.9999949770E+00   0.9999997484E+00   0.0000000000E+00  -0.2047140047E-05  -0.3028357965E-06   0.0000000000E+00  -0.2975831855E-05   0.5124837317E-07   0.2121763669E+00   0.2103178658E-01   0.4071531759E-02  -0.2221794232E-01  -0.1079610224E-01   0.2796961611E-04
   0.2001000000E+01   0.0000000000E+00   0.1727446862E-03   0.1000000000E-03   0.0000000000E+00   0.3426587254E-04   0.9000000000E-03   0.0000000000E+00   0.1384788137E-03   0.8774528498E+00   0.1708516233E+00   0.7229354796E-01  -0.1079639787E-01   0.1080699155E-01   0.2528797668E-05
   0.2001000000E+01   0.9998126873E+00   0.1727720752E-03   0.1000000000E-03  -0.3961690665E-04   0.3427951730E-04   0.9000000000E-03  -0.1476958329E-03   0.1384925579E-03   0.8766225550E+00   0.1712714527E+00   0.7270401334E-01  -0.2221785724E-01   0.1080788530E-01   0.2605239182E-05
   0.2001000000E+01   0.0000000000E+00   0.9998272553E+00   0.1000000000E-03   0.0000000000E+00  -0.3426586390E-04   0.9000000000E-03   0.0000000000E+00  -0.1384788062E-03   0.8774522418E+00   0.1708520037E+00   0.7229377551E-01  -0.1079656175E-01  -0.1080718631E-01  -0.2153212417E-05
   0.2001000000E+01   0.9998126872E+00   0.9998272279E+00   0.1000000000E-03  -0.3961692916E-04  -0.3427952528E-04   0.9000000000E-03  -0.1476958524E-03  -0.1384925651E-03   0.8766220565E+00   0.1712717783E+00   0.7270418610E-01  -0.2221810282E-01  -0.1080847886E-01  -0.2076770904E-05
     1     2     3     4     5     6     7     8
     2     9    10     3     6    11    12     7
 VARIABLES = X,Y,Z,DU1,DU2,DU3,U1,U2,U3,S11,S22,S33,S12,S13,S23
 ZONE, T="0.1100D+00" F=FEPOINT, I=   12 J=    2 ET=BRICK
   0.0000000000E+00   0.0000000000E+00   0.0000000000E+00   0.0000000000E+00   0.0000000000E+00   0.0000000000E+00   0.0000000000E+00   0.0000000000E+00   0.0000000000E+00   0.2702044370E+00   0.3081382112E-01   0.1170830262E-01  -0.1292756882E-01   0.1311029258E-01   0.1595170399E-03
   0.1000270938E+01   0.0000000000E+00   0.1042740908E-03   0.5544964659E-04   0.0000000000E+00   0.1776019533E-04   0.2154880450E-03   0.0000000000E+00   0.8651389549E-04   0.5761623234E+00   0.7335822171E-01   0.5907687219E-02  -0.1198635532E-01   0.1302907086E-01   0.4134208976E-04
   0.1000278450E+01   0.9998812703E+00   0.1042761702E-03   0.5797349879E-04  -0.2255959395E-04   0.1776012044E-04   0.2204766964E-03  -0.9617014260E-04   0.8651604978E-04   0.5761759744E+00   0.7337187274E-01   0.5880385158E-02  -0.2585538211E-01   0.1299030705E-01   0.4165503016E-04
   0.0000000000E+00   0.9999919421E+00   0.9227073953E-06   0.0000000000E+00  -0.3026980939E-05   0.6671301427E-06   0.0000000000E+00  -0.5030874600E-05   0.2555772526E-06   0.2715080338E+00   0.3023474578E-01   0.1098378114E-01  -0.2679647302E-01   0.1303105193E-01   0.1602415953E-03
   0.0000000000E+00   0.0000000000E+00   0.9999990278E+00   0.0000000000E+00   0.0000000000E+00  -0.6902464552E-06   0.0000000000E+00   0.0000000000E+00  -0.2819560385E-06   0.2702045070E+00   0.3081451067E-01   0.1170754306E-01  -0.1292789711E-01  -0.1286524738E-01   0.8679396803E-04
   0.1000270942E+01   0.0000000000E+00   0.9998957281E+00   0.5544960834E-04   0.0000000000E+00  -0.1776009432E-04   0.2154920346E-03   0.0000000000E+00  -0.8651176238E-04   0.5761621147E+00   0.7335863897E-01   0.5907478591E-02  -0.1198667978E-01  -0.1290582751E-01   0.2086554439E-04
   0.1000278452E+01   0.9998812721E+00   0.9998957278E+00   0.5797350364E-04  -0.2255968260E-04  -0.1776017245E-04   0.2204787186E-03  -0.9616822865E-04  -0.8651207705E-04   0.5761757657E+00   0.7337228999E-01   0.5880176531E-02  -0.2585587027E-01  -0.1292855143E-01   0.2117848479E-04
   0.0000000000E+00   0.9999919499E+00   0.9999990812E+00   0.0000000000E+00  -0.3027123359E-05  -0.6671667865E-06   0.0000000000E+00  -0.5022971901E-05  -0.2515874233E-06   0.2715079967E+00   0.3023548892E-01   0.1098307516E-01  -0.2679704922E-01  -0.1290828140E-01   0.8751852344E-04
   0.2001100000E+01   0.0000000000E+00   0.2075746107E-03   0.1000000000E-03   0.0000000000E+00   0.3482992442E-04   0.1000000000E-02   0.0000000000E+00   0.1727446862E-03   0.8820661843E+00   0.1158481066E+00   0.2156128478E-03  -0.1292781399E-01   0.1294701958E-01   0.4449989249E-05
   0.2001100000E+01   0.9997705951E+00   0.2076252166E-03   0.1000000000E-03  -0.4209217842E-04   0.3485314136E-04   0.1000000000E-02  -0.1873127396E-03   0.1727720752E-03   0.8808167785E+00   0.1164813730E+00   0.8317522209E-03  -0.2679696336E-01   0.1294889336E-01   0.4519726996E-05
   0.2001100000E+01   0.0000000000E+00   0.9997924254E+00   0.1000000000E-03   0.0000000000E+00  -0.3482991061E-04   0.1000000000E-02   0.0000000000E+00  -0.1727446701E-03   0.8820655848E+00   0.1158484761E+00   0.2158428762E-03  -0.1292797387E-01  -0.1294723720E-01  -0.4113520703E-05
   0.2001100000E+01   0.9997705950E+00   0.9997923748E+00   0.1000000000E-03  -0.4209221434E-04  -0.3485315362E-04   0.1000000000E-02  -0.1873127815E-03  -0.1727720903E-03   0.8808162861E+00   0.1164816889E+00   0.8319286644E-03  -0.2679720274E-01  -0.1294949027E-01  -0.4043782956E-05
     1     2     3     4     5     6     7     8
     2     9    10     3     6    11    12     7
 VARIABLES = X,Y,Z,DU1,DU2,DU3,U1,U2,U3,S11,S22,S33,S12,S13,S23
 ZONE, T="0.1200D+00" F=FEPOINT, I=   12 J=    2 ET=BRICK
   0.0000000000E+00   0.0000000000E+00   0.0000000000E+00   0.0000000000E+00   0.0000000000E+00   0.0000000000E+00   0.0000000000E+00   0.0000000000E+00   0.0000000000E+00   0.3361875308E+00   0.4228244596E-01   0.2166040553E-01  -0.1495604927E-01   0.1536400837E-01   0.3678123735E-03
   0.1000331540E+01   0.0000000000E+00   0.1218265426E-03   0.6060193654E-04   0.0000000000E+00   0.1755245182E-04   0.2709376916E-03   0.0000000000E+00   0.1042740908E-03   0.6073785790E+00   0.4908689700E-01  -0.2675906235E-01  -0.1359976093E-01   0.1517645511E-01   0.9378483760E-04
   0.1000342363E+01   0.9998574721E+00   0.1218266725E-03   0.6391280730E-04  -0.2379817188E-04   0.1755050228E-04   0.2784501952E-03  -0.1187297366E-03   0.1042761702E-03   0.6074098602E+00   0.4911817818E-01  -0.2682162472E-01  -0.2991212935E-01   0.1508633889E-01   0.9380483202E-04
   0.0000000000E+00   0.9999876444E+00   0.2156901473E-05   0.0000000000E+00  -0.4297762470E-05   0.1234194078E-05   0.0000000000E+00  -0.8057855539E-05   0.9227073953E-06   0.3381111752E+00   0.4149348207E-01   0.2052572502E-01  -0.3126840188E-01   0.1518012952E-01   0.3678899843E-03
   0.0000000000E+00   0.0000000000E+00   0.9999977557E+00   0.0000000000E+00   0.0000000000E+00  -0.1272132083E-05   0.0000000000E+00   0.0000000000E+00  -0.9722024937E-06   0.3361875627E+00   0.4228250762E-01   0.2166031196E-01  -0.1495609374E-01  -0.1480122442E-01   0.1949540674E-03
   0.1000331540E+01   0.0000000000E+00   0.9998781742E+00   0.6059855271E-04   0.0000000000E+00  -0.1755398647E-04   0.2709416429E-03   0.0000000000E+00  -0.1042718567E-03   0.6073785656E+00   0.4908692366E-01  -0.2675907568E-01  -0.1359979924E-01  -0.1489499184E-01   0.4686305888E-04
   0.1000342363E+01   0.9998574721E+00   0.9998781738E+00   0.6391114698E-04  -0.2379995365E-04  -0.1755390263E-04   0.2784522223E-03  -0.1187279113E-03  -0.1042722495E-03   0.6074098468E+00   0.4911820484E-01  -0.2682163805E-01  -0.2991218919E-01  -0.1494557319E-01   0.4688305329E-04
   0.0000000000E+00   0.9999876453E+00   0.9999978437E+00   0.0000000000E+00  -0.4304615514E-05  -0.1237573501E-05   0.0000000000E+00  -0.8050095260E-05  -0.9187542099E-06   0.3381111959E+00   0.4149354931E-01   0.2052563705E-01  -0.3126848242E-01  -0.1489870161E-01   0.1950316782E-03
   0.2001200000E+01   0.0000000000E+00   0.2414078344E-03   0.1000000000E-03   0.0000000000E+00   0.3383322371E-04   0.1100000000E-02   0.0000000000E+00   0.2075746107E-03   0.8784446004E+00   0.5576625812E-01  -0.7492841359E-01  -0.1495608088E-01   0.1498877638E-01   0.7328403844E-05
   0.2001200000E+01   0.9997272993E+00   0.2414957720E-03   0.1000000000E-03  -0.4329576514E-04   0.3387055541E-04   0.1100000000E-02  -0.2294049180E-03   0.2076252166E-03   0.8766460074E+00   0.5668027343E-01  -0.7404383593E-01  -0.3126846509E-01   0.1499243956E-01   0.7319860343E-05
   0.2001200000E+01   0.0000000000E+00   0.9997585922E+00   0.1000000000E-03   0.0000000000E+00  -0.3383320592E-04   0.1100000000E-02   0.0000000000E+00  -0.2075745808E-03   0.8784445224E+00   0.5576628855E-01  -0.7492836607E-01  -0.1495609626E-01  -0.1498888474E-01  -0.7390421496E-05
   0.2001200000E+01   0.9997272992E+00   0.9997585042E+00   0.1000000000E-03  -0.4329581128E-04  -0.3387057004E-04   0.1100000000E-02  -0.2294049959E-03  -0.2076252440E-03   0.8766459406E+00   0.5668029827E-01  -0.7404379400E-01  -0.3126848748E-01  -0.1499255348E-01  -0.7398964997E-05
     1     2     3     4     5     6     7     8
     2     9    10     3     6    11    12     7
 VARIABLES = X,Y,Z,DU1,DU2,DU3,U1,U2,U3,S11,S22,S33,S12,S13,S23
 ZONE, T="0.1300D+00" F=FEPOINT, I=   12 J=    2 ET=BRICK
   0.0000000000E+00   0.0000000000E+00   0.0000000000E+00   0.0000000000E+00   0.0000000000E+00   0.0000000000E+00   0.0000000000E+00   0.0000000000E+00   0.0000000000E+00   0.4085506917E+00   0.5570189367E-01   0.3442740007E-01  -0.1676545378E-01   0.1754431747E-01   0.7129119286E-03
   0.1000396425E+01   0.0000000000E+00   0.1385147333E-03   0.6488546151E-04   0.0000000000E+00   0.1668819067E-04   0.3315396281E-03   0.0000000000E+00   0.1218265426E-03   0.6393953480E+00   0.2506102999E-01  -0.5725687493E-01  -0.1488313681E-01   0.1717993088E-01   0.1800293441E-03
   0.1000411442E+01   0.9998329363E+00   0.1385089196E-03   0.6907874191E-04  -0.2453579988E-04   0.1668224711E-04   0.3423630025E-03  -0.1425279084E-03   0.1218266725E-03   0.6394558086E+00   0.2512149065E-01  -0.5737779624E-01  -0.3353027318E-01   0.1700456114E-01   0.1791558824E-03
   0.0000000000E+00   0.9999817480E+00   0.4212687469E-05   0.0000000000E+00  -0.5896402976E-05   0.2055785995E-05   0.0000000000E+00  -0.1235561801E-04   0.2156901473E-05   0.4112868577E+00   0.5467405919E-01   0.3271906855E-01  -0.3541290690E-01   0.1718639768E-01   0.7109895399E-03
   0.0000000000E+00   0.0000000000E+00   0.9999956404E+00   0.0000000000E+00   0.0000000000E+00  -0.2115270785E-05   0.0000000000E+00   0.0000000000E+00  -0.2244334577E-05   0.4085505839E+00   0.5570002518E-01   0.3442937635E-01  -0.1676461243E-01  -0.1645489504E-01   0.3726634112E-03
   0.1000396415E+01   0.0000000000E+00   0.9998614808E+00   0.6487487084E-04   0.0000000000E+00  -0.1669334755E-04   0.3315401956E-03   0.0000000000E+00  -0.1218258432E-03   0.6393959303E+00   0.2505986538E-01  -0.5725629262E-01  -0.1488228726E-01  -0.1663715094E-01   0.8933835972E-04
   0.1000411437E+01   0.9998329310E+00   0.9998614810E+00   0.6907347488E-04  -0.2454117139E-04  -0.1669284859E-04   0.3423633693E-03  -0.1425278649E-03  -0.1218261521E-03   0.6394563909E+00   0.2512032603E-01  -0.5737721393E-01  -0.3352900207E-01  -0.1673346358E-01   0.8846489801E-04
   0.0000000000E+00   0.9999817276E+00   0.9999957773E+00   0.0000000000E+00  -0.5917657217E-05  -0.2066366966E-05   0.0000000000E+00  -0.1235471077E-04  -0.2156327711E-05   0.4112870352E+00   0.5467204804E-01   0.3272090218E-01  -0.3541143818E-01  -0.1664231440E-01   0.3707410226E-03
   0.2001300000E+01   0.0000000000E+00   0.2726710320E-03   0.1000000000E-03   0.0000000000E+00   0.3126319765E-04   0.1200000000E-02   0.0000000000E+00   0.2414078344E-03   0.8699967411E+00  -0.5821829940E-02  -0.1484558904E+00  -0.1676482030E-01   0.1681762839E-01   0.1140728045E-04
   0.2001300000E+01   0.9996841329E+00   0.2728162363E-03   0.1000000000E-03  -0.4316637284E-04   0.3132046429E-04   0.1200000000E-02  -0.2727006831E-03   0.2414957720E-03   0.8675034208E+00  -0.4551149717E-02  -0.1472332504E+00  -0.3541163993E-01   0.1682438071E-01   0.1117115428E-04
   0.2001300000E+01   0.0000000000E+00   0.9997273290E+00   0.1000000000E-03   0.0000000000E+00  -0.3126318270E-04   0.1200000000E-02   0.0000000000E+00  -0.2414077867E-03   0.8699982879E+00  -0.5822839470E-02  -0.1484564277E+00  -0.1676439054E-01  -0.1681732276E-01  -0.1261281853E-04
   0.2001300000E+01   0.9996841328E+00   0.9997271837E+00   0.1000000000E-03  -0.4316641125E-04  -0.3132047358E-04   0.1200000000E-02  -0.2727008071E-03  -0.2414958140E-03   0.8675046823E+00  -0.4552016588E-02  -0.1472336450E+00  -0.3541099440E-01  -0.1682295666E-01  -0.1284894470E-04
     1     2     3     4     5     6     7     8
     2     9    10     3     6    11    12     7
 VARIABLES = X,Y,Z,DU1,DU2,DU3,U1,U2,U3,S11,S22,S33,S12,S13,S23
 ZONE, T="0.1400D+00" F=FEPOINT, I=   12 J=    2 ET=BRICK
   0.0000000000E+00   0.0000000000E+00   0.0000000000E+00   0.0000000000E+00   0.0000000000E+00   0.0000000000E+00   0.0000000000E+00   0.0000000000E+00   0.0000000000E+00   0.4863390987E+00   0.7075196095E-01   0.4983864353E-01  -0.1824191480E-01   0.1958946621E-01   0.1243875036E-02
   0.1000464649E+01   0.0000000000E+00   0.1537482428E-03   0.6822393012E-04   0.0000000000E+00   0.1523350950E-04   0.3964250896E-03   0.0000000000E+00   0.1385147333E-03   0.6734512205E+00   0.2879178879E-02  -0.8343499136E-01  -0.1571322971E-01   0.1895184835E-01   0.3118118850E-03
   0.1000484814E+01   0.9998081421E+00   0.1537291162E-03   0.7337194986E-04  -0.2479418212E-04   0.1522019664E-04   0.4114417444E-03  -0.1670637083E-03   0.1385089196E-03   0.6735565510E+00   0.2984509323E-02  -0.8364565225E-01  -0.3648169136E-01   0.1864511234E-01   0.3089368358E-03
   0.0000000000E+00   0.9999739000E+00   0.7390914147E-05   0.0000000000E+00  -0.7848005984E-05   0.3178226678E-05   0.0000000000E+00  -0.1825202099E-04   0.4212687469E-05   0.4901090257E+00   0.6946665504E-01   0.4735402241E-01  -0.3901144508E-01   0.1896272916E-01   0.1237445102E-02
   0.0000000000E+00   0.0000000000E+00   0.9999923724E+00   0.0000000000E+00   0.0000000000E+00  -0.3267968258E-05   0.0000000000E+00   0.0000000000E+00  -0.4359605362E-05   0.4863386543E+00   0.7074575320E-01   0.4984529565E-01  -0.1823906872E-01  -0.1768903215E-01   0.6442174317E-03
   0.1000464615E+01   0.0000000000E+00   0.9998462353E+00   0.6819993264E-04   0.0000000000E+00  -0.1524554053E-04   0.3964150665E-03   0.0000000000E+00  -0.1385191907E-03   0.6734531372E+00   0.2875345480E-02  -0.8343307466E-01  -0.1571037594E-01  -0.1800807077E-01   0.1538162190E-03
   0.1000484797E+01   0.9998081248E+00   0.9998462368E+00   0.7335994624E-04  -0.2480615281E-04  -0.1524417844E-04   0.4114368441E-03  -0.1670690363E-03  -0.1385190007E-03   0.6735584676E+00   0.2980675924E-02  -0.8364373554E-01  -0.3647741380E-01  -0.1817426930E-01   0.1509411698E-03
   0.0000000000E+00   0.9999738317E+00   0.9999925751E+00   0.0000000000E+00  -0.7895975968E-05  -0.3202205963E-05   0.0000000000E+00  -0.1827236799E-04  -0.4222694677E-05   0.4901095347E+00   0.6945997064E-01   0.4736019788E-01  -0.3900646791E-01  -0.1801464475E-01   0.6377874972E-03
   0.2001400000E+01   0.0000000000E+00   0.2998754691E-03   0.1000000000E-03   0.0000000000E+00   0.2720443707E-04   0.1300000000E-02   0.0000000000E+00   0.2726710320E-03   0.8601371452E+00  -0.6541552583E-01  -0.2158605065E+00  -0.1823977755E-01   0.1832132700E-01   0.1690623200E-04
   0.2001400000E+01   0.9996424126E+00   0.3001050755E-03   0.1000000000E-03  -0.4172035420E-04   0.2728883924E-04   0.1300000000E-02  -0.3158670560E-03   0.2728162363E-03   0.8567919950E+00  -0.6370544308E-01  -0.2142254390E+00  -0.3900717057E-01   0.1833316204E-01   0.1617147343E-04
   0.2001400000E+01   0.0000000000E+00   0.9997001246E+00   0.1000000000E-03   0.0000000000E+00  -0.2720444303E-04   0.1300000000E-02   0.0000000000E+00  -0.2726709694E-03   0.8601423660E+00  -0.6541887101E-01  -0.2158623821E+00  -0.1823834606E-01  -0.1832001289E-01  -0.2060142914E-04
   0.2001400000E+01   0.9996424124E+00   0.9996998949E+00   0.1000000000E-03  -0.4172033748E-04  -0.2728882446E-04   0.1300000000E-02  -0.3158672184E-03  -0.2728162876E-03   0.8567962625E+00  -0.6370831160E-01  -0.2142268380E+00  -0.3900502259E-01  -0.1832822733E-01  -0.2133618771E-04
     1     2     3     4     5     6     7     8
     2     9    10     3     6    11    12     7
 VARIABLES = X,Y,Z,DU1,DU2,DU3,U1,U2,U3,S11,S22,S33,S12,S13,S23
 ZONE, T="0.1500D+00" F=FEPOINT, I=   12 J=    2 ET=BRICK
   0.0000000000E+00   0.0000000000E+00   0.0000000000E+00   0.0000000000E+00   0.0000000000E+00   0.0000000000E+00   0.0000000000E+00   0.0000000000E+00   0.0000000000E+00   0.5684049462E+00   0.8692675376E-01   0.6747810948E-01  -0.1928020385E-01   0.2145228512E-01   0.2015197417E-02
   0.1000535241E+01   0.0000000000E+00   0.1670434238E-03   0.7059185349E-04   0.0000000000E+00   0.1329518101E-04   0.4646490197E-03   0.0000000000E+00   0.1537482428E-03   0.7105933600E+00  -0.1609100970E-01  -0.1034922022E+00  -0.1597909175E-01   0.2041584907E-01   0.5019348917E-03
   0.1000561550E+01   0.9997835165E+00   0.1669985984E-03   0.7673641428E-04  -0.2462560699E-04   0.1326948215E-04   0.4848136942E-03  -0.1918578904E-03   0.1537291162E-03   0.7107638515E+00  -0.1592051816E-01  -0.1038331853E+00  -0.3855534758E-01   0.1991804677E-01   0.4951955264E-03
   0.0000000000E+00   0.9999637356E+00   0.1202953352E-04   0.0000000000E+00  -0.1016439566E-04   0.4638619373E-05   0.0000000000E+00  -0.2610002697E-04   0.7390914147E-05   0.5734556811E+00   0.8538032349E-01   0.6397380489E-01  -0.4185898923E-01   0.2043345355E-01   0.2000028612E-02
   0.0000000000E+00   0.0000000000E+00   0.9999876028E+00   0.0000000000E+00   0.0000000000E+00  -0.4769600439E-05   0.0000000000E+00   0.0000000000E+00  -0.7627573620E-05   0.5684038201E+00   0.8691214800E-01   0.6749384134E-01  -0.1927346002E-01  -0.1837220076E-01   0.1036260255E-02
   0.1000535160E+01   0.0000000000E+00   0.9998329162E+00   0.7054515638E-04   0.0000000000E+00  -0.1331905560E-04   0.4646149991E-03   0.0000000000E+00  -0.1537647312E-03   0.7105978529E+00  -0.1609999552E-01  -0.1034877093E+00  -0.1597234807E-01  -0.1889097944E-01   0.2461975745E-03
   0.1000561510E+01   0.9997834762E+00   0.9998329207E+00   0.7671296376E-04  -0.2464863278E-04  -0.1331609555E-04   0.4847967904E-03  -0.1918751891E-03  -0.1537631792E-03   0.7107683444E+00  -0.1592950398E-01  -0.1038286923E+00  -0.3854523227E-01  -0.1915814180E-01   0.2394582092E-03
   0.0000000000E+00   0.9999635742E+00   0.9999878898E+00   0.0000000000E+00  -0.1025748705E-04  -0.4685287022E-05   0.0000000000E+00  -0.2616834396E-04  -0.7424900639E-05   0.5734568030E+00   0.8536459372E-01   0.6398841273E-01  -0.4184718759E-01  -0.1889847244E-01   0.1021091450E-02
   0.2001500000E+01   0.0000000000E+00   0.3217075922E-03   0.1000000000E-03   0.0000000000E+00   0.2183212309E-04   0.1400000000E-02   0.0000000000E+00   0.2998754691E-03   0.8520881912E+00  -0.1197922375E+00  -0.2730854669E+00  -0.1927514476E-01   0.1939627099E-01   0.2398649764E-04
   0.2001500000E+01   0.9996033647E+00   0.3220573691E-03   0.1000000000E-03  -0.3904787917E-04   0.2195229359E-04   0.1400000000E-02  -0.3575874102E-03   0.3001050755E-03   0.8477276661E+00  -0.1175555976E+00  -0.2709615817E+00  -0.4184887105E-01   0.1941612591E-01   0.2230421767E-04
   0.2001500000E+01   0.0000000000E+00   0.9996782924E+00   0.1000000000E-03   0.0000000000E+00  -0.2183218787E-04   0.1400000000E-02   0.0000000000E+00  -0.2998754124E-03   0.8521005514E+00  -0.1198000999E+00  -0.2730899647E+00  -0.1927177329E-01  -0.1939290015E-01  -0.3239088524E-04
   0.2001500000E+01   0.9996033647E+00   0.9996779427E+00   0.1000000000E-03  -0.3904770811E-04  -0.2195221741E-04   0.1400000000E-02  -0.3575875559E-03  -0.3001051120E-03   0.8477377782E+00  -0.1175623359E+00  -0.2709649554E+00  -0.4184381412E-01  -0.1940432525E-01  -0.3407316520E-04
     1     2     3     4     5     6     7     8
     2     9    10     3     6    11    12     7
 VARIABLES = X,Y,Z,DU1,DU2,DU3,U1,U2,U3,S11,S22,S33,S12,S13,S23
 ZONE, T="0.1600D+00" F=FEPOINT, I=   12 J=    2 ET=BRICK
   0.0000000000E+00   0.0000000000E+00   0.0000000000E+00   0.0000000000E+00   0.0000000000E+00   0.0000000000E+00   0.0000000000E+00   0.0000000000E+00   0.0000000000E+00   0.6534510506E+00   0.1035450156E+00   0.8668590304E-01  -0.1978969429E-01   0.2310351316E-01   0.3084235696E-02
   0.1000607254E+01   0.0000000000E+00   0.1780556002E-03   0.7201282120E-04   0.0000000000E+00   0.1101217636E-04   0.5352408732E-03   0.0000000000E+00   0.1670434238E-03   0.7516106810E+00  -0.3079838196E-01  -0.1160935231E+00  -0.1558882925E-01   0.2151135601E-01   0.7635496104E-03
   0.1000640709E+01   0.9997594092E+00   0.1779656340E-03   0.7915860058E-04  -0.2410726482E-04   0.1096703563E-04   0.5615501085E-03  -0.2164834974E-03   0.1669985984E-03   0.7518714675E+00  -0.3053759537E-01  -0.1166150963E+00  -0.3956916769E-01   0.2074845740E-01   0.7500216650E-03
   0.0000000000E+00   0.9999508948E+00   0.1848948260E-04   0.0000000000E+00  -0.1284078267E-04   0.6459949084E-05   0.0000000000E+00  -0.3626442263E-04   0.1202953352E-04   0.6600506376E+00   0.1017530924E+00   0.8187823917E-01  -0.4377514263E-01   0.2153887087E-01   0.3053660267E-02
   0.0000000000E+00   0.0000000000E+00   0.9999809571E+00   0.0000000000E+00   0.0000000000E+00  -0.6645694150E-05   0.0000000000E+00   0.0000000000E+00  -0.1239717406E-04   0.6534486788E+00   0.1035156260E+00   0.8671766432E-01  -0.1977606209E-01  -0.1838584884E-01   0.1576365354E-02
   0.1000607090E+01   0.0000000000E+00   0.9998218611E+00   0.7193023595E-04   0.0000000000E+00  -0.1105509180E-04   0.5351601555E-03   0.0000000000E+00  -0.1670837868E-03   0.7516196996E+00  -0.3081641922E-01  -0.1160845045E+00  -0.1557522134E-01  -0.1918308216E-01   0.3723697239E-03
   0.1000640627E+01   0.9997593286E+00   0.9998218713E+00   0.7911698915E-04  -0.2414758722E-04  -0.1104939525E-04   0.5615097541E-03  -0.2165238219E-03  -0.1670792747E-03   0.7518804861E+00  -0.3055563263E-01  -0.1166060776E+00  -0.3954874695E-01  -0.1958950211E-01   0.3588417786E-03
   0.0000000000E+00   0.9999505691E+00   0.9999813473E+00   0.0000000000E+00  -0.1300503877E-04  -0.6542494140E-05   0.0000000000E+00  -0.3642583101E-04  -0.1211018766E-04   0.6600527959E+00   0.1017214378E+00   0.8190773542E-01  -0.4375127578E-01  -0.1919027936E-01   0.1545789925E-02
   0.2001600000E+01   0.0000000000E+00   0.3371076611E-03   0.1000000000E-03   0.0000000000E+00   0.1540006887E-04   0.1500000000E-02   0.0000000000E+00   0.3217075922E-03   0.8487035997E+00  -0.1661880515E+00  -0.3167599656E+00  -0.1977947447E-01   0.1995333184E-01   0.3271215731E-04
   0.2001600000E+01   0.9995680598E+00   0.3376234319E-03   0.1000000000E-03  -0.3530486343E-04   0.1556606277E-04   0.1500000000E-02  -0.3966352893E-03   0.3220573691E-03   0.8431638966E+00  -0.1633362444E+00  -0.3140720697E+00  -0.4375470300E-01   0.1998538183E-01   0.2938804616E-04
   0.2001600000E+01   0.0000000000E+00   0.9996628921E+00   0.1000000000E-03   0.0000000000E+00  -0.1540026254E-04   0.1500000000E-02   0.0000000000E+00  -0.3217076003E-03   0.8487285711E+00  -0.1662038613E+00  -0.3167691271E+00  -0.1977268592E-01  -0.1994618251E-01  -0.4924347998E-04
   0.2001600000E+01   0.9995680604E+00   0.9996623768E+00   0.1000000000E-03  -0.3530435495E-04  -0.1556585900E-04   0.1500000000E-02  -0.3966352640E-03  -0.3220573294E-03   0.8431843379E+00  -0.1633497891E+00  -0.3140789662E+00  -0.4374452345E-01  -0.1996138696E-01  -0.5256759112E-04
     1     2     3     4     5     6     7     8
     2     9    10     3     6    11    12     7
 VARIABLES = X,Y,Z,DU1,DU2,DU3,U1,U2,U3,S11,S22,S33,S12,S13,S23
 ZONE, T="0.1700D+00" F=FEPOINT, I=   12 J=    2 ET=BRICK
   0.0000000000E+00   0.0000000000E+00   0.0000000000E+00   0.0000000000E+00   0.0000000000E+00   0.0000000000E+00   0.0000000000E+00   0.0000000000E+00   0.0000000000E+00   0.7400837457E+00   0.1197757320E+00   0.1065801577E+00  -0.1969960538E-01   0.2453361187E-01   0.4507885195E-02
   0.1000679809E+01   0.0000000000E+00   0.1866007510E-03   0.7255532439E-04   0.0000000000E+00   0.8545150775E-05   0.6072536944E-03   0.0000000000E+00   0.1780556002E-03   0.7969871585E+00  -0.4056832213E-01  -0.1204513405E+00  -0.1447547478E-01   0.2219693693E-01   0.1109257307E-02
   0.1000721373E+01   0.9997360752E+00   0.1864367278E-03   0.8066454727E-04  -0.2333406711E-04   0.8471093794E-05   0.6407087091E-03  -0.2405907623E-03   0.1779656340E-03   0.7973681754E+00  -0.4018730515E-01  -0.1212133744E+00  -0.3938047929E-01   0.2108065822E-01   0.1084590763E-02
   0.0000000000E+00   0.9999350417E+00   0.2713607818E-04   0.0000000000E+00  -0.1585305373E-04   0.8646595576E-05   0.0000000000E+00  -0.4910520530E-04   0.1848948260E-04   0.7485145283E+00   0.1177769839E+00   0.1001481232E+00  -0.4461397510E-01   0.2223863355E-01   0.4451945946E-02
   0.0000000000E+00   0.0000000000E+00   0.9999720537E+00   0.0000000000E+00   0.0000000000E+00  -0.8903409645E-05   0.0000000000E+00   0.0000000000E+00  -0.1904286821E-04   0.7400792556E+00   0.1197220378E+00   0.1066383420E+00  -0.1967460728E-01  -0.1763102983E-01   0.2291241993E-02
   0.1000679509E+01   0.0000000000E+00   0.9998132440E+00   0.7241896536E-04   0.0000000000E+00  -0.8617082555E-05   0.6070903915E-03   0.0000000000E+00  -0.1781388786E-03   0.7970036028E+00  -0.4060121085E-01  -0.1204348961E+00  -0.1445055667E-01  -0.1880151674E-01   0.5377318382E-03
   0.1000721222E+01   0.9997359286E+00   0.9998132644E+00   0.8059562628E-04  -0.2340002920E-04  -0.8606964275E-05   0.6406267433E-03  -0.2406714091E-03  -0.1781286700E-03   0.7973846197E+00  -0.4022019387E-01  -0.1211969301E+00  -0.3934307207E-01  -0.1939255007E-01   0.5130652941E-03
   0.0000000000E+00   0.9999344455E+00   0.9999725644E+00   0.0000000000E+00  -0.1612367762E-04  -0.8782913217E-05   0.0000000000E+00  -0.4943086978E-04  -0.1865268180E-04   0.7485183243E+00   0.1177191467E+00   0.1002021644E+00  -0.4457019339E-01  -0.1880613582E-01   0.2235302743E-02
   0.2001700000E+01   0.0000000000E+00   0.3453319474E-03   0.1000000000E-03   0.0000000000E+00   0.8224286290E-05   0.1600000000E-02   0.0000000000E+00   0.3371076611E-03   0.8523231669E+00  -0.2024423198E+00  -0.3443854909E+00  -0.1968087497E-01   0.1992293624E-01   0.4301063988E-04
   0.2001700000E+01   0.9995373585E+00   0.3460709329E-03   0.1000000000E-03  -0.3070131805E-04   0.8447500987E-05   0.1600000000E-02  -0.4319401528E-03   0.3376234319E-03   0.8454472541E+00  -0.1988887017E+00  -0.3410631961E+00  -0.4457651427E-01   0.1997292814E-01   0.3702780663E-04
   0.2001700000E+01   0.0000000000E+00   0.9996546674E+00   0.1000000000E-03   0.0000000000E+00  -0.8224727831E-05   0.1600000000E-02   0.0000000000E+00  -0.3371078628E-03   0.8523689383E+00  -0.2024711883E+00  -0.3444023937E+00  -0.1966846586E-01  -0.1990932941E-01  -0.7265099971E-04
   0.2001700000E+01   0.9995373602E+00   0.9996539297E+00   0.1000000000E-03  -0.3070016191E-04  -0.8447061631E-05   0.1600000000E-02  -0.4319396189E-03  -0.3376231885E-03   0.8454847395E+00  -0.1989134273E+00  -0.3410759560E+00  -0.4455791055E-01  -0.1992871909E-01  -0.7863383296E-04
     1     2     3     4     5     6     7     8
     2     9    10     3     6    11    12     7
 VARIABLES = X,Y,Z,DU1,DU2,DU3,U1,U2,U3,S11,S22,S33,S12,S13,S23
 ZONE, T="0.1800D+00" F=FEPOINT, I=   12 J=    2 ET=BRICK
   0.0000000000E+00   0.0000000000E+00   0.0000000000E+00   0.0000000000E+00   0.0000000000E+00   0.0000000000E+00   0.0000000000E+00   0.0000000000E+00   0.0000000000E+00   0.8268728808E+00   0.1346781366E+00   0.1260987270E+00  -0.1896325971E-01   0.2575295613E-01   0.6338667999E-02
   0.1000752135E+01   0.0000000000E+00   0.1926654290E-03   0.7232644158E-04   0.0000000000E+00   0.6064678001E-05   0.6798090188E-03   0.0000000000E+00   0.1866007510E-03   0.8468778699E+00  -0.4513395479E-01  -0.1163664681E+00  -0.1260167473E-01   0.2245236126E-01   0.1550075894E-02
   0.1000802688E+01   0.9997136646E+00   0.1923862149E-03   0.8131516024E-04  -0.2241053235E-04   0.5949487095E-05   0.7213732564E-03  -0.2639248294E-03   0.1864367278E-03   0.8474134781E+00  -0.4459834660E-01  -0.1174376844E+00  -0.3789448211E-01   0.2088120773E-01   0.1508081545E-02
   0.0000000000E+00   0.9999158858E+00   0.3831675201E-04   0.0000000000E+00  -0.1915596757E-04   0.1118067383E-04   0.0000000000E+00  -0.6495825903E-04   0.2713607818E-04   0.8374229767E+00   0.1325370989E+00   0.1176896688E+00  -0.4427208523E-01   0.2251381407E-01   0.6243139683E-02
   0.0000000000E+00   0.0000000000E+00   0.9999605259E+00   0.0000000000E+00   0.0000000000E+00  -0.1152783904E-04   0.0000000000E+00   0.0000000000E+00  -0.2794627785E-04   0.8268649793E+00   0.1345865590E+00   0.1261982060E+00  -0.1892048159E-01  -0.1603442046E-01   0.3204657795E-02
   0.1000751622E+01   0.0000000000E+00   0.9998070651E+00   0.7211298681E-04   0.0000000000E+00  -0.6178946070E-05   0.6795093568E-03   0.0000000000E+00  -0.1867559612E-03   0.8469058661E+00  -0.4518994726E-01  -0.1163384718E+00  -0.1255908847E-01  -0.1768844607E-01   0.7466636100E-03
   0.1000802429E+01   0.9997134157E+00   0.9998071024E+00   0.8120693693E-04  -0.2251283844E-04  -0.6162004688E-05   0.7212223696E-03  -0.2640714383E-03  -0.1867356342E-03   0.8474414743E+00  -0.4465433907E-01  -0.1174096882E+00  -0.3783052986E-01  -0.1851583649E-01   0.7046692614E-03
   0.0000000000E+00   0.9999148668E+00   0.9999611703E+00   0.0000000000E+00  -0.1957869566E-04  -0.1139411483E-04   0.0000000000E+00  -0.6555454740E-04  -0.2743559502E-04   0.8374292221E+00   0.1324384478E+00   0.1177820744E+00  -0.4419713913E-01  -0.1768672773E-01   0.3109129480E-02
   0.2001800000E+01   0.0000000000E+00   0.3459951809E-03   0.1000000000E-03   0.0000000000E+00   0.6632335155E-06   0.1700000000E-02   0.0000000000E+00   0.3453319474E-03   0.8646660759E+00  -0.2270987569E+00  -0.3544621693E+00  -0.1893122342E-01   0.1925914681E-01   0.5463659792E-04
   0.2001800000E+01   0.9995118716E+00   0.3470271861E-03   0.1000000000E-03  -0.2548697671E-04   0.9562532775E-06   0.1700000000E-02  -0.4626414708E-03   0.3460709329E-03   0.8563112919E+00  -0.2227624071E+00  -0.3504437350E+00  -0.4420801266E-01   0.1933476154E-01   0.4457223403E-04
   0.2001800000E+01   0.0000000000E+00   0.9996540033E+00   0.1000000000E-03   0.0000000000E+00  -0.6641124604E-06   0.1700000000E-02   0.0000000000E+00  -0.3453325906E-03   0.8647443724E+00  -0.2271479695E+00  -0.3544912531E+00  -0.1891004929E-01  -0.1923509126E-01  -0.1043211358E-03
   0.2001800000E+01   0.9995118755E+00   0.9996529743E+00   0.1000000000E-03  -0.2548467959E-04  -0.9554131137E-06   0.1700000000E-02  -0.4626397809E-03  -0.3460702501E-03   0.8563754415E+00  -0.2228045463E+00  -0.3504657455E+00  -0.4417627453E-01  -0.1925878511E-01  -0.1143854997E-03
     1     2     3     4     5     6     7     8
     2     9    10     3     6    11    12     7
 VARIABLES = X,Y,Z,DU1,DU2,DU3,U1,U2,U3,S11,S22,S33,S12,S13,S23
 ZONE, T="0.1900D+00" F=FEPOINT, I=   12 J=    2 ET=BRICK
   0.0000000000E+00   0.0000000000E+00   0.0000000000E+00   0.0000000000E+00   0.0000000000E+00   0.0000000000E+00   0.0000000000E+00   0.0000000000E+00   0.0000000000E+00   0.9124160995E+00   0.1472540434E+00   0.1440584787E+00  -0.1756114189E-01   0.2679041194E-01   0.8620453191E-02
   0.1000823599E+01   0.0000000000E+00   0.1964045134E-03   0.7146380349E-04   0.0000000000E+00   0.3739084445E-05   0.7521354604E-03   0.0000000000E+00   0.1926654290E-03   0.9011087215E+00  -0.4463730497E-01  -0.1042274499E+00  -0.9962950952E-02   0.2227926240E-01   0.2094335641E-02
   0.1000883888E+01   0.9996922223E+00   0.1959537826E-03   0.8120005281E-04  -0.2144234920E-04   0.3567567646E-05   0.8026884166E-03  -0.2863353617E-03   0.1923862149E-03   0.9018369629E+00  -0.4390906346E-01  -0.1056839329E+00  -0.3507033013E-01   0.2014063122E-01   0.2026536379E-02
   0.0000000000E+00   0.9998932033E+00   0.5233633010E-04   0.0000000000E+00  -0.2268249786E-04   0.1401957808E-04   0.0000000000E+00  -0.8411422660E-04   0.3831675201E-04   0.9253692199E+00   0.1450627347E+00   0.1332966670E+00  -0.4269449741E-01   0.2236756751E-01   0.8465766068E-02
   0.0000000000E+00   0.0000000000E+00   0.9999460464E+00   0.0000000000E+00   0.0000000000E+00  -0.1447949743E-04   0.0000000000E+00   0.0000000000E+00  -0.3947411689E-04   0.9124029392E+00   0.1471059364E+00   0.1442197459E+00  -0.1749173444E-01  -0.1355332350E-01   0.4335201696E-02
   0.1000822766E+01   0.0000000000E+00   0.9998031522E+00   0.7114388561E-04   0.0000000000E+00  -0.3912905711E-05   0.7516223436E-03   0.0000000000E+00  -0.1929349073E-03   0.9011539209E+00  -0.4472770399E-01  -0.1041822503E+00  -0.9893940846E-02  -0.1581502627E-01   0.1001973377E-02
   0.1000883467E+01   0.9996918215E+00   0.9998032165E+00   0.8103733514E-04  -0.2159423259E-04  -0.3885829573E-05   0.8024293065E-03  -0.2865842767E-03  -0.1928976389E-03   0.9018821624E+00  -0.4399946248E-01  -0.1056387334E+00  -0.3496666305E-01  -0.1693566685E-01   0.9341741156E-03
   0.0000000000E+00   0.9998915521E+00   0.9999468307E+00   0.0000000000E+00  -0.2331468712E-04  -0.1433957469E-04   0.0000000000E+00  -0.8513324306E-04  -0.3882970984E-04   0.9253789617E+00   0.1449031766E+00   0.1334464832E+00  -0.4257285909E-01  -0.1580126935E-01   0.4180514573E-02
   0.2001900000E+01   0.0000000000E+00   0.3390912440E-03   0.1000000000E-03   0.0000000000E+00  -0.6903936832E-05   0.1800000000E-02   0.0000000000E+00   0.3459951809E-03   0.8867674459E+00  -0.2394586454E+00  -0.3465494888E+00  -0.1750918919E-01   0.1794254035E-01   0.6714367339E-04
   0.2001900000E+01   0.9994919364E+00   0.3404996121E-03   0.1000000000E-03  -0.1993518796E-04  -0.6527574086E-05   0.1800000000E-02  -0.4881284475E-03   0.3470271861E-03   0.8768133524E+00  -0.2342683097E+00  -0.3417857311E+00  -0.4259059203E-01   0.1805376929E-01   0.5108447938E-04
   0.2001900000E+01   0.0000000000E+00   0.9996609056E+00   0.1000000000E-03   0.0000000000E+00   0.6902333388E-05   0.1800000000E-02   0.0000000000E+00  -0.3459967031E-03   0.8868944370E+00  -0.2395382002E+00  -0.3465969252E+00  -0.1747492955E-01  -0.1790230155E-01  -0.1461453198E-03
   0.2001900000E+01   0.9994919445E+00   0.9996595034E+00   0.1000000000E-03  -0.1993100438E-04   0.6529054458E-05   0.1800000000E-02  -0.4881244604E-03  -0.3470256632E-03   0.8769174414E+00  -0.2343364134E+00  -0.3418217164E+00  -0.4253924930E-01  -0.1792998998E-01  -0.1622045138E-03
     1     2     3     4     5     6     7     8
     2     9    10     3     6    11    12     7
 VARIABLES = X,Y,Z,DU1,DU2,DU3,U1,U2,U3,S11,S22,S33,S12,S13,S23
 ZONE, T="0.2000D+00" F=FEPOINT, I=   12 J=    2 ET=BRICK
   0.0000000000E+00   0.0000000000E+00   0.0000000000E+00   0.0000000000E+00   0.0000000000E+00   0.0000000000E+00   0.0000000000E+00   0.0000000000E+00   0.0000000000E+00   0.9954040974E+00   0.1565093572E+00   0.1592285353E+00  -0.1550261289E-01   0.2769043222E-01   0.1138408304E-01
   0.1000893726E+01   0.0000000000E+00   0.1981272503E-03   0.7012632862E-04   0.0000000000E+00   0.1722736907E-05   0.8235992639E-03   0.0000000000E+00   0.1964045134E-03   0.9591991487E+00  -0.3960134000E-01  -0.8496936211E-01  -0.6589371813E-02   0.2170041220E-01   0.2746580523E-02
   0.1000964319E+01   0.9996716941E+00   0.1974304131E-03   0.8043033533E-04  -0.2052823006E-04   0.1476630512E-05   0.8838884694E-03  -0.3077777109E-03   0.1959537826E-03   0.9601606235E+00  -0.3863986516E-01  -0.8689231178E-01  -0.3092453800E-01   0.1887378110E-01   0.2641747191E-02
   0.0000000000E+00   0.9998668588E+00   0.6943136619E-04   0.0000000000E+00  -0.2634449917E-04   0.1709503610E-04   0.0000000000E+00  -0.1067967245E-03   0.5233633010E-04   0.1011027991E+01   0.1543874555E+00   0.1457265435E+00  -0.3987812255E-01   0.2182439307E-01   0.1114418968E-01
   0.0000000000E+00   0.0000000000E+00   0.9999283531E+00   0.0000000000E+00   0.0000000000E+00  -0.1769331459E-04   0.0000000000E+00   0.0000000000E+00  -0.5395361433E-04   0.9953831201E+00   0.1562799524E+00   0.1594789173E+00  -0.1539476118E-01  -0.1017938712E-01   0.5694037934E-02
   0.1000892430E+01   0.0000000000E+00   0.9998011745E+00   0.6966412690E-04   0.0000000000E+00  -0.1977730677E-05   0.8227662292E-03   0.0000000000E+00  -0.1968478130E-03   0.9592690375E+00  -0.3974111778E-01  -0.8489947322E-01  -0.6482271355E-02  -0.1318404388E-01   0.1304368267E-02
   0.1000963661E+01   0.9996710760E+00   0.9998012804E+00   0.8019446601E-04  -0.2074549361E-04  -0.1936082513E-05   0.8834666416E-03  -0.3081785093E-03  -0.1967834685E-03   0.9602305123E+00  -0.3877964294E-01  -0.8682242289E-01  -0.3076359852E-01  -0.1465816730E-01   0.1199534934E-02
   0.0000000000E+00   0.9998642963E+00   0.9999292732E+00   0.0000000000E+00  -0.2725578604E-04  -0.1755753599E-04   0.0000000000E+00  -0.1084479302E-03  -0.5316928453E-04   0.1011042521E+01   0.1541402969E+00   0.1459591716E+00  -0.3968904985E-01  -0.1315010117E-01   0.5454144578E-02
   0.2002000000E+01   0.0000000000E+00   0.3249915105E-03   0.1000000000E-03   0.0000000000E+00  -0.1409973354E-04   0.1900000000E-02   0.0000000000E+00   0.3390912440E-03   0.9189599243E+00  -0.2395849389E+00  -0.3212600821E+00  -0.1542192595E-01   0.1598175140E-01   0.7986876090E-04
   0.2002000000E+01   0.9994776102E+00   0.3268737660E-03   0.1000000000E-03  -0.1432612494E-04  -0.1362584608E-04   0.1900000000E-02  -0.5080636355E-03   0.3404996121E-03   0.9073160703E+00  -0.2334829977E+00  -0.3157181694E+00  -0.3971674867E-01   0.1614126692E-01   0.5533152965E-04
   0.2002000000E+01   0.0000000000E+00   0.9996750026E+00   0.1000000000E-03   0.0000000000E+00   0.1409698866E-04   0.1900000000E-02   0.0000000000E+00  -0.3390943697E-03   0.9191571886E+00  -0.2397081083E+00  -0.3213341770E+00  -0.1536883816E-01  -0.1591734142E-01  -0.2001454882E-03
   0.2002000000E+01   0.9994776256E+00   0.9996731317E+00   0.1000000000E-03  -0.1431897527E-04   0.1362829749E-04   0.1900000000E-02  -0.5080554648E-03  -0.3404966087E-03   0.9074778270E+00  -0.2335884132E+00  -0.3157745105E+00  -0.3963720382E-01  -0.1594813564E-01  -0.2246827195E-03
     1     2     3     4     5     6     7     8
     2     9    10     3     6    11    12     7
 VARIABLES = X,Y,Z,DU1,DU2,DU3,U1,U2,U3,S11,S22,S33,S12,S13,S23
 ZONE, T="0.2100D+00" F=FEPOINT, I=   12 J=    2 ET=BRICK
   0.0000000000E+00   0.0000000000E+00   0.0000000000E+00   0.0000000000E+00   0.0000000000E+00   0.0000000000E+00   0.0000000000E+00   0.0000000000E+00   0.0000000000E+00   0.1074683265E+01   0.1615207536E+00   0.1704125951E+00  -0.1282620589E-01   0.2850891045E-01   0.1464321292E-01
   0.1000962210E+01   0.0000000000E+00   0.1982728329E-03   0.6848426740E-04   0.0000000000E+00   0.1455825797E-06   0.8937255925E-03   0.0000000000E+00   0.1981272503E-03   0.1020405520E+01  -0.3087580977E-01  -0.5999610936E-01  -0.2545552139E-02   0.2075770485E-01   0.3506559558E-02
   0.1001043450E+01   0.9996519414E+00   0.1972340374E-03   0.7913079526E-04  -0.1975262706E-04  -0.1963756337E-06   0.9643188047E-03  -0.3283059410E-03   0.1974304131E-03   0.1021641898E+01  -0.2963943151E-01  -0.6246886589E-01  -0.2553156832E-01   0.1711885685E-01   0.3350256728E-02
   0.0000000000E+00   0.9998368240E+00   0.8974524984E-04   0.0000000000E+00  -0.3003479017E-04   0.2031388365E-04   0.0000000000E+00  -0.1331412236E-03   0.6943136619E-04   0.1093217171E+01   0.1596141951E+00   0.1537852473E+00  -0.3587264346E-01   0.2092808980E-01   0.1428445215E-01
   0.0000000000E+00   0.0000000000E+00   0.9999072737E+00   0.0000000000E+00   0.0000000000E+00  -0.2107933860E-04   0.0000000000E+00   0.0000000000E+00  -0.7164692891E-04   0.1074651024E+01   0.1611781132E+00   0.1707874762E+00  -0.1266459022E-01  -0.5940828320E-02   0.7282818261E-02
   0.1000960268E+01   0.0000000000E+00   0.9998006663E+00   0.6783736993E-04   0.0000000000E+00  -0.5081932613E-06   0.8924303561E-03   0.0000000000E+00  -0.1988255437E-03   0.1020509722E+01  -0.3108421354E-01  -0.5989190747E-01  -0.2385267382E-02  -0.9831080242E-02   0.1651992159E-02
   0.1001042461E+01   0.9996510225E+00   0.9998008343E+00   0.7879950948E-04  -0.2005352406E-04  -0.4461795484E-06   0.9636611077E-03  -0.3289240029E-03  -0.1987195510E-03   0.1021746100E+01  -0.2984783528E-01  -0.6236466400E-01  -0.2529062713E-01  -0.1171991245E-01   0.1495689329E-02
   0.0000000000E+00   0.9998329891E+00   0.9999083117E+00   0.0000000000E+00  -0.3130718476E-04  -0.2096152601E-04   0.0000000000E+00  -0.1357037162E-03  -0.7072682052E-04   0.1093238016E+01   0.1592450120E+00   0.1541335857E+00  -0.3558922629E-01  -0.9765837593E-02   0.6924057484E-02
   0.2002100000E+01   0.0000000000E+00   0.3044216040E-03   0.1000000000E-03   0.0000000000E+00  -0.2056990651E-04   0.2000000000E-02   0.0000000000E+00   0.3249915105E-03   0.9608992754E+00  -0.2282591877E+00  -0.2801894991E+00  -0.1270536312E-01   0.1341362125E-01   0.9193304217E-04
   0.2002100000E+01   0.9994686799E+00   0.3068897153E-03   0.1000000000E-03  -0.8930361185E-05  -0.1998405067E-04   0.2000000000E-02  -0.5223897604E-03   0.3268737660E-03   0.9475125198E+00  -0.2212054786E+00  -0.2738564526E+00  -0.3563095791E-01   0.1363711759E-01   0.5579802377E-04
   0.2002100000E+01   0.0000000000E+00   0.9996955681E+00   0.1000000000E-03   0.0000000000E+00   0.2056543616E-04   0.2000000000E-02   0.0000000000E+00  -0.3249973811E-03   0.9611947801E+00  -0.2284430751E+00  -0.2803011165E+00  -0.1262603759E-01  -0.1331421016E-01  -0.2683982614E-03
   0.2002100000E+01   0.9994687068E+00   0.9996931196E+00   0.1000000000E-03  -0.8918738199E-05   0.1998791084E-04   0.2000000000E-02  -0.5223744401E-03  -0.3268683112E-03   0.9477549389E+00  -0.2213628232E+00  -0.2739415272E+00  -0.3551212101E-01  -0.1334649361E-01  -0.3045332798E-03
     1     2     3     4     5     6     7     8
     2     9    10     3     6    11    12     7
 VARIABLES = X,Y,Z,DU1,DU2,DU3,U1,U2,U3,S11,S22,S33,S12,S13,S23
 ZONE, T="0.2200D+00" F=FEPOINT, I=   12 J=    2 ET=BRICK
   0.0000000000E+00   0.0000000000E+00   0.0000000000E+00   0.0000000000E+00   0.0000000000E+00   0.0000000000E+00   0.0000000000E+00   0.0000000000E+00   0.0000000000E+00   0.1149312060E+01   0.1615029402E+00   0.1765346046E+00  -0.9598503545E-02   0.2930812166E-01   0.1839068566E-01
   0.1001028919E+01   0.0000000000E+00   0.1973774641E-03   0.6670910942E-04   0.0000000000E+00  -0.8953688245E-06   0.9622098599E-03   0.0000000000E+00   0.1982728329E-03   0.1083781614E+01  -0.1956153118E-01  -0.3107259609E-01   0.2071012469E-02   0.1950902847E-01   0.4368394180E-02
   0.1001120882E+01   0.9996327616E+00   0.1958768730E-03   0.7743192098E-04  -0.1917980328E-04  -0.1357164467E-05   0.1043449600E-02  -0.3480585680E-03   0.1972340374E-03   0.1085333826E+01  -0.1800931976E-01  -0.3417701894E-01  -0.1902160338E-01   0.1493518338E-01   0.4142565873E-02
   0.0000000000E+00   0.9998031933E+00   0.1133059016E-03   0.0000000000E+00  -0.3363065345E-04   0.2356065176E-04   0.0000000000E+00  -0.1631760138E-03   0.8974524984E-04   0.1170953654E+01   0.1599809049E+00   0.1564150464E+00  -0.3077882099E-01   0.1973858320E-01   0.1787070844E-01
   0.0000000000E+00   0.0000000000E+00   0.9998827485E+00   0.0000000000E+00   0.0000000000E+00  -0.2452524618E-04   0.0000000000E+00   0.0000000000E+00  -0.9272626751E-04   0.1149264024E+01   0.1610069810E+00   0.1770785999E+00  -0.9363779791E-02  -0.9030147831E-03   0.9091924196E-02
   0.1001026096E+01   0.0000000000E+00   0.9998010598E+00   0.6582870717E-04   0.0000000000E+00   0.3935675648E-06   0.9602677261E-03   0.0000000000E+00  -0.1993337369E-03   0.1083932166E+01  -0.1986263559E-01  -0.3092204389E-01   0.2303494221E-02  -0.5824132833E-02   0.2040077046E-02
   0.1001119440E+01   0.9996314377E+00   0.9998013176E+00   0.7697935940E-04  -0.1958473257E-04   0.4833343524E-06   0.1042460617E-02  -0.3489775270E-03  -0.1991657306E-03   0.1085484378E+01  -0.1831042416E-01  -0.3402646673E-01  -0.1867201094E-01  -0.8187087520E-02   0.1814248739E-02
   0.0000000000E+00   0.9997976311E+00   0.9998838690E+00   0.0000000000E+00  -0.3535794960E-04  -0.2444262723E-04   0.0000000000E+00  -0.1670109010E-03  -0.9168834653E-04   0.1170982531E+01   0.1594464887E+00   0.1569205847E+00  -0.3036705902E-01  -0.5712999439E-02   0.8571946984E-02
   0.2002200000E+01   0.0000000000E+00   0.2784186334E-03   0.1000000000E-03   0.0000000000E+00  -0.2600297059E-04   0.2100000000E-02   0.0000000000E+00   0.3044216040E-03   0.1011630266E+01  -0.2068960984E+00  -0.2257887986E+00  -0.9423100347E-02   0.1030196674E-01   0.1022632967E-03
   0.2002200000E+01   0.9994646861E+00   0.2815988285E-03   0.1000000000E-03  -0.3993792894E-05  -0.2529088683E-04   0.2100000000E-02  -0.5313201216E-03   0.3068897153E-03   0.9964913130E+00  -0.1988714224E+00  -0.2186745217E+00  -0.3042801460E-01   0.1060844394E-01   0.5072884020E-04
   0.2002200000E+01   0.0000000000E+00   0.9997215640E+00   0.1000000000E-03   0.0000000000E+00   0.2599598217E-04   0.2100000000E-02   0.0000000000E+00  -0.3044319449E-03   0.1012059310E+01  -0.2071621549E+00  -0.2259517861E+00  -0.9308231653E-02  -0.1015321944E-01  -0.3529362835E-03
   0.2002200000E+01   0.9994647312E+00   0.9997184163E+00   0.1000000000E-03  -0.3975659525E-05   0.2529671138E-04   0.2100000000E-02  -0.5312931783E-03  -0.3068804004E-03   0.9968434428E+00  -0.1990990218E+00  -0.2187990522E+00  -0.3025596275E-01  -0.1018451521E-01  -0.4044707400E-03
     1     2     3     4     5     6     7     8
     2     9    10     3     6    11    12     7
 VARIABLES = X,Y,Z,DU1,DU2,DU3,U1,U2,U3,S11,S22,S33,S12,S13,S23
 ZONE, T="0.2300D+00" F=FEPOINT, I=   12 J=    2 ET=BRICK
   0.0000000000E+00   0.0000000000E+00   0.0000000000E+00   0.0000000000E+00   0.0000000000E+00   0.0000000000E+00   0.0000000000E+00   0.0000000000E+00   0.0000000000E+00   0.1218607636E+01   0.1558716601E+00   0.1767216096E+00  -0.5911668463E-02   0.3015114404E-01   0.2259575010E-01
   0.1001093883E+01   0.0000000000E+00   0.1960353802E-03   0.6496389440E-04   0.0000000000E+00  -0.1342083898E-05   0.1028918969E-02   0.0000000000E+00   0.1973774641E-03   0.1148251472E+01  -0.6919117671E-02  -0.1950310604E-03   0.7133187605E-02   0.1802426904E-01   0.5320002962E-02
   0.1001196344E+01   0.9996139120E+00   0.1939269463E-03   0.7546220952E-04  -0.1884964056E-04  -0.1949926650E-05   0.1120881521E-02  -0.3672383713E-03   0.1958768730E-03   0.1150157641E+01  -0.5012948744E-02  -0.4007368913E-02  -0.1157564810E-01   0.1239991575E-01   0.5002631562E-02
   0.0000000000E+00   0.9997661947E+00   0.1400078314E-03   0.0000000000E+00  -0.3699865124E-04   0.2670192985E-04   0.0000000000E+00  -0.1968066672E-03   0.1133059016E-03   0.1243500017E+01   0.1549220170E+00   0.1527788723E+00  -0.2474434842E-01   0.1832786659E-01   0.2186258089E-01
   0.0000000000E+00   0.0000000000E+00   0.9998548479E+00   0.0000000000E+00   0.0000000000E+00  -0.2790062479E-04   0.0000000000E+00   0.0000000000E+00  -0.1172515137E-03   0.1218537976E+01   0.1551733212E+00   0.1774896090E+00  -0.5580000152E-02   0.4832664125E-02   0.1109920302E-01
   0.1001089892E+01   0.0000000000E+00   0.9998017241E+00   0.6379535623E-04   0.0000000000E+00   0.6642373989E-06   0.1026096433E-02   0.0000000000E+00  -0.1989401693E-03   0.1148463053E+01  -0.7342279538E-02   0.1654987332E-04   0.7461231013E-02  -0.1261698083E-02   0.2460749573E-02
   0.1001194299E+01   0.9996120571E+00   0.9998021086E+00   0.7485911269E-04  -0.1938063849E-04   0.7909730520E-06   0.1119439977E-02  -0.3685622596E-03  -0.1986823962E-03   0.1150369221E+01  -0.5436110612E-02  -0.3795787979E-02  -0.1108217055E-01  -0.4153230631E-02   0.2143378172E-02
   0.0000000000E+00   0.9997583461E+00   0.9998559955E+00   0.0000000000E+00  -0.3928506055E-04  -0.2787347904E-04   0.0000000000E+00  -0.2023688506E-03  -0.1161309738E-03   0.1243538762E+01   0.1541694749E+00   0.1534926686E+00  -0.2416231644E-01  -0.1086140541E-02   0.1036603382E-01
   0.2002300000E+01   0.0000000000E+00   0.2482720630E-03   0.1000000000E-03   0.0000000000E+00  -0.3014657041E-04   0.2200000000E-02   0.0000000000E+00   0.2784186334E-03   0.1069686831E+01  -0.1774229945E+00  -0.1611900966E+00  -0.5663979945E-02   0.6735053985E-02   0.1096358109E-03
   0.2002300000E+01   0.9994649613E+00   0.2523041458E-03   0.1000000000E-03   0.2752389404E-06  -0.2929468269E-04   0.2200000000E-02  -0.5353139145E-03   0.2815988285E-03   0.1052835658E+01  -0.1684321441E+00  -0.1533297738E+00  -0.2424897139E-01   0.7147015581E-02   0.3820315834E-04
   0.2002300000E+01   0.0000000000E+00   0.9997517001E+00   0.1000000000E-03   0.0000000000E+00   0.3013601833E-04   0.2200000000E-02   0.0000000000E+00  -0.2784359627E-03   0.1070292893E+01  -0.1777974580E+00  -0.1614216948E+00  -0.5502170700E-02  -0.6518400353E-02  -0.4556279713E-03
   0.2002300000E+01   0.9994650337E+00   0.9997477195E+00   0.1000000000E-03   0.3025564925E-06   0.2930314828E-04   0.2200000000E-02  -0.5352688378E-03  -0.2815836890E-03   0.1053333313E+01  -0.1687524045E+00  -0.1535071689E+00  -0.2400665754E-01  -0.6545270045E-02  -0.5270606238E-03
     1     2     3     4     5     6     7     8
     2     9    10     3     6    11    12     7
 VARIABLES = X,Y,Z,DU1,DU2,DU3,U1,U2,U3,S11,S22,S33,S12,S13,S23
 ZONE, T="0.2400D+00" F=FEPOINT, I=   12 J=    2 ET=BRICK
   0.0000000000E+00   0.0000000000E+00   0.0000000000E+00   0.0000000000E+00   0.0000000000E+00   0.0000000000E+00   0.0000000000E+00   0.0000000000E+00   0.0000000000E+00   0.1282179667E+01   0.1442977056E+00   0.1703776125E+00  -0.1879765174E-02   0.3109618945E-01   0.2720239993E-01
   0.1001157277E+01   0.0000000000E+00   0.1948566664E-03   0.6339442599E-04   0.0000000000E+00  -0.1178713775E-05   0.1093882864E-02   0.0000000000E+00   0.1960353802E-03   0.1212689218E+01   0.5730945511E-02   0.3055112343E-01   0.1248885172E-01   0.1638073860E-01   0.6342853693E-02
   0.1001269685E+01   0.9995951366E+00   0.1919666430E-03   0.7334116272E-04  -0.1877543112E-04  -0.1960303361E-05   0.1196343731E-02  -0.3860880119E-03   0.1939269463E-03   0.1214982436E+01   0.8024163217E-02   0.2596468802E-01  -0.3418242486E-02   0.9603893619E-02   0.5907726846E-02
   0.0000000000E+00   0.9997261941E+00   0.1696001672E-03   0.0000000000E+00  -0.4000055736E-04   0.2959233575E-04   0.0000000000E+00  -0.2338053185E-03   0.1400078314E-03   0.1310399004E+01   0.1441210967E+00   0.1423348844E+00  -0.1795750326E-01   0.1677534972E-01   0.2619371135E-01
   0.0000000000E+00   0.0000000000E+00   0.9998237850E+00   0.0000000000E+00   0.0000000000E+00  -0.3106286015E-04   0.0000000000E+00   0.0000000000E+00  -0.1451521385E-03   0.1282081033E+01   0.1433383338E+00   0.1714356178E+00  -0.1422442151E-02   0.1113162594E-01   0.1326934034E-01
   0.1001151770E+01   0.0000000000E+00   0.9998020068E+00   0.6187828650E-04   0.0000000000E+00   0.2827167602E-06   0.1089891789E-02   0.0000000000E+00  -0.1982759320E-03   0.1212979303E+01   0.5150776383E-02   0.3084120800E-01   0.1294051337E-01   0.3730605179E-02   0.2903027133E-02
   0.1001266854E+01   0.9995926016E+00   0.9998025663E+00   0.7255526521E-04  -0.1945545460E-04   0.4576833261E-06   0.1194299089E-02  -0.3879428980E-03  -0.1978914232E-03   0.1215272520E+01   0.7443994088E-02   0.2625477258E-01  -0.2738534470E-02   0.2643294441E-03   0.2467900287E-02
   0.0000000000E+00   0.9997153876E+00   0.9998248817E+00   0.0000000000E+00  -0.4295851274E-04  -0.3111385865E-04   0.0000000000E+00  -0.2416539111E-03  -0.1440044528E-03   0.1310449447E+01   0.1430871864E+00   0.1433183513E+00  -0.1715466487E-01   0.3993449810E-02   0.1226065175E-01
   0.2002400000E+01   0.0000000000E+00   0.2154522417E-03   0.1000000000E-03   0.0000000000E+00  -0.3281982131E-04   0.2300000000E-02   0.0000000000E+00   0.2482720630E-03   0.1133218671E+01  -0.1421333377E+00  -0.8999774391E-01  -0.1538477403E-02   0.2821926502E-02   0.1127436639E-03
   0.2002400000E+01   0.9994686773E+00   0.2204883694E-03   0.1000000000E-03   0.3715947154E-05  -0.3181577639E-04   0.2300000000E-02  -0.5350386756E-03   0.2523041458E-03   0.1114748562E+01  -0.1322075009E+00  -0.8145347155E-01  -0.1727492773E-01   0.3365460995E-02   0.1624055709E-04
   0.2002400000E+01   0.0000000000E+00   0.9997845044E+00   0.1000000000E-03   0.0000000000E+00   0.3280436117E-04   0.2300000000E-02   0.0000000000E+00  -0.2482999444E-03   0.1134054099E+01  -0.1426475548E+00  -0.9031895475E-01  -0.1316092393E-02  -0.2513776833E-02  -0.5780385747E-03
   0.2002400000E+01   0.9994687896E+00   0.9997795471E+00   0.1000000000E-03   0.3755865552E-05   0.3182767202E-04   0.2300000000E-02  -0.5349662813E-03  -0.2522805408E-03   0.1115434913E+01  -0.1326471795E+00  -0.8170014397E-01  -0.1694196536E-01  -0.2531767447E-02  -0.6745416815E-03
     1     2     3     4     5     6     7     8
     2     9    10     3     6    11    12     7
 VARIABLES = X,Y,Z,DU1,DU2,DU3,U1,U2,U3,S11,S22,S33,S12,S13,S23
 ZONE, T="0.2500D+00" F=FEPOINT, I=   12 J=    2 ET=BRICK
   0.0000000000E+00   0.0000000000E+00   0.0000000000E+00   0.0000000000E+00   0.0000000000E+00   0.0000000000E+00   0.0000000000E+00   0.0000000000E+00   0.0000000000E+00   0.1339948957E+01   0.1267476597E+00   0.1572427306E+00   0.2365930897E-02   0.3219127367E-01   0.3212905207E-01
   0.1001219399E+01   0.0000000000E+00   0.1944248420E-03   0.6212182088E-04   0.0000000000E+00  -0.4318243560E-06   0.1157277290E-02   0.0000000000E+00   0.1948566664E-03   0.1276000125E+01   0.1710958375E-01   0.5913547886E-01   0.1796672401E-01   0.1465834658E-01   0.7412095586E-02
   0.1001340858E+01   0.9995761928E+00   0.1905512577E-03   0.7117331972E-04  -0.1894375198E-04  -0.1415385279E-05   0.1269684893E-02  -0.4048634430E-03   0.1919666430E-03   0.1278706170E+01   0.1981562926E-01   0.5372338784E-01   0.5191824488E-02   0.6646909172E-02   0.6828715283E-02
   0.0000000000E+00   0.9996836940E+00   0.2016819655E-03   0.0000000000E+00  -0.4250011572E-04   0.3208179834E-04   0.0000000000E+00  -0.2738058758E-03   0.1696001672E-03   0.1371493421E+01   0.1275505006E+00   0.1248954254E+00  -0.1063895003E-01   0.1516293480E-01   0.3077173158E-01
   0.0000000000E+00   0.0000000000E+00   0.9997899207E+00   0.0000000000E+00   0.0000000000E+00  -0.3386433732E-04   0.0000000000E+00   0.0000000000E+00  -0.1762149986E-03   0.1339812256E+01   0.1254586897E+00   0.1586684016E+00   0.2982751587E-02   0.1783052949E-01   0.1555397901E-01
   0.1001211965E+01   0.0000000000E+00   0.9998012773E+00   0.6019519106E-04   0.0000000000E+00  -0.7294430637E-06   0.1151770076E-02   0.0000000000E+00  -0.1979932152E-03   0.1276389045E+01   0.1633174334E-01   0.5952439906E-01   0.1857496351E-01   0.9004722035E-02   0.3353027317E-02
   0.1001337024E+01   0.9995728059E+00   0.9998020735E+00   0.7016995251E-04  -0.1979576027E-04  -0.4927502513E-06   0.1266854354E-02  -0.4073983527E-03  -0.1974337398E-03   0.1279095090E+01   0.1903778885E-01   0.5411230804E-01   0.6107556823E-02   0.4929161901E-02   0.2769647015E-02
   0.0000000000E+00   0.9996691403E+00   0.9997908641E+00   0.0000000000E+00  -0.4624723559E-04  -0.3401756833E-04   0.0000000000E+00  -0.2846124239E-03  -0.1751183114E-03   0.1371557218E+01   0.1261612817E+00   0.1262208475E+00  -0.9555682005E-02   0.9382317923E-02   0.1419665853E-01
   0.2002500000E+01   0.0000000000E+00   0.1815311978E-03   0.1000000000E-03   0.0000000000E+00  -0.3392104388E-04   0.2400000000E-02   0.0000000000E+00   0.2154522417E-03   0.1200135158E+01  -0.1035247013E+00  -0.1605942904E-01   0.2825893731E-02  -0.1312208539E-02   0.1102863525E-03
   0.2002500000E+01   0.9994748990E+00   0.1877340943E-03   0.1000000000E-03   0.6221747392E-05  -0.3275427510E-04   0.2400000000E-02  -0.5313227284E-03   0.2204883694E-03   0.1180195118E+01  -0.9272311779E-01  -0.6920972608E-02  -0.9719024387E-02  -0.6074911367E-03  -0.1706276870E-04
   0.2002500000E+01   0.0000000000E+00   0.9998184034E+00   0.1000000000E-03   0.0000000000E+00   0.3389898737E-04   0.2400000000E-02   0.0000000000E+00  -0.2154955832E-03   0.1201261638E+01  -0.1042152908E+00  -0.1649532028E-01   0.3124805401E-02   0.1741286546E-02  -0.7212771751E-03
   0.2002500000E+01   0.9994750681E+00   0.9998123176E+00   0.1000000000E-03   0.6278524741E-05   0.3277047717E-04   0.2400000000E-02  -0.5312104158E-03  -0.2204528687E-03   0.1181121101E+01  -0.9331345839E-01  -0.7256614968E-02  -0.9271574385E-02   0.1737631202E-02  -0.8486262962E-03
     1     2     3     4     5     6     7     8
     2     9    10     3     6    11    12     7
 VARIABLES = X,Y,Z,DU1,DU2,DU3,U1,U2,U3,S11,S22,S33,S12,S13,S23
 ZONE, T="0.2600D+00" F=FEPOINT, I=   12 J=    2 ET=BRICK
   0.0000000000E+00   0.0000000000E+00   0.0000000000E+00   0.0000000000E+00   0.0000000000E+00   0.0000000000E+00   0.0000000000E+00   0.0000000000E+00   0.0000000000E+00   0.1392149261E+01   0.1035078664E+00   0.1374328313E+00   0.6682395749E-02   0.3346962951E-01   0.3726970866E-01
   0.1001280636E+01   0.0000000000E+00   0.1952571325E-03   0.6123673888E-04   0.0000000000E+00   0.8322904978E-06   0.1219399111E-02   0.0000000000E+00   0.1944248420E-03   0.1337197265E+01   0.2607459557E-01   0.8371938492E-01   0.2338308163E-01   0.1293483727E-01   0.8497102153E-02
   0.1001409902E+01   0.9995568764E+00   0.1901704443E-03   0.6904360120E-04  -0.1931637133E-04  -0.3808133496E-06   0.1340858213E-02  -0.4238071950E-03   0.1905512577E-03   0.1340332399E+01   0.2920972946E-01   0.7744911712E-01   0.1397231744E-01   0.3632675120E-02   0.7730767276E-02
   0.0000000000E+00   0.9996393237E+00   0.2357057155E-03   0.0000000000E+00  -0.4437026123E-04   0.3402374998E-04   0.0000000000E+00  -0.3163059916E-03   0.2016819655E-03   0.1426929862E+01   0.1054946226E+00   0.1006654734E+00  -0.3032131582E-02   0.1357014570E-01   0.3547979138E-01
   0.0000000000E+00   0.0000000000E+00   0.9997537601E+00   0.0000000000E+00   0.0000000000E+00  -0.3616055511E-04   0.0000000000E+00   0.0000000000E+00  -0.2100793360E-03   0.1391963429E+01   0.1018108650E+00   0.1393156645E+00   0.7497792449E-02   0.2474314220E-01   0.1789265165E-01
   0.1001270800E+01   0.0000000000E+00   0.9997989668E+00   0.5883512535E-04   0.0000000000E+00  -0.2310505728E-05   0.1211965267E-02   0.0000000000E+00  -0.1987226583E-03   0.1337708155E+01   0.2505281573E-01   0.8423027483E-01   0.2418580987E-01   0.1439594471E-01   0.3794401306E-02
   0.1001404811E+01   0.9995524437E+00   0.9998000773E+00   0.6778649939E-04  -0.2036222858E-04  -0.1996218079E-05   0.1337024307E-02  -0.4271941129E-03  -0.1979264901E-03   0.1340843289E+01   0.2818794963E-01   0.7796000703E-01   0.1518141225E-01   0.9691318034E-02   0.3028066429E-02
   0.0000000000E+00   0.9996201148E+00   0.9997544239E+00   0.0000000000E+00  -0.4902551653E-04  -0.3644025043E-04   0.0000000000E+00  -0.3308596595E-03  -0.2091358798E-03   0.1427008271E+01   0.1036655007E+00   0.1024161861E+00  -0.1599519051E-02   0.1492047885E-01   0.1610273436E-01
   0.2002600000E+01   0.0000000000E+00   0.1481005813E-03   0.1000000000E-03   0.0000000000E+00  -0.3343061648E-04   0.2500000000E-02   0.0000000000E+00   0.1815311978E-03   0.1268256793E+01  -0.6413209987E-01   0.5676784041E-01   0.7289922071E-02  -0.5531289886E-02   0.1010787478E-03
   0.2002600000E+01   0.9994826423E+00   0.1556411790E-03   0.1000000000E-03   0.7743315799E-05  -0.3209291529E-04   0.2500000000E-02  -0.5251009810E-03   0.1877340943E-03   0.1247052172E+01  -0.5254287495E-01   0.6638323600E-01  -0.1817078968E-02  -0.4632492024E-02  -0.6337225964E-04
   0.2002600000E+01   0.0000000000E+00   0.9998518033E+00   0.1000000000E-03   0.0000000000E+00   0.3339988930E-04   0.2500000000E-02   0.0000000000E+00  -0.1815965959E-03   0.1269745537E+01  -0.6504092291E-01   0.5618791938E-01   0.7683620207E-02   0.6117412319E-02  -0.8858359124E-03
   0.2002600000E+01   0.9994828902E+00   0.9998444320E+00   0.1000000000E-03   0.7822134843E-05   0.3211434158E-04   0.2500000000E-02  -0.5249318910E-03  -0.1876823916E-03   0.1248276675E+01  -0.5331957744E-01   0.6593543553E-01  -0.1227863544E-02   0.6134460655E-02  -0.1050286920E-02
     1     2     3     4     5     6     7     8
     2     9    10     3     6    11    12     7
 VARIABLES = X,Y,Z,DU1,DU2,DU3,U1,U2,U3,S11,S22,S33,S12,S13,S23
 ZONE, T="0.2700D+00" F=FEPOINT, I=   12 J=    2 ET=BRICK
   0.0000000000E+00   0.0000000000E+00   0.0000000000E+00   0.0000000000E+00   0.0000000000E+00   0.0000000000E+00   0.0000000000E+00   0.0000000000E+00   0.0000000000E+00   0.1439311682E+01   0.7518917941E-01   0.1114560777E+00   0.1092081642E-01   0.3494620891E-01   0.4249665734E-01
   0.1001341431E+01   0.0000000000E+00   0.1977700862E-03   0.6079553733E-04   0.0000000000E+00   0.2512953612E-05   0.1280635849E-02   0.0000000000E+00   0.1952571325E-03   0.1395468588E+01   0.3170372864E-01   0.1027758056E+00   0.2854904176E-01   0.1128139951E-01   0.9562429370E-02
   0.1001476916E+01   0.9995370424E+00   0.1912151879E-03   0.6701415628E-04  -0.1983399328E-04   0.1044743610E-05   0.1409901814E-02  -0.4431235663E-03   0.1901704443E-03   0.1399037550E+01   0.3527269032E-01   0.9563788220E-01   0.2262932817E-01   0.6637842775E-03   0.8574517756E-02
   0.0000000000E+00   0.9995938234E+00   0.2709894573E-03   0.0000000000E+00  -0.4550038649E-04   0.3528374173E-04   0.0000000000E+00  -0.3606762528E-03   0.2357057155E-03   0.1477145595E+01   0.7855433728E-01   0.7025700721E-01   0.4607254886E-02   0.1206962015E-01   0.4017968932E-01
   0.0000000000E+00   0.0000000000E+00   0.9997159414E+00   0.0000000000E+00   0.0000000000E+00  -0.3781866937E-04   0.0000000000E+00   0.0000000000E+00  -0.2462398911E-03   0.1439063477E+01   0.7299631408E-01   0.1138971484E+00   0.1197901815E-01   0.3166739465E-01   0.2021454316E-01
   0.1001328655E+01   0.0000000000E+00   0.9997946032E+00   0.5785502994E-04   0.0000000000E+00  -0.4363667324E-05   0.1270800392E-02   0.0000000000E+00  -0.2010331640E-03   0.1396127196E+01   0.3038651315E-01   0.1034344133E+00   0.2958897634E-01   0.1972952718E-01   0.4208986848E-02
   0.1001470277E+01   0.9995313504E+00   0.9997961238E+00   0.6546645706E-04  -0.2109322880E-04  -0.3953466945E-05   0.1404810806E-02  -0.4475563415E-03  -0.1999227082E-03   0.1399696158E+01   0.3395547483E-01   0.9629648994E-01   0.2419647741E-01   0.1439353945E-01   0.3221075234E-02
   0.0000000000E+00   0.9995689353E+00   0.9997161762E+00   0.0000000000E+00  -0.5117956622E-04  -0.3824766859E-04   0.0000000000E+00  -0.3798851760E-03  -0.2455761302E-03   0.1477239203E+01   0.7619056532E-01   0.7252717129E-01   0.6467298335E-02   0.2043784977E-01   0.1789757515E-01
   0.2002700000E+01   0.0000000000E+00   0.1166916001E-03   0.1000000000E-03   0.0000000000E+00  -0.3140898119E-04   0.2600000000E-02   0.0000000000E+00   0.1481005813E-03   0.1335464441E+01  -0.2636738351E-01   0.1248422480E+00   0.1170851236E-01  -0.9694133804E-02   0.8417439390E-04
   0.2002700000E+01   0.9994909304E+00   0.1257461203E-03   0.1000000000E-03   0.8288047226E-05  -0.2989505870E-04   0.2600000000E-02  -0.5173576652E-03   0.1556411790E-03   0.1313255674E+01  -0.1410739618E-01   0.1347910281E+00   0.6182646720E-02  -0.8565495392E-02  -0.1239349596E-03
   0.2002700000E+01   0.0000000000E+00   0.9998831704E+00   0.1000000000E-03   0.0000000000E+00   0.3136708638E-04   0.2600000000E-02   0.0000000000E+00  -0.1481967066E-03   0.1337396032E+01  -0.2754128801E-01   0.1240845622E+00   0.1221745991E-01   0.1048093581E-01  -0.1071429236E-02
   0.2002700000E+01   0.9994912853E+00   0.9998743545E+00   0.1000000000E-03   0.8395074579E-05   0.2992259660E-04   0.2600000000E-02  -0.5171097562E-03  -0.1555680500E-03   0.1314845451E+01  -0.1511039405E-01   0.1342042489E+00   0.6944181851E-02   0.1052578533E-01  -0.1279538590E-02
     1     2     3     4     5     6     7     8
     2     9    10     3     6    11    12     7
 VARIABLES = X,Y,Z,DU1,DU2,DU3,U1,U2,U3,S11,S22,S33,S12,S13,S23
 ZONE, T="0.2800D+00" F=FEPOINT, I=   12 J=    2 ET=BRICK
   0.0000000000E+00   0.0000000000E+00   0.0000000000E+00   0.0000000000E+00   0.0000000000E+00   0.0000000000E+00   0.0000000000E+00   0.0000000000E+00   0.0000000000E+00   0.1482232106E+01   0.4271128905E-01   0.8020434578E-01   0.1493275631E-01   0.3661553936E-01   0.4766466555E-01
   0.1001402250E+01   0.0000000000E+00   0.2022527591E-03   0.6081848260E-04   0.0000000000E+00   0.4482672912E-05   0.1341431387E-02   0.0000000000E+00   0.1977700862E-03   0.1450230040E+01   0.3335984833E-01   0.1151846938E+00   0.3327806373E-01   0.9758917957E-02   0.1056916596E-01
   0.1001542039E+01   0.9995166209E+00   0.1939524731E-03   0.6512281140E-04  -0.2042152260E-04   0.2737285167E-05   0.1476915970E-02  -0.4629575596E-03   0.1912151879E-03   0.1454224376E+01   0.3735418517E-01   0.1071960201E+00   0.3086944139E-01  -0.2163060393E-02   0.9317634490E-02
   0.0000000000E+00   0.9995480202E+00   0.3067373994E-03   0.0000000000E+00  -0.4580321045E-04   0.3574794215E-04   0.0000000000E+00  -0.4061766393E-03   0.2709894573E-03   0.1522838975E+01   0.4763147380E-01   0.3467729105E-01   0.1202216920E-01   0.1072323939E-01   0.4471654782E-01
   0.0000000000E+00   0.0000000000E+00   0.9996772155E+00   0.0000000000E+00   0.0000000000E+00  -0.3872592793E-04   0.0000000000E+00   0.0000000000E+00  -0.2840585604E-03   0.1481905916E+01   0.3992626626E-01   0.8331555843E-01   0.1628284562E-01   0.3839331549E-01   0.2244104581E-01
   0.1001385934E+01   0.0000000000E+00   0.9997878388E+00   0.5727824401E-04   0.0000000000E+00  -0.6764401949E-05   0.1328655422E-02   0.0000000000E+00  -0.2053968313E-03   0.1451064394E+01   0.3169113970E-01   0.1160190482E+00   0.3460236766E-01   0.2482782583E-01   0.4577660693E-02
   0.1001533525E+01   0.9995094404E+00   0.9997898863E+00   0.6324821493E-04  -0.2190999955E-04  -0.6237526375E-05   0.1470277263E-02  -0.4686495703E-03  -0.2038761751E-03   0.1455058731E+01   0.3568547655E-01   0.1080303745E+00   0.3286617792E-01   0.1887779263E-01   0.3326129223E-02
   0.0000000000E+00   0.9995163214E+00   0.9996768523E+00   0.0000000000E+00  -0.5261383424E-04  -0.3932394052E-04   0.0000000000E+00  -0.4310647422E-03  -0.2838237988E-03   0.1522947366E+01   0.4462916058E-01   0.3757121328E-01   0.1439641211E-01   0.2576118451E-01   0.1949292809E-01
   0.2002800000E+01   0.0000000000E+00   0.8870146637E-04   0.1000000000E-03   0.0000000000E+00  -0.2799013375E-04   0.2700000000E-02   0.0000000000E+00   0.1166916001E-03   0.1399837178E+01   0.7625471346E-02   0.1849387735E+00   0.1593668591E-01  -0.1366030093E-01   0.5899630861E-04
   0.2002800000E+01   0.9994988465E+00   0.9944796569E-04   0.1000000000E-03   0.7916129002E-05  -0.2629815461E-04   0.2700000000E-02  -0.5090696180E-03   0.1257461203E-03   0.1376936614E+01   0.2041159208E-01   0.1950532173E+00   0.1403002834E-01  -0.1226382893E-01  -0.1993909051E-03
   0.2002800000E+01   0.0000000000E+00   0.9999111045E+00   0.1000000000E-03   0.0000000000E+00   0.2793412308E-04   0.2700000000E-02   0.0000000000E+00  -0.1168296202E-03   0.1402301038E+01   0.6135154222E-02   0.1839652308E+00   0.1658333319E-01   0.1469973869E-01  -0.1276842182E-02
   0.2002800000E+01   0.9994993439E+00   0.9999006871E+00   0.1000000000E-03   0.8058541483E-05   0.2633255916E-04   0.2700000000E-02  -0.5087146816E-03  -0.1256454534E-03   0.1378965893E+01   0.1913856538E-01   0.1942969650E+00   0.1499738723E-01   0.1477993199E-01  -0.1535229396E-02
     1     2     3     4     5     6     7     8
     2     9    10     3     6    11    12     7
 VARIABLES = X,Y,Z,DU1,DU2,DU3,U1,U2,U3,S11,S22,S33,S12,S13,S23
 ZONE, T="0.2900D+00" F=FEPOINT, I=   12 J=    2 ET=BRICK
   0.0000000000E+00   0.0000000000E+00   0.0000000000E+00   0.0000000000E+00   0.0000000000E+00   0.0000000000E+00   0.0000000000E+00   0.0000000000E+00   0.0000000000E+00   0.1521923120E+01   0.7266794940E-02   0.4491917734E-01   0.1857623205E-01   0.3845110074E-01   0.5261652496E-01
   0.1001463540E+01   0.0000000000E+00   0.2088491184E-03   0.6129003696E-04   0.0000000000E+00   0.6596359328E-05   0.1402249869E-02   0.0000000000E+00   0.2022527591E-03   0.1501161442E+01   0.3073407436E-01   0.1202980490E+00   0.3739332363E-01   0.8415082031E-02   0.1147662477E-01
   0.1001605422E+01   0.9994956265E+00   0.1985092346E-03   0.6338312806E-04  -0.2099443159E-04   0.4556761507E-05   0.1542038782E-02  -0.4833790822E-03   0.1939524731E-03   0.1505558288E+01   0.3513092092E-01   0.1115043559E+00   0.3841171038E-01  -0.4761294809E-02   0.9916736428E-02
   0.0000000000E+00   0.9995027993E+00   0.3420683626E-03   0.0000000000E+00  -0.4522080771E-04   0.3533096324E-04   0.0000000000E+00  -0.4519798497E-03   0.3067373994E-03   0.1564924752E+01   0.1389349045E-01  -0.4709149533E-02   0.1896499517E-01   0.9579116993E-02   0.4892486907E-01
   0.0000000000E+00   0.0000000000E+00   0.9996384181E+00   0.0000000000E+00   0.0000000000E+00  -0.3879744316E-04   0.0000000000E+00   0.0000000000E+00  -0.3227844884E-03   0.1521500809E+01   0.3786294664E-02   0.4882198884E-01   0.2027161817E-01   0.4471149160E-01   0.2448901377E-01
   0.1001443029E+01   0.0000000000E+00   0.9997784693E+00   0.5709500422E-04   0.0000000000E+00  -0.9369471803E-05   0.1385933666E-02   0.0000000000E+00  -0.2121612333E-03   0.1502201367E+01   0.2865422324E-01   0.1213379746E+00   0.3905301165E-01   0.2951763610E-01   0.4881354933E-02
   0.1001594673E+01   0.9994867174E+00   0.9997811835E+00   0.6114718208E-04  -0.2272298713E-04  -0.8702815437E-05   0.1533525478E-02  -0.4905595699E-03  -0.2101137015E-03   0.1506598214E+01   0.3305106980E-01   0.1125442815E+00   0.4091554870E-01   0.2299182079E-01   0.3321466594E-02
   0.0000000000E+00   0.9994630647E+00   0.9996372731E+00   0.0000000000E+00  -0.5325668219E-04  -0.3957918927E-04   0.0000000000E+00  -0.4836785765E-03  -0.3231477393E-03   0.1565046132E+01   0.1014114429E-01  -0.1078183910E-02   0.2194799850E-01   0.3072118732E-01   0.2079735788E-01
   0.2002900000E+01   0.0000000000E+00   0.6533027653E-04   0.1000000000E-03   0.0000000000E+00  -0.2337118984E-04   0.2800000000E-02   0.0000000000E+00   0.8870146637E-04   0.1459770714E+01   0.3609079916E-01   0.2344165244E+00   0.1983547937E-01  -0.1729581394E-01   0.2546689398E-04
   0.2002900000E+01   0.9995055802E+00   0.7794470455E-04   0.1000000000E-03   0.6733644580E-05  -0.2150326113E-04   0.2800000000E-02  -0.5011534890E-03   0.9944796569E-04   0.1436537600E+01   0.4923262069E-01   0.2445078172E+00   0.2148348974E-01  -0.1559212152E-01  -0.2895876894E-03
   0.2002900000E+01   0.0000000000E+00   0.9999344021E+00   0.1000000000E-03   0.0000000000E+00   0.2329764536E-04   0.2800000000E-02   0.0000000000E+00  -0.8889549711E-04   0.1462864166E+01   0.3422901880E-01   0.2331848532E+00   0.2064393164E-01   0.1864890334E-01  -0.1499797478E-02
   0.2002900000E+01   0.9995062635E+00   0.9999222321E+00   0.1000000000E-03   0.6919613930E-05   0.2154501904E-04   0.2800000000E-02  -0.5006561401E-03  -0.9931289423E-04   0.1439087360E+01   0.4764268621E-01   0.2435479919E+00   0.2269262542E-01   0.1877203934E-01  -0.1814852061E-02
     1     2     3     4     5     6     7     8
     2     9    10     3     6    11    12     7
 VARIABLES = X,Y,Z,DU1,DU2,DU3,U1,U2,U3,S11,S22,S33,S12,S13,S23
 ZONE, T="0.3000D+00" F=FEPOINT, I=   12 J=    2 ET=BRICK
   0.0000000000E+00   0.0000000000E+00   0.0000000000E+00   0.0000000000E+00   0.0000000000E+00   0.0000000000E+00   0.0000000000E+00   0.0000000000E+00   0.0000000000E+00   0.1559552940E+01  -0.2973342457E-01   0.7133688301E-02   0.2172142031E-01   0.4040627914E-01   0.5718970637E-01
   0.1001525701E+01   0.0000000000E+00   0.2175506413E-03   0.6216112900E-04   0.0000000000E+00   0.8701522869E-05   0.1463539906E-02   0.0000000000E+00   0.2088491184E-03   0.1548223130E+01   0.2386440160E-01   0.1179710771E+00   0.4073462871E-01   0.7282503275E-02   0.1224429818E-01
   0.1001667208E+01   0.9994741607E+00   0.2048664941E-03   0.6178598643E-04  -0.2146574400E-04   0.6357259443E-05   0.1605421910E-02  -0.5043735138E-03   0.1985092346E-03   0.1552984537E+01   0.2862580861E-01   0.1084482631E+00   0.4499888640E-01  -0.7058013272E-02   0.1032957392E-01
   0.0000000000E+00   0.9994590700E+00   0.3760508416E-03   0.0000000000E+00  -0.4372938869E-04   0.3398247893E-04   0.0000000000E+00  -0.4972006574E-03   0.3420683626E-03   0.1604476609E+01  -0.2128012562E-01  -0.4624327939E-01   0.2520765455E-01   0.8669604173E-02   0.5263570961E-01
   0.0000000000E+00   0.0000000000E+00   0.9996004353E+00   0.0000000000E+00   0.0000000000E+00  -0.3798276875E-04   0.0000000000E+00   0.0000000000E+00  -0.3615819315E-03   0.1559013728E+01  -0.3401781553E-01   0.1195729085E-01   0.2381907454E-01   0.5042166817E-01   0.2627457305E-01
   0.1001500293E+01   0.0000000000E+00   0.9997664424E+00   0.5726481611E-04   0.0000000000E+00  -0.1202694101E-04   0.1443028671E-02   0.0000000000E+00  -0.2215307051E-03   0.1549499613E+01   0.2131143591E-01   0.1192475600E+00   0.4278373552E-01   0.3363738632E-01   0.5102187669E-02
   0.1001653830E+01   0.9994632786E+00   0.9997699882E+00   0.5915744561E-04  -0.2343887315E-04  -0.1119526735E-04   0.1594672660E-02  -0.5132825570E-03  -0.2188165169E-03   0.1554261020E+01   0.2607284292E-01   0.1097247459E+00   0.4809210766E-01   0.2659540815E-01   0.3187463406E-02
   0.0000000000E+00   0.9994099997E+00   0.9995983170E+00   0.0000000000E+00  -0.5306504467E-04  -0.3895609674E-04   0.0000000000E+00  -0.5369352587E-03  -0.3627269286E-03   0.1604607392E+01  -0.2589951401E-01  -0.4175467426E-01   0.2890046677E-01   0.3515947724E-01   0.2172057629E-01
   0.2003000000E+01   0.0000000000E+00   0.4753144382E-04   0.1000000000E-03   0.0000000000E+00  -0.1779883271E-04   0.2900000000E-02   0.0000000000E+00   0.6533027653E-04   0.1514069964E+01   0.5775096496E-01   0.2713430854E+00   0.2327746731E-01  -0.2047845845E-01  -0.1587256405E-04
   0.2003000000E+01   0.9995104634E+00   0.6218327290E-04   0.1000000000E-03   0.4883285390E-05  -0.1576143165E-04   0.2900000000E-02  -0.4944198444E-03   0.7794470455E-04   0.1490903703E+01   0.7105507425E-01   0.2812052366E+00   0.2831974847E-01  -0.1842780885E-01  -0.3934114046E-03
   0.2003000000E+01   0.0000000000E+00   0.9999521060E+00   0.1000000000E-03   0.0000000000E+00   0.1770386053E-04   0.2900000000E-02   0.0000000000E+00  -0.6559785175E-04   0.1517896866E+01   0.5545997513E-01   0.2698071732E+00   0.2427303442E-01   0.2221591862E-01  -0.1736851598E-02
   0.2003000000E+01   0.9995113854E+00   0.9999380427E+00   0.1000000000E-03   0.5121913397E-05   0.1581058840E-04   0.2900000000E-02  -0.4937365262E-03  -0.7776787520E-04   0.1494060610E+01   0.6909908184E-01   0.2800043219E+00   0.2980838649E-01   0.2238916093E-01  -0.2114390439E-02
     1     2     3     4     5     6     7     8
     2     9    10     3     6    11    12     7
 VARIABLES = X,Y,Z,DU1,DU2,DU3,U1,U2,U3,S11,S22,S33,S12,S13,S23
 ZONE, T="0.3100D+00" F=FEPOINT, I=   12 J=    2 ET=BRICK
   0.0000000000E+00   0.0000000000E+00   0.0000000000E+00   0.0000000000E+00   0.0000000000E+00   0.0000000000E+00   0.0000000000E+00   0.0000000000E+00   0.0000000000E+00   0.1596374648E+01  -0.6673068737E-01  -0.3140646701E-01   0.2425573874E-01   0.4241684118E-01   0.6122380149E-01
   0.1001589054E+01   0.0000000000E+00   0.2281993684E-03   0.6335321363E-04   0.0000000000E+00   0.1064872709E-04   0.1525701035E-02   0.0000000000E+00   0.2175506413E-03   0.1591652706E+01   0.1312908675E-01   0.1085582901E+00   0.4316456912E-01   0.6377918901E-02   0.1283397844E-01
   0.1001727510E+01   0.9994524076E+00   0.2128638592E-03   0.6030253112E-04  -0.2175311870E-04   0.7997365114E-05   0.1667207896E-02  -0.5258392578E-03   0.2048664941E-03   0.1596725594E+01   0.1820197446E-01   0.9841251471E-01   0.5040739864E-01  -0.8996602016E-02   0.1051735937E-01
   0.0000000000E+00   0.9994177275E+00   0.4077430008E-03   0.0000000000E+00  -0.4134248073E-04   0.3169215928E-04   0.0000000000E+00  -0.5409300461E-03   0.3760508416E-03   0.1642660143E+01  -0.5636693083E-01  -0.8805571832E-01   0.3055060706E-01   0.8010396088E-02   0.5568462454E-01
   0.0000000000E+00   0.0000000000E+00   0.9995641645E+00   0.0000000000E+00   0.0000000000E+00  -0.3627080539E-04   0.0000000000E+00   0.0000000000E+00  -0.3995647003E-03   0.1595695050E+01  -0.7193006527E-01  -0.2552749100E-01   0.2681519511E-01   0.5534109071E-01   0.2771729756E-01
   0.1001558014E+01   0.0000000000E+00   0.9997518559E+00   0.5772048872E-04   0.0000000000E+00  -0.1458648310E-04   0.1500293487E-02   0.0000000000E+00  -0.2335576461E-03   0.1593197119E+01   0.1004026133E-01   0.1101027028E+00   0.4565908495E-01   0.3704385746E-01   0.5224646871E-02
   0.1001711085E+01   0.9994393108E+00   0.9997564255E+00   0.5725473370E-04  -0.2396777975E-04  -0.1356275897E-04   0.1653830106E-02  -0.5367214301E-03  -0.2300117843E-03   0.1598270006E+01   0.1511314904E-01   0.9995692742E-01   0.5417548743E-01   0.2956607063E-01   0.2908027807E-02
   0.0000000000E+00   0.9993579719E+00   0.9995608821E+00   0.0000000000E+00  -0.5202775764E-04  -0.3743489674E-04   0.0000000000E+00  -0.5900003033E-03  -0.4016830253E-03   0.1642794507E+01  -0.6197328965E-01  -0.8258372324E-01   0.3505904828E-01   0.3893508347E-01   0.2217812061E-01
   0.2003100000E+01   0.0000000000E+00   0.3597784336E-04   0.1000000000E-03   0.0000000000E+00  -0.1155360046E-04   0.3000000000E-02   0.0000000000E+00   0.4753144382E-04   0.1562011230E+01   0.7186117207E-01   0.2945702697E+00   0.2615166126E-01  -0.2310242927E-01  -0.6376289487E-04
   0.2003100000E+01   0.9995129968E+00   0.5282534698E-04   0.1000000000E-03   0.2533369082E-05  -0.9357925914E-05   0.3000000000E-02  -0.4895365590E-03   0.6218327290E-04   0.1539343116E+01   0.8511479595E-01   0.3039847602E+00   0.3434245199E-01  -0.2066596878E-01  -0.5086478571E-03
   0.2003100000E+01   0.0000000000E+00   0.9999635388E+00   0.1000000000E-03   0.0000000000E+00   0.1143283793E-04   0.3000000000E-02   0.0000000000E+00  -0.4789399122E-04   0.1566680203E+01   0.6908180075E-01   0.2926806683E+00   0.2736029378E-01   0.2530519830E-01  -0.1983329611E-02
   0.2003100000E+01   0.9995142200E+00   0.9999474566E+00   0.1000000000E-03   0.2834566524E-05   0.9413874713E-05   0.3000000000E-02  -0.4886146128E-03  -0.6195728680E-04   0.1543198127E+01   0.8274240556E-01   0.3025021397E+00   0.3614924558E-01   0.2553468913E-01  -0.2428214574E-02
     1     2     3     4     5     6     7     8
     2     9    10     3     6    11    12     7
 VARIABLES = X,Y,Z,DU1,DU2,DU3,U1,U2,U3,S11,S22,S33,S12,S13,S23
 ZONE, T="0.3200D+00" F=FEPOINT, I=   12 J=    2 ET=BRICK
   0.0000000000E+00   0.0000000000E+00   0.0000000000E+00   0.0000000000E+00   0.0000000000E+00   0.0000000000E+00   0.0000000000E+00   0.0000000000E+00   0.0000000000E+00   0.1633649798E+01  -0.1021008305E+00  -0.6883848083E-01   0.2608808335E-01   0.4440476467E-01   0.6456836220E-01
   0.1001653818E+01   0.0000000000E+00   0.2405009525E-03   0.6476384026E-04   0.0000000000E+00   0.1230158414E-04   0.1589054249E-02   0.0000000000E+00   0.2281993684E-03   0.1631942660E+01  -0.7841514941E-03   0.9287580226E-01   0.4457364942E-01   0.5702483951E-02   0.1321192680E-01
   0.1001786399E+01   0.9994306221E+00   0.2222138418E-03   0.5888824611E-04  -0.2178552074E-04   0.9349982586E-05   0.1727510427E-02  -0.5475923765E-03   0.2128638592E-03   0.1637259439E+01   0.4532627606E-02   0.8224224406E-01   0.5445565804E-01  -0.1053838908E-01   0.1044711980E-01
   0.0000000000E+00   0.9993796152E+00   0.4362355371E-03   0.0000000000E+00  -0.3811224569E-04   0.2849253627E-04   0.0000000000E+00  -0.5822725269E-03   0.4077430008E-03   0.1680660114E+01  -0.8978215415E-01  -0.1281674728E+00   0.3483034563E-01   0.7600748330E-02   0.5791996474E-01
   0.0000000000E+00   0.0000000000E+00   0.9995304718E+00   0.0000000000E+00   0.0000000000E+00  -0.3369265183E-04   0.0000000000E+00   0.0000000000E+00  -0.4358355057E-03   0.1632803616E+01  -0.1083261365E+00  -0.6176699198E-01   0.2917021877E-01   0.5931219889E-01   0.2874452808E-01
   0.1001616388E+01   0.0000000000E+00   0.9997349466E+00   0.5837354173E-04   0.0000000000E+00  -0.1690927258E-04   0.1558013975E-02   0.0000000000E+00  -0.2481441292E-03   0.1633785865E+01  -0.4470560825E-02   0.9471900692E-01   0.4757024035E-01   0.3961812140E-01   0.5236758145E-02
   0.1001766485E+01   0.9994150806E+00   0.9997407603E+00   0.5540044559E-04  -0.2423014177E-04  -0.1566513175E-04   0.1711084840E-02  -0.5606892099E-03  -0.2435745432E-03   0.1639102644E+01   0.8462182751E-03   0.8408544872E-01   0.5898541599E-01   0.3180391936E-01   0.2471951147E-02
   0.0000000000E+00   0.9993078046E+00   0.9995258456E+00   0.0000000000E+00  -0.5016730523E-04  -0.3503643036E-04   0.0000000000E+00  -0.6420280610E-03  -0.4391179221E-03   0.1680789547E+01  -0.9649526816E-01  -0.1215837918E+00   0.4026290441E-01   0.4193017657E-01   0.2209613062E-01
   0.2003200000E+01   0.0000000000E+00   0.3104478650E-04   0.1000000000E-03   0.0000000000E+00  -0.4933056861E-05   0.3100000000E-02   0.0000000000E+00   0.3597784336E-04   0.1603371590E+01   0.7822758008E-01   0.3037589655E+00   0.2836757616E-01  -0.2508212517E-01  -0.1161585543E-03
   0.2003200000E+01   0.9995128627E+00   0.5023005517E-04   0.1000000000E-03  -0.1340673573E-06  -0.2595291812E-05   0.3100000000E-02  -0.4870031899E-03   0.5282534698E-04   0.1581655263E+01   0.9120289268E-01   0.3124999796E+00   0.3938933112E-01  -0.2222327868E-01  -0.6318877702E-03
   0.2003200000E+01   0.0000000000E+00   0.9999683205E+00   0.1000000000E-03   0.0000000000E+00   0.4781693708E-05   0.3100000000E-02   0.0000000000E+00  -0.3646115329E-04   0.1608993857E+01   0.7490071726E-01   0.3014635611E+00   0.2981519881E-01   0.2784171550E-01  -0.2233307796E-02
   0.2003200000E+01   0.9995144602E+00   0.9999501131E+00   0.1000000000E-03   0.2402374368E-06   0.2656524577E-05   0.3100000000E-02  -0.4857800463E-03  -0.5254341209E-04   0.1586301914E+01   0.8836383779E-01   0.3106923831E+00   0.4155286445E-01   0.2813190995E-01  -0.2749037012E-02
     1     2     3     4     5     6     7     8
     2     9    10     3     6    11    12     7
 VARIABLES = X,Y,Z,DU1,DU2,DU3,U1,U2,U3,S11,S22,S33,S12,S13,S23
 ZONE, T="0.3300D+00" F=FEPOINT, I=   12 J=    2 ET=BRICK
   0.0000000000E+00   0.0000000000E+00   0.0000000000E+00   0.0000000000E+00   0.0000000000E+00   0.0000000000E+00   0.0000000000E+00   0.0000000000E+00   0.0000000000E+00   0.1672570834E+01  -0.1342434966E+00  -0.1032883335E+00   0.2715205184E-01   0.4628316626E-01   0.6709070384E-01
   0.1001720091E+01   0.0000000000E+00   0.2540465758E-03   0.6627337809E-04   0.0000000000E+00   0.1354562333E-04   0.1653818089E-02   0.0000000000E+00   0.2405009525E-03   0.1669800903E+01  -0.1693042575E-01   0.7213334713E-01   0.4488419746E-01   0.5243082018E-02   0.1335096571E-01
   0.1001843887E+01   0.9994091131E+00   0.2325247849E-03   0.5748787248E-04  -0.2150900789E-04   0.1031094318E-04   0.1786398674E-02  -0.5693778972E-03   0.2222138418E-03   0.1675280771E+01  -0.1145055730E-01   0.6117361023E-01   0.5701035323E-01  -0.1166327431E-01   0.1009393298E-01
   0.0000000000E+00   0.9993454865E+00   0.4606950746E-03   0.0000000000E+00  -0.3412877406E-04   0.2445953744E-04   0.0000000000E+00  -0.6203847725E-03   0.4362355371E-03   0.1719606271E+01  -0.1199661003E+00  -0.1646011664E+00   0.3792508213E-01   0.7424739903E-02   0.5921106726E-01
   0.0000000000E+00   0.0000000000E+00   0.9995001497E+00   0.0000000000E+00   0.0000000000E+00  -0.3032213778E-04   0.0000000000E+00   0.0000000000E+00  -0.4695281575E-03   0.1671529220E+01  -0.1416023261E+00  -0.9488788977E-01   0.3081767193E-01   0.6220930904E-01   0.2929558922E-01
   0.1001675508E+01   0.0000000000E+00   0.9997160698E+00   0.5912063169E-04   0.0000000000E+00  -0.1887680027E-04   0.1616387517E-02   0.0000000000E+00  -0.2650534017E-03   0.1671972258E+01  -0.2127313606E-01   0.7430470228E-01   0.4843873991E-01   0.4127042888E-01   0.5131163035E-02
   0.1001820032E+01   0.9993909179E+00   0.9997233772E+00   0.5354645999E-04  -0.2416277029E-04  -0.1738313923E-04   0.1766485285E-02  -0.5849193516E-03  -0.2592396750E-03   0.1677452126E+01  -0.1579326761E-01   0.6334496538E-01   0.6238773236E-01   0.3323548781E-01   0.1874130303E-02
   0.0000000000E+00   0.9992602648E+00   0.9994940226E+00   0.0000000000E+00  -0.4753982572E-04  -0.3182299970E-04   0.0000000000E+00  -0.6921953662E-03  -0.4741543524E-03   0.1719719127E+01  -0.1279021649E+00  -0.1567779579E+00   0.4439046929E-01   0.4405477889E-01   0.2141595264E-01
   0.2003300000E+01   0.0000000000E+00   0.3280987977E-04   0.1000000000E-03   0.0000000000E+00   0.1765093270E-05   0.3200000000E-02   0.0000000000E+00   0.3104478650E-04   0.1638425198E+01   0.7718937427E-01   0.2993540713E+00   0.2985830293E-01  -0.2635494428E-01  -0.1701988885E-03
   0.2003300000E+01   0.9995099274E+00   0.5445367439E-04   0.1000000000E-03  -0.2935312531E-05   0.4223619223E-05   0.3200000000E-02  -0.4871372573E-03   0.5023005517E-04   0.1618126140E+01   0.8964835607E-01   0.3071941479E+00   0.4333758417E-01  -0.2304093621E-01  -0.7584885652E-03
   0.2003300000E+01   0.0000000000E+00   0.9999663683E+00   0.1000000000E-03   0.0000000000E+00  -0.1952280332E-05   0.3200000000E-02   0.0000000000E+00  -0.3167945958E-04   0.1645112097E+01   0.7325763539E-01   0.2965989118E+00   0.3157006211E-01   0.2977360665E-01  -0.2479651506E-02
   0.2003300000E+01   0.9995119832E+00   0.9999459533E+00   0.1000000000E-03  -0.2476980046E-05  -0.4159796540E-05   0.3200000000E-02  -0.4855398088E-03  -0.4988688751E-04   0.1623658568E+01   0.8629385239E-01   0.3050162235E+00   0.4589524963E-01   0.3012654904E-01  -0.3067941182E-02
     1     2     3     4     5     6     7     8
     2     9    10     3     6    11    12     7
 VARIABLES = X,Y,Z,DU1,DU2,DU3,U1,U2,U3,S11,S22,S33,S12,S13,S23
 ZONE, T="0.3400D+00" F=FEPOINT, I=   12 J=    2 ET=BRICK
   0.0000000000E+00   0.0000000000E+00   0.0000000000E+00   0.0000000000E+00   0.0000000000E+00   0.0000000000E+00   0.0000000000E+00   0.0000000000E+00   0.0000000000E+00   0.1714186965E+01  -0.1616729270E+00  -0.1329806800E+00   0.2740803676E-01   0.4796199014E-01   0.6868322215E-01
   0.1001787844E+01   0.0000000000E+00   0.2683420369E-03   0.6775249883E-04   0.0000000000E+00   0.1429546106E-04   0.1720091467E-02   0.0000000000E+00   0.2540465758E-03   0.1706097349E+01  -0.3417735756E-01   0.4784149887E-01   0.4405291214E-01   0.4974519400E-02   0.1323236574E-01
   0.1001899927E+01   0.9993882219E+00   0.2433306250E-03   0.5604084672E-04  -0.2089123256E-04   0.1080584009E-04   0.1843886546E-02  -0.5908869051E-03   0.2325247849E-03   0.1711648236E+01  -0.2862647041E-01   0.3673972457E-01   0.5799051482E-01  -0.1236936367E-01   0.9442907862E-02
   0.0000000000E+00   0.9993159691E+00   0.4804056392E-03   0.0000000000E+00  -0.2951731499E-04   0.1971056466E-04   0.0000000000E+00  -0.6545135466E-03   0.4606950746E-03   0.1760502216E+01  -0.1454729837E+00  -0.1954958746E+00   0.3975841809E-01   0.7453453122E-02   0.5945586313E-01
   0.0000000000E+00   0.0000000000E+00   0.9994738758E+00   0.0000000000E+00   0.0000000000E+00  -0.2627391593E-04   0.0000000000E+00   0.0000000000E+00  -0.4998502953E-03   0.1712918561E+01  -0.1702660844E+00  -0.1231191193E+00   0.3171630461E-01   0.6394396785E-01   0.2932565320E-01
   0.1001735359E+01   0.0000000000E+00   0.9996956718E+00   0.5985060348E-04   0.0000000000E+00  -0.2039804423E-04   0.1675508149E-02   0.0000000000E+00  -0.2839302020E-03   0.1708623655E+01  -0.3922996807E-01   0.5036780412E-01   0.4821888233E-01   0.4194382918E-01   0.4906035014E-02
   0.1001871672E+01   0.9993671942E+00   0.9997047514E+00   0.5164040135E-04  -0.2372369964E-04  -0.1862574737E-04   0.1820031745E-02  -0.6090821219E-03  -0.2766228142E-03   0.1714174542E+01  -0.3367908091E-01   0.3926602982E-01   0.6429823062E-01   0.3381636640E-01   0.1116577137E-02
   0.0000000000E+00   0.9992160315E+00   0.9994661258E+00   0.0000000000E+00  -0.4423331973E-04  -0.2789688942E-04   0.0000000000E+00  -0.7397351919E-03  -0.5059773521E-03   0.1760583295E+01  -0.1547408825E+00  -0.1863090554E+00   0.4736284135E-01   0.4525024827E-01   0.2009829417E-01
   0.2003400000E+01   0.0000000000E+00   0.4106881340E-04   0.1000000000E-03   0.0000000000E+00   0.8258933636E-05   0.3300000000E-02   0.0000000000E+00   0.3280987977E-04   0.1667908329E+01   0.6956769270E-01   0.2825136015E+00   0.3058247962E-01  -0.2688298735E-01  -0.2222269168E-03
   0.2003400000E+01   0.9995042310E+00   0.6526536478E-04   0.1000000000E-03  -0.5696408362E-05   0.1081169038E-04   0.3300000000E-02  -0.4900725698E-03   0.5445367439E-04   0.1649492715E+01   0.8126738651E-01   0.2892295217E+00   0.4610730365E-01  -0.2308644089E-01  -0.8826032452E-03
   0.2003400000E+01   0.0000000000E+00   0.9999578807E+00   0.1000000000E-03   0.0000000000E+00  -0.8487534400E-05   0.3300000000E-02   0.0000000000E+00  -0.3363173992E-04   0.1675768556E+01   0.6497720293E-01   0.2792438643E+00   0.3258192775E-01   0.3107365450E-01  -0.2714113681E-02
   0.2003400000E+01   0.9995068402E+00   0.9999352038E+00   0.1000000000E-03  -0.5143052045E-05  -0.1074947348E-04   0.3300000000E-02  -0.4880167889E-03  -0.5404668405E-04   0.1656003459E+01   0.7735163821E-01   0.2866345261E+00   0.4909408760E-01   0.3148822412E-01  -0.3374490009E-02
     1     2     3     4     5     6     7     8
     2     9    10     3     6    11    12     7
 VARIABLES = X,Y,Z,DU1,DU2,DU3,U1,U2,U3,S11,S22,S33,S12,S13,S23
 ZONE, T="0.3500D+00" F=FEPOINT, I=   12 J=    2 ET=BRICK
   0.0000000000E+00   0.0000000000E+00   0.0000000000E+00   0.0000000000E+00   0.0000000000E+00   0.0000000000E+00   0.0000000000E+00   0.0000000000E+00   0.0000000000E+00   0.1759338005E+01  -0.1831045839E+00  -0.1563456902E+00   0.2684413031E-01   0.4935406941E-01   0.6926978380E-01
   0.1001856914E+01   0.0000000000E+00   0.2828418677E-03   0.6906999125E-04   0.0000000000E+00   0.1449983086E-04   0.1787843966E-02   0.0000000000E+00   0.2683420369E-03   0.1741800588E+01  -0.5128693400E-01   0.2170110890E-01   0.4207197940E-01   0.4862414106E-02   0.1284740489E-01
   0.1001954414E+01   0.9993682975E+00   0.2541252839E-03   0.5448692046E-04  -0.1992435733E-04   0.1079465889E-04   0.1899927393E-02  -0.6117781377E-03   0.2433306250E-03   0.1747321681E+01  -0.4576584108E-01   0.1065892307E-01   0.5736923956E-01  -0.1267168776E-01   0.8490777400E-02
   0.0000000000E+00   0.9992915356E+00   0.4948057872E-03   0.0000000000E+00  -0.2443352563E-04   0.1440014794E-04   0.0000000000E+00  -0.6840308616E-03   0.4804056392E-03   0.1804161667E+01  -0.1650556395E+00  -0.2192182967E+00   0.4030090033E-01   0.7647886195E-02   0.5858744075E-01
   0.0000000000E+00   0.0000000000E+00   0.9994521766E+00   0.0000000000E+00   0.0000000000E+00  -0.2169914220E-04   0.0000000000E+00   0.0000000000E+00  -0.5261242112E-03   0.1757809162E+01  -0.1930225052E+00  -0.1448989253E+00   0.3185088549E-01   0.6446872157E-01   0.2880900832E-01
   0.1001795811E+01   0.0000000000E+00   0.9996742572E+00   0.6045175447E-04   0.0000000000E+00  -0.2141455701E-04   0.1735358752E-02   0.0000000000E+00  -0.3043282463E-03   0.1744705006E+01  -0.5709577065E-01   0.2460552723E-01   0.4689874864E-01   0.4161636554E-01   0.4565765515E-02
   0.1001921303E+01   0.9993442987E+00   0.9996854161E+00   0.4963102989E-04  -0.2289550309E-04  -0.1933534273E-04   0.1871672147E-02  -0.6328058216E-03  -0.2952485616E-03   0.1750226099E+01  -0.5157467773E-01   0.1356334139E-01   0.6468423882E-01   0.3353254839E-01   0.2091380260E-03
   0.0000000000E+00   0.9991756674E+00   0.9994427292E+00   0.0000000000E+00  -0.4036411226E-04  -0.2339657010E-04   0.0000000000E+00  -0.7839685116E-03  -0.5338742416E-03   0.1804191850E+01  -0.1757530738E+00  -0.2085510449E+00   0.4914514091E-01   0.4549138923E-01   0.1812666527E-01
   0.2003500000E+01   0.0000000000E+00   0.5536522486E-04   0.1000000000E-03   0.0000000000E+00   0.1429641145E-04   0.3400000000E-02   0.0000000000E+00   0.4106881340E-04   0.1692956785E+01   0.5658629059E-01   0.2549987192E+00   0.3052511079E-01  -0.2665363282E-01  -0.2678612593E-03
   0.2003500000E+01   0.9994959677E+00   0.8217709407E-04   0.1000000000E-03  -0.8263283125E-05   0.1691172929E-04   0.3400000000E-02  -0.4957689782E-03   0.6526536478E-04   0.1676880064E+01   0.6728428687E-01   0.2603774443E+00   0.4766286110E-01  -0.2235419237E-01  -0.9972839530E-03
   0.2003500000E+01   0.0000000000E+00   0.9999433084E+00   0.1000000000E-03   0.0000000000E+00  -0.1457232655E-04   0.3400000000E-02   0.0000000000E+00  -0.4211927432E-04   0.1702093472E+01   0.5128852421E-01   0.2511597982E+00   0.3283335507E-01   0.3173961789E-01  -0.2927496839E-02
   0.2003500000E+01   0.9994992360E+00   0.9999183467E+00   0.1000000000E-03  -0.7604195233E-05  -0.1685715532E-04   0.3400000000E-02  -0.4931598409E-03  -0.6479615753E-04   0.1684457725E+01   0.6276603350E-01   0.2573180363E+00   0.5111008001E-01   0.3221077691E-01  -0.3656919532E-02
     1     2     3     4     5     6     7     8
     2     9    10     3     6    11    12     7
 VARIABLES = X,Y,Z,DU1,DU2,DU3,U1,U2,U3,S11,S22,S33,S12,S13,S23
 ZONE, T="0.3600D+00" F=FEPOINT, I=   12 J=    2 ET=BRICK
   0.0000000000E+00   0.0000000000E+00   0.0000000000E+00   0.0000000000E+00   0.0000000000E+00   0.0000000000E+00   0.0000000000E+00   0.0000000000E+00   0.0000000000E+00   0.1808600304E+01  -0.1975320855E+00  -0.1721159355E+00   0.2547584127E-01   0.5038114693E-01   0.6881078944E-01
   0.1001927014E+01   0.0000000000E+00   0.2969860573E-03   0.7010047963E-04   0.0000000000E+00   0.1414418961E-04   0.1856913957E-02   0.0000000000E+00   0.2828418677E-03   0.1777909207E+01  -0.6700362715E-01  -0.4517022564E-02   0.3896875493E-01   0.4866552259E-02   0.1219849181E-01
   0.1002007186E+01   0.9993496713E+00   0.2643992199E-03   0.5277162451E-04  -0.1862619855E-04   0.1027393601E-04   0.1954414313E-02  -0.6317024950E-03   0.2541252839E-03   0.1783293960E+01  -0.6161887404E-01  -0.1528652877E-01   0.5517308186E-01  -0.1260013229E-01   0.7246988338E-02
   0.0000000000E+00   0.9992724787E+00   0.5035191451E-03   0.0000000000E+00  -0.1905694608E-04   0.8713357908E-05   0.0000000000E+00  -0.7084643872E-03   0.4948057872E-03   0.1851156105E+01  -0.1777407113E+00  -0.2344631105E+00   0.3956946791E-01   0.7962373950E-02   0.5657914654E-01
   0.0000000000E+00   0.0000000000E+00   0.9994353977E+00   0.0000000000E+00   0.0000000000E+00  -0.1677892678E-04   0.0000000000E+00   0.0000000000E+00  -0.5478233534E-03   0.1806775375E+01  -0.2088512635E+00  -0.1589718277E+00   0.3123186475E-01   0.6377912056E-01   0.2774151481E-01
   0.1001856629E+01   0.0000000000E+00   0.9996523540E+00   0.6081890400E-04   0.0000000000E+00  -0.2190318453E-04   0.1795810507E-02   0.0000000000E+00  -0.3257428033E-03   0.1781210209E+01  -0.7360563177E-01  -0.1216020250E-02   0.4449984995E-01   0.4030175844E-01   0.4121362157E-02
   0.1001968777E+01   0.9993226118E+00   0.9996659255E+00   0.4747342706E-04  -0.2168687506E-04  -0.1949055748E-04   0.1921303177E-02  -0.6557013247E-03  -0.3145839043E-03   0.1786594962E+01  -0.6822087867E-01  -0.1198552645E-01   0.6356395255E-01   0.3240045374E-01  -0.8301413135E-03
   0.0000000000E+00   0.9991395956E+00   0.9994242384E+00   0.0000000000E+00  -0.3607172781E-04  -0.1849074447E-04   0.0000000000E+00  -0.8243326239E-03  -0.5572708117E-03   0.1851112055E+01  -0.1899503290E+00  -0.2222094424E+00   0.4974585500E-01   0.4478711219E-01   0.1550987191E-01
   0.2003600000E+01   0.0000000000E+00   0.7503204498E-04   0.1000000000E-03   0.0000000000E+00   0.1966682012E-04   0.3500000000E-02   0.0000000000E+00   0.5536522486E-04   0.1715020866E+01   0.3977038862E-01   0.2190335768E+00   0.2969724208E-01  -0.2567900482E-01  -0.3021241280E-03
   0.2003600000E+01   0.9994854577E+00   0.1044851634E-03   0.1000000000E-03  -0.1051002889E-04   0.2230806932E-04   0.3500000000E-02  -0.5040322613E-03   0.8217709407E-04   0.1701716418E+01   0.4923036694E-01   0.2228780466E+00   0.4801226931E-01  -0.2086492006E-01  -0.1094664057E-02
   0.2003600000E+01   0.0000000000E+00   0.9999233122E+00   0.1000000000E-03   0.0000000000E+00  -0.1999620004E-04   0.3500000000E-02   0.0000000000E+00  -0.5669160086E-04   0.1725528584E+01   0.3372398952E-01   0.2145722575E+00   0.3233208951E-01   0.3179343391E-01  -0.3109878348E-02
   0.2003600000E+01   0.9994895008E+00   0.9998960773E+00   0.1000000000E-03  -0.9735203926E-05  -0.2226937145E-04   0.3500000000E-02  -0.5007640362E-03  -0.8165331285E-04   0.1710443257E+01   0.4407440754E-01   0.2193071671E+00   0.5194630446E-01   0.3231151375E-01  -0.3902418276E-02
     1     2     3     4     5     6     7     8
     2     9    10     3     6    11    12     7
 VARIABLES = X,Y,Z,DU1,DU2,DU3,U1,U2,U3,S11,S22,S33,S12,S13,S23
 ZONE, T="0.3700D+00" F=FEPOINT, I=   12 J=    2 ET=BRICK
   0.0000000000E+00   0.0000000000E+00   0.0000000000E+00   0.0000000000E+00   0.0000000000E+00   0.0000000000E+00   0.0000000000E+00   0.0000000000E+00   0.0000000000E+00   0.1862248192E+01  -0.2042894565E+00  -0.1794069665E+00   0.2334468106E-01   0.5097944543E-01   0.6730657308E-01
   0.1001997746E+01   0.0000000000E+00   0.3102368457E-03   0.7073163767E-04   0.0000000000E+00   0.1325078831E-04   0.1927014437E-02   0.0000000000E+00   0.2969860573E-03   0.1815382614E+01  -0.8014257267E-01  -0.2909378842E-01   0.3480407833E-01   0.4944462423E-02   0.1129976554E-01
   0.1002058037E+01   0.9993326318E+00   0.2736755735E-03   0.5085126042E-04  -0.1703953956E-04   0.9276353552E-05   0.2007185938E-02  -0.6503286936E-03   0.2643992199E-03   0.1820522114E+01  -0.7500307248E-01  -0.3937278881E-01   0.5147923156E-01  -0.1219674603E-01   0.5734196722E-02
   0.0000000000E+00   0.9992588956E+00   0.5063764506E-03   0.0000000000E+00  -0.1358301906E-04   0.2857305546E-05   0.0000000000E+00  -0.7275213333E-03   0.5035191451E-03   0.1901777143E+01  -0.1828894290E+00  -0.2403359452E+00   0.3762489900E-01   0.8348268326E-02   0.5344787520E-01
   0.0000000000E+00   0.0000000000E+00   0.9994236818E+00   0.0000000000E+00   0.0000000000E+00  -0.1171588334E-04   0.0000000000E+00   0.0000000000E+00  -0.5646022802E-03   0.1860089916E+01  -0.2170690161E+00  -0.1644691303E+00   0.2989396762E-01   0.6191386378E-01   0.2614206997E-01
   0.1001917489E+01   0.0000000000E+00   0.9996304777E+00   0.6085988688E-04   0.0000000000E+00  -0.2187630169E-04   0.1856629411E-02   0.0000000000E+00  -0.3476459878E-03   0.1819092993E+01  -0.8756333110E-01  -0.2538340921E-01   0.4107547150E-01   0.3804856143E-01   0.3590515252E-02
   0.1002013910E+01   0.9993024794E+00   0.9996468189E+00   0.4513367090E-04  -0.2013240073E-04  -0.1910659004E-04   0.1968776604E-02  -0.6773881997E-03  -0.3340744618E-03   0.1824232493E+01  -0.8242383090E-01  -0.3566240959E-01   0.6100365082E-01   0.3046566089E-01  -0.1975053567E-02
   0.0000000000E+00   0.9991080832E+00   0.9994108679E+00   0.0000000000E+00  -0.3151243737E-04  -0.1337053606E-04   0.0000000000E+00  -0.8604043517E-03  -0.5757615561E-03   0.1901631111E+01  -0.1966751109E+00  -0.2264042313E+00   0.4921428835E-01   0.4317963108E-01   0.1228337209E-01
   0.2003700000E+01   0.0000000000E+00   0.9924119651E-04   0.1000000000E-03   0.0000000000E+00   0.2420915153E-04   0.3600000000E-02   0.0000000000E+00   0.7503204498E-04   0.1735764214E+01   0.2083123109E-01   0.1771452910E+00   0.2813455189E-01  -0.2399440778E-01  -0.3196251420E-03
   0.2003700000E+01   0.9994731128E+00   0.1313202055E-03   0.1000000000E-03  -0.1234490842E-04   0.2683504211E-04   0.3600000000E-02  -0.5145422902E-03   0.1044851634E-03   0.1725632445E+01   0.2882838595E-01   0.1792799049E+00   0.4720464041E-01  -0.1866401442E-01  -0.1166218315E-02
   0.2003700000E+01   0.0000000000E+00   0.9998987139E+00   0.1000000000E-03   0.0000000000E+00  -0.2459833542E-04   0.3600000000E-02   0.0000000000E+00  -0.7668780091E-04   0.1747726018E+01   0.1400373593E-01   0.1720109821E+00   0.3110968485E-01   0.3127937188E-01  -0.3250895579E-02
   0.2003700000E+01   0.9994780553E+00   0.9998692543E+00   0.1000000000E-03  -0.1144549516E-04  -0.2682300732E-04   0.3600000000E-02  -0.5104992401E-03  -0.1039226843E-03   0.1735582004E+01   0.2300701306E-01   0.1751517184E+00   0.5164572274E-01   0.3182943667E-01  -0.4097488751E-02
     1     2     3     4     5     6     7     8
     2     9    10     3     6    11    12     7
 VARIABLES = X,Y,Z,DU1,DU2,DU3,U1,U2,U3,S11,S22,S33,S12,S13,S23
 ZONE, T="0.3800D+00" F=FEPOINT, I=   12 J=    2 ET=BRICK
   0.0000000000E+00   0.0000000000E+00   0.0000000000E+00   0.0000000000E+00   0.0000000000E+00   0.0000000000E+00   0.0000000000E+00   0.0000000000E+00   0.0000000000E+00   0.1920233504E+01  -0.2030945578E+00  -0.1777761985E+00   0.2051572746E-01   0.5110440839E-01   0.6479888917E-01
   0.1002068617E+01   0.0000000000E+00   0.3221131162E-03   0.7087053020E-04   0.0000000000E+00   0.1187627055E-04   0.1997746075E-02   0.0000000000E+00   0.3102368457E-03   0.1855076077E+01  -0.8967174713E-01  -0.5047643172E-01   0.2966934427E-01   0.5054953783E-02   0.1017711185E-01
   0.1002106734E+01   0.9993174021E+00   0.2815434295E-03   0.4869713926E-04  -0.1522968237E-04   0.7867856048E-05   0.2058037198E-02  -0.6673682331E-03   0.2736755735E-03   0.1859862615E+01  -0.8488520987E-01  -0.6004950623E-01   0.4641069752E-01  -0.1151261739E-01   0.3988108655E-02
   0.0000000000E+00   0.9992506816E+00   0.5034276347E-03   0.0000000000E+00  -0.8214067994E-05  -0.2948815868E-05   0.0000000000E+00  -0.7411043524E-03   0.5063764506E-03   0.1956016119E+01  -0.1802399324E+00  -0.2364134389E+00   0.3456745893E-01   0.8757623742E-02   0.4925529644E-01
   0.0000000000E+00   0.0000000000E+00   0.9994169576E+00   0.0000000000E+00   0.0000000000E+00  -0.6724229550E-05   0.0000000000E+00   0.0000000000E+00  -0.5763181635E-03   0.1917703464E+01  -0.2173731307E+00  -0.1609675860E+00   0.2789383055E-01   0.5895307793E-01   0.2405295625E-01
   0.1001977990E+01   0.0000000000E+00   0.9996090981E+00   0.6050113481E-04   0.0000000000E+00  -0.2137962207E-04   0.1917489298E-02   0.0000000000E+00  -0.3695222895E-03   0.1859202079E+01  -0.9792375139E-01  -0.4635042959E-01   0.3670784148E-01   0.3493784630E-01   0.2997305966E-02
   0.1002056503E+01   0.9992841888E+00   0.9996285859E+00   0.4259273525E-04  -0.1829055949E-04  -0.1823307309E-04   0.2013910275E-02  -0.6975206005E-03  -0.3531810518E-03   0.1863988617E+01  -0.9313721413E-01  -0.5592350410E-01   0.5711301813E-01   0.2780043639E-01  -0.3191697231E-02
   0.0000000000E+00   0.9990812314E+00   0.9994026277E+00   0.0000000000E+00  -0.2685182163E-04  -0.8240241864E-05   0.0000000000E+00  -0.8919167891E-03  -0.5891320922E-03   0.1955735862E+01  -0.1956433966E+00  -0.2207297176E+00   0.4763632794E-01   0.4074225855E-01   0.8509363519E-02
   0.2003800000E+01   0.0000000000E+00   0.1270581997E-03   0.1000000000E-03   0.0000000000E+00   0.2781700318E-04   0.3700000000E-02   0.0000000000E+00   0.9924119651E-04   0.1756953524E+01   0.1544424282E-02   0.1319951006E+00   0.2589497130E-01  -0.2165584886E-01  -0.3147973052E-03
   0.2003800000E+01   0.9994593990E+00   0.1617022096E-03   0.1000000000E-03  -0.1371384148E-04   0.3038200414E-04   0.3700000000E-02  -0.5268871986E-03   0.1313202055E-03   0.1750351722E+01   0.7870612101E-02   0.1322707147E+00   0.4532594632E-01  -0.1581888008E-01  -0.1203096015E-02
   0.2003800000E+01   0.0000000000E+00   0.9998704414E+00   0.1000000000E-03   0.0000000000E+00  -0.2827246319E-04   0.3700000000E-02   0.0000000000E+00  -0.1012861363E-03   0.1770438158E+01  -0.6086191317E-02   0.1261410824E+00   0.2921918913E-01   0.3026126662E-01  -0.3340084146E-02
   0.2003800000E+01   0.9994653726E+00   0.9998388440E+00   0.1000000000E-03  -0.1268261817E-04  -0.3041032048E-04   0.3700000000E-02  -0.5219447353E-03  -0.1307456916E-03   0.1761586574E+01   0.1364887675E-02   0.1275415877E+00   0.5028704503E-01   0.3082259267E-01  -0.4228382856E-02
     1     2     3     4     5     6     7     8
     2     9    10     3     6    11    12     7
 VARIABLES = X,Y,Z,DU1,DU2,DU3,U1,U2,U3,S11,S22,S33,S12,S13,S23
 ZONE, T="0.3900D+00" F=FEPOINT, I=   12 J=    2 ET=BRICK
   0.0000000000E+00   0.0000000000E+00   0.0000000000E+00   0.0000000000E+00   0.0000000000E+00   0.0000000000E+00   0.0000000000E+00   0.0000000000E+00   0.0000000000E+00   0.1982184659E+01  -0.1940706952E+00  -0.1672560658E+00   0.1707431854E-01   0.5073429038E-01   0.6137034391E-01
   0.1002139065E+01   0.0000000000E+00   0.3322201437E-03   0.7044877298E-04   0.0000000000E+00   0.1010702753E-04   0.2068616605E-02   0.0000000000E+00   0.3221131162E-03   0.1897684314E+01  -0.9478263612E-01  -0.6737863215E-01   0.2368250829E-01   0.5161376820E-02   0.8867568156E-02
   0.1002153033E+01   0.9993041217E+00   0.2876859718E-03   0.4629883764E-04  -0.1328042718E-04   0.6142542245E-05   0.2106734337E-02  -0.6825979155E-03   0.2815434295E-03   0.1902014993E+01  -0.9045195683E-01  -0.7603999073E-01   0.4012980278E-01  -0.1060452346E-01   0.2056641474E-02
   0.0000000000E+00   0.9992475319E+00   0.4949430424E-03   0.0000000000E+00  -0.3149719015E-05  -0.8484592322E-05   0.0000000000E+00  -0.7493184204E-03   0.5034276347E-03   0.2013562359E+01  -0.1699282078E+00  -0.2227762533E+00   0.3053102979E-01   0.9146643139E-02   0.4410687736E-01
   0.0000000000E+00   0.0000000000E+00   0.9994149386E+00   0.0000000000E+00   0.0000000000E+00  -0.2018991589E-05   0.0000000000E+00   0.0000000000E+00  -0.5830423931E-03   0.1979243817E+01  -0.2098637410E+00  -0.1485221785E+00   0.2530683272E-01   0.5501481676E-01   0.2153900650E-01
   0.1002037683E+01   0.0000000000E+00   0.9995886103E+00   0.5969207153E-04   0.0000000000E+00  -0.2048780302E-04   0.1977990432E-02   0.0000000000E+00  -0.3909019115E-03   0.1902224931E+01  -0.1038638717E+00  -0.6283801436E-01   0.3150430195E-01   0.3107954297E-01   0.2371549221E-02
   0.1002096352E+01   0.9992679487E+00   0.9996116362E+00   0.3984939848E-04  -0.1624012769E-04  -0.1694970476E-04   0.2056503010E-02  -0.7158111599E-03  -0.3714141249E-03   0.1906555611E+01  -0.9953319240E-01  -0.7149937294E-01   0.5203887815E-01   0.2450020649E-01  -0.4439377461E-02
   0.0000000000E+00   0.9990589746E+00   0.9993993205E+00   0.0000000000E+00  -0.2225675932E-04  -0.3307167011E-05   0.0000000000E+00  -0.9187686107E-03  -0.5973723340E-03   0.2013111191E+01  -0.1869660908E+00  -0.2052872031E+00   0.4512880191E-01   0.3757592370E-01   0.4275539948E-02
   0.2003900000E+01   0.0000000000E+00   0.1574981561E-03   0.1000000000E-03   0.0000000000E+00   0.3043995638E-04   0.3800000000E-02   0.0000000000E+00   0.1270581997E-03   0.1780346338E+01  -0.1636987479E-01   0.8621172991E-01   0.2305548533E-01  -0.1873680783E-01  -0.2821779803E-03
   0.2003900000E+01   0.9994447977E+00   0.1945970411E-03   0.1000000000E-03  -0.1460129218E-04   0.3289483147E-04   0.3800000000E-02  -0.5406010401E-03   0.1617022096E-03   0.1777579584E+01  -0.1190141640E-01   0.8451002586E-01   0.4249336305E-01  -0.1241547277E-01  -0.1196517224E-02
   0.2003900000E+01   0.0000000000E+00   0.9998394731E+00   0.1000000000E-03   0.0000000000E+00  -0.3096825432E-04   0.3800000000E-02   0.0000000000E+00  -0.1295585995E-03   0.1795405717E+01  -0.2481390341E-01   0.7959637977E-01   0.2673204683E-01   0.2881899808E-01  -0.3367259193E-02
   0.2003900000E+01   0.9994519395E+00   0.9998058636E+00   0.1000000000E-03  -0.1343314709E-04  -0.3298040976E-04   0.3800000000E-02  -0.5346273534E-03  -0.1611560121E-03   0.1790149288E+01  -0.1910060782E-01   0.7913951293E-01   0.4797923005E-01   0.2936470657E-01  -0.4281598436E-02
     1     2     3     4     5     6     7     8
     2     9    10     3     6    11    12     7
 VARIABLES = X,Y,Z,DU1,DU2,DU3,U1,U2,U3,S11,S22,S33,S12,S13,S23
 ZONE, T="0.4000D+00" F=FEPOINT, I=   12 J=    2 ET=BRICK
   0.0000000000E+00   0.0000000000E+00   0.0000000000E+00   0.0000000000E+00   0.0000000000E+00   0.0000000000E+00   0.0000000000E+00   0.0000000000E+00   0.0000000000E+00   0.2047425598E+01  -0.1777447521E+00  -0.1483590174E+00   0.1312206402E-01   0.4987235327E-01   0.5714174355E-01
   0.1002208492E+01   0.0000000000E+00   0.3402728277E-03   0.6942627278E-04   0.0000000000E+00   0.8052683989E-05   0.2139065378E-02   0.0000000000E+00   0.3322201437E-03   0.1943697231E+01  -0.9494479850E-01  -0.7885964270E-01   0.1698324616E-01   0.5234393454E-02   0.7418123802E-02
   0.1002196699E+01   0.9992928329E+00   0.2919017024E-03   0.4366630191E-04  -0.1128877360E-04   0.4215730580E-05   0.2153033175E-02  -0.6958783427E-03   0.2876859718E-03   0.1947477457E+01  -0.9116457287E-01  -0.8642009395E-01   0.3283036399E-01  -0.9531555639E-02  -0.1581074920E-05
   0.0000000000E+00   0.9992489546E+00   0.4814035080E-03   0.0000000000E+00   0.1422705465E-05  -0.1353953440E-04   0.0000000000E+00  -0.7524681394E-03   0.4949430424E-03   0.2073820453E+01  -0.1524860238E+00  -0.2000126013E+00   0.2567606361E-01   0.9478666829E-02   0.3814868355E-01
   0.0000000000E+00   0.0000000000E+00   0.9994171337E+00   0.0000000000E+00   0.0000000000E+00   0.2195069638E-05   0.0000000000E+00   0.0000000000E+00  -0.5850613847E-03   0.2044034889E+01  -0.1950424578E+00  -0.1276706031E+00   0.2222330744E-01   0.5024995269E-01   0.1868558747E-01
   0.1002096091E+01   0.0000000000E+00   0.9995693121E+00   0.5840812070E-04   0.0000000000E+00  -0.1929821132E-04   0.2037682504E-02   0.0000000000E+00  -0.4113897146E-03   0.1948643701E+01  -0.1048377383E+00  -0.7391317278E-01   0.2559269719E-01   0.2660762169E-01   0.1747785361E-02
   0.1002133274E+01   0.9992538735E+00   0.9995962762E+00   0.3692200911E-04  -0.1407525062E-04  -0.1536000382E-04   0.2096352408E-02  -0.7320512876E-03  -0.3883638297E-03   0.1952423927E+01  -0.1010575127E+00  -0.8147362403E-01   0.4595770654E-01   0.2067916079E-01  -0.5671919515E-02
   0.0000000000E+00   0.9990410873E+00   0.9994005494E+00   0.0000000000E+00  -0.1788729038E-04   0.1228875895E-05   0.0000000000E+00  -0.9410253700E-03  -0.6006795011E-03   0.2073157451E+01  -0.1711475826E+00  -0.1806880400E+00   0.4183277037E-01   0.3380459522E-01  -0.3074725282E-03
   0.2004000000E+01   0.0000000000E+00   0.1895797218E-03   0.1000000000E-03   0.0000000000E+00   0.3208156573E-04   0.3900000000E-02   0.0000000000E+00   0.1574981561E-03   0.1807583869E+01  -0.3135736803E-01   0.4223725114E-01   0.1970830085E-01  -0.1532444348E-01  -0.2167243257E-03
   0.2004000000E+01   0.9994297690E+00   0.2289710622E-03   0.1000000000E-03  -0.1502864752E-04   0.3437402107E-04   0.3900000000E-02  -0.5552023323E-03   0.1945970411E-03   0.1808897252E+01  -0.2890785731E-01   0.3847435714E-01   0.3884853692E-01  -0.8554214378E-02  -0.1138217733E-02
   0.2004000000E+01   0.0000000000E+00   0.9998067838E+00   0.1000000000E-03   0.0000000000E+00  -0.3268932902E-04   0.3900000000E-02   0.0000000000E+00  -0.1605268538E-03   0.1824250946E+01  -0.4061240020E-01   0.3482520578E-01   0.2373440034E-01   0.2704441356E-01  -0.3322926685E-02
   0.2004000000E+01   0.9994382185E+00   0.9997713263E+00   0.1000000000E-03  -0.1372104433E-04  -0.3453727438E-04   0.3900000000E-02  -0.5480605005E-03  -0.1941364219E-03   0.1822836623E+01  -0.3679903643E-01   0.3242616483E-01   0.4485495611E-01   0.2754129008E-01  -0.4244420093E-02
     1     2     3     4     5     6     7     8
     2     9    10     3     6    11    12     7
 VARIABLES = X,Y,Z,DU1,DU2,DU3,U1,U2,U3,S11,S22,S33,S12,S13,S23
 ZONE, T="0.4100D+00" F=FEPOINT, I=   12 J=    2 ET=BRICK
   0.0000000000E+00   0.0000000000E+00   0.0000000000E+00   0.0000000000E+00   0.0000000000E+00   0.0000000000E+00   0.0000000000E+00   0.0000000000E+00   0.0000000000E+00   0.2115013685E+01  -0.1550216502E+00  -0.1220537104E+00   0.8772385791E-02   0.4854751913E-01   0.5226745252E-01
   0.1002276285E+01   0.0000000000E+00   0.3461110333E-03   0.6779339192E-04   0.0000000000E+00   0.5838205622E-05   0.2208491651E-02   0.0000000000E+00   0.3402728277E-03   0.1993370543E+01  -0.8994093295E-01  -0.8437770103E-01   0.9727514770E-02   0.5254085220E-02   0.5883957726E-02
   0.1002237530E+01   0.9992834742E+00   0.2941174142E-03   0.4083069909E-04  -0.9358719394E-05   0.2215711897E-05   0.2196699477E-02  -0.7071671163E-03   0.2919017024E-03   0.1996517211E+01  -0.8679426483E-01  -0.9067103726E-01   0.2472897378E-01  -0.8351913467E-02  -0.2119347367E-02
   0.0000000000E+00   0.9992542918E+00   0.4634796484E-03   0.0000000000E+00   0.5337283202E-05  -0.1792385965E-04   0.0000000000E+00  -0.7510454339E-03   0.4814035080E-03   0.2135945710E+01  -0.1288156805E+00  -0.1691917047E+00   0.2018174356E-01   0.9726525991E-02   0.3156206938E-01
   0.0000000000E+00   0.0000000000E+00   0.9994228679E+00   0.0000000000E+00   0.0000000000E+00   0.5734165528E-05   0.0000000000E+00   0.0000000000E+00  -0.5828663150E-03   0.2111134671E+01  -0.1737875259E+00  -0.9940881985E-01   0.1874433893E-01   0.4483571060E-01   0.1559547052E-01
   0.1002152743E+01   0.0000000000E+00   0.9995513887E+00   0.5665220648E-04   0.0000000000E+00  -0.1792332919E-04   0.2096090625E-02   0.0000000000E+00  -0.4306879259E-03   0.1998706080E+01  -0.1006120064E+00  -0.7904216430E-01   0.1911622084E-01   0.2167435650E-01   0.1163955550E-02
   0.1002167123E+01   0.9992419739E+00   0.9995826925E+00   0.3384902330E-04  -0.1189953770E-04  -0.1358366549E-04   0.2133274417E-02  -0.7461265383E-03  -0.4037238335E-03   0.2001852748E+01  -0.9746533828E-01  -0.8533550053E-01   0.3906733186E-01   0.1646521322E-01  -0.6839349542E-02
   0.0000000000E+00   0.9990271985E+00   0.9994057352E+00   0.0000000000E+00  -0.1388881659E-04   0.5185791676E-05   0.0000000000E+00  -0.9589126604E-03  -0.5994506252E-03   0.2135026064E+01  -0.1490612409E+00  -0.1480264988E+00   0.3790612247E-01   0.2956984144E-01  -0.5109912628E-02
   0.2004100000E+01   0.0000000000E+00   0.2223740250E-03   0.1000000000E-03   0.0000000000E+00   0.3279430320E-04   0.4000000000E-02   0.0000000000E+00   0.1895797218E-03   0.1840095160E+01  -0.4212405214E-01   0.2194386134E-02   0.1595658866E-01  -0.1151544339E-01  -0.1141496464E-03
   0.2004100000E+01   0.9994147187E+00   0.2638408019E-03   0.1000000000E-03  -0.1505032999E-04   0.3486973975E-04   0.4000000000E-02  -0.5702309798E-03   0.2289710622E-03   0.1845667496E+01  -0.4182566079E-01  -0.3676341474E-02   0.3455014891E-01  -0.4345501290E-02  -0.1020924196E-02
   0.2004100000E+01   0.0000000000E+00   0.9997732956E+00   0.1000000000E-03   0.0000000000E+00  -0.3348822707E-04   0.4000000000E-02   0.0000000000E+00  -0.1932161829E-03   0.1858382280E+01  -0.5217438664E-01  -0.6042399265E-02   0.2032299398E-01   0.2503690770E-01  -0.3198709126E-02
   0.2004100000E+01   0.9994246147E+00   0.9997361915E+00   0.1000000000E-03  -0.1360373607E-04  -0.3513480406E-04   0.4000000000E-02  -0.5617815448E-03  -0.2286736962E-03   0.1860995247E+01  -0.5039631073E-01  -0.1043344232E-01   0.4106343249E-01   0.2544543663E-01  -0.4105483676E-02
     1     2     3     4     5     6     7     8
     2     9    10     3     6    11    12     7
 VARIABLES = X,Y,Z,DU1,DU2,DU3,U1,U2,U3,S11,S22,S33,S12,S13,S23
 ZONE, T="0.4200D+00" F=FEPOINT, I=   12 J=    2 ET=BRICK
   0.0000000000E+00   0.0000000000E+00   0.0000000000E+00   0.0000000000E+00   0.0000000000E+00   0.0000000000E+00   0.0000000000E+00   0.0000000000E+00   0.0000000000E+00   0.2183794498E+01  -0.1271364309E+00  -0.8971359274E-01   0.4145811529E-02   0.4681343332E-01   0.4692897122E-01
   0.1002341857E+01   0.0000000000E+00   0.3497062311E-03   0.6557146800E-04   0.0000000000E+00   0.3595197707E-05   0.2276285043E-02   0.0000000000E+00   0.3461110333E-03   0.2046712866E+01  -0.7988045401E-01  -0.8381482132E-01   0.2081778212E-02   0.5211279511E-02   0.4326189236E-02
   0.1002275374E+01   0.9992758796E+00   0.2943921942E-03   0.3784398382E-04  -0.7594587521E-05   0.2747799754E-06   0.2237530176E-02  -0.7165258357E-03   0.2941174142E-03   0.2049157115E+01  -0.7743620480E-01  -0.8870331971E-01   0.1605582821E-01  -0.7120035682E-02  -0.4223501015E-02
   0.0000000000E+00   0.9992627494E+00   0.4420013698E-03   0.0000000000E+00   0.8457562345E-05  -0.2147827856E-04   0.0000000000E+00  -0.7457081507E-03   0.4634796484E-03   0.2198895814E+01  -0.1001428423E+00  -0.1318084977E+00   0.1423775894E-01   0.9874132511E-02   0.2455649114E-01
   0.0000000000E+00   0.0000000000E+00   0.9994313130E+00   0.0000000000E+00   0.0000000000E+00   0.8445188482E-05   0.0000000000E+00   0.0000000000E+00  -0.5771321495E-03   0.2179390056E+01  -0.1473066899E+00  -0.6513889164E-01   0.1497736015E-01   0.3896815891E-01   0.1238472445E-01
   0.1002207198E+01   0.0000000000E+00   0.9995349064E+00   0.5445471142E-04   0.0000000000E+00  -0.1648235987E-04   0.2152742831E-02   0.0000000000E+00  -0.4486112551E-03   0.2052412660E+01  -0.9128004101E-01  -0.7811502781E-01   0.1222797551E-01   0.1644394876E-01   0.6598154375E-03
   0.1002197812E+01   0.9992321543E+00   0.9995709444E+00   0.3068829906E-04  -0.9819592117E-05  -0.1174807532E-04   0.2167123441E-02  -0.7580260760E-03  -0.4173074990E-03   0.2054856909E+01  -0.8883579180E-01  -0.8300352621E-01   0.3157825214E-01   0.1199456916E-01  -0.7889874814E-02
   0.0000000000E+00   0.9990168134E+00   0.9994141437E+00   0.0000000000E+00  -0.1038508651E-04   0.8408550541E-05   0.0000000000E+00  -0.9728014770E-03  -0.5942648335E-03   0.2197671352E+01  -0.1219030914E+00  -0.1088237867E+00   0.3351587047E-01   0.2502479504E-01  -0.9987755627E-02
   0.2004200000E+01   0.0000000000E+00   0.2550459947E-03   0.1000000000E-03   0.0000000000E+00   0.3267196967E-04   0.4100000000E-02   0.0000000000E+00   0.2223740250E-03   0.1879017839E+01  -0.4770946179E-01  -0.3221767025E-01   0.1191001711E-01  -0.7411731171E-02   0.2873535168E-04
   0.2004200000E+01   0.9993999707E+00   0.2983151341E-03   0.1000000000E-03  -0.1474801754E-04   0.3447433215E-04   0.4100000000E-02  -0.5852813098E-03   0.2638408019E-03   0.1888957023E+01  -0.4966255018E-01  -0.4020376568E-01   0.2976616969E-01   0.9496900422E-04  -0.8388376259E-03
   0.2004200000E+01   0.0000000000E+00   0.9997398367E+00   0.1000000000E-03   0.0000000000E+00  -0.3345885236E-04   0.4100000000E-02   0.0000000000E+00  -0.2267044099E-03   0.1898915650E+01  -0.5852594013E-01  -0.4129900264E-01   0.1660089284E-01   0.2289888173E-01  -0.2987768167E-02
   0.2004200000E+01   0.9994114484E+00   0.9997013223E+00   0.1000000000E-03  -0.1316627237E-04  -0.3486921125E-04   0.4100000000E-02  -0.5753852809E-03  -0.2638085003E-03   0.1905674853E+01  -0.5888903844E-01  -0.4769510799E-01   0.3676293578E-01   0.2317351616E-01  -0.3855341145E-02
     1     2     3     4     5     6     7     8
     2     9    10     3     6    11    12     7
 VARIABLES = X,Y,Z,DU1,DU2,DU3,U1,U2,U3,S11,S22,S33,S12,S13,S23
 ZONE, T="0.4300D+00" F=FEPOINT, I=   12 J=    2 ET=BRICK
   0.0000000000E+00   0.0000000000E+00   0.0000000000E+00   0.0000000000E+00   0.0000000000E+00   0.0000000000E+00   0.0000000000E+00   0.0000000000E+00   0.0000000000E+00   0.2252470387E+01  -0.9558665742E-01  -0.5304082549E-01  -0.6347531100E-03   0.4474599650E-01   0.4132704898E-01
   0.1002404668E+01   0.0000000000E+00   0.3511592350E-03   0.6281170671E-04   0.0000000000E+00   0.1453003913E-05   0.2341856511E-02   0.0000000000E+00   0.3497062311E-03   0.2103489762E+01  -0.6519108347E-01  -0.7747209465E-01  -0.5782835120E-02   0.5108031490E-02   0.2809247646E-02
   0.1002310151E+01   0.9992697852E+00   0.2929123596E-03   0.3477722080E-04  -0.6094336646E-05  -0.1479834612E-05   0.2275374160E-02  -0.7241204232E-03   0.2943921942E-03   0.2105179155E+01  -0.6350169086E-01  -0.8085087987E-01   0.7045541416E-02  -0.5884205948E-02  -0.6237986995E-02
   0.0000000000E+00   0.9992734326E+00   0.4179191657E-03   0.0000000000E+00   0.1068314319E-04  -0.2408220408E-04   0.0000000000E+00  -0.7372505884E-03   0.4420013698E-03   0.2261495729E+01  -0.6795010346E-01  -0.8970272156E-01   0.8036099737E-02   0.9917233138E-02   0.1736078858E-01
   0.0000000000E+00   0.0000000000E+00   0.9994415269E+00   0.0000000000E+00   0.0000000000E+00   0.1021384369E-04   0.0000000000E+00   0.0000000000E+00  -0.5686869610E-03   0.2247505432E+01  -0.1170704404E+00  -0.2659208769E-01   0.1103176549E-01   0.3285402171E-01   0.9177823961E-02
   0.1002259069E+01   0.0000000000E+00   0.9995198138E+00   0.5187193824E-04   0.0000000000E+00  -0.1509263052E-04   0.2207197543E-02   0.0000000000E+00  -0.4650936149E-03   0.2109521252E+01  -0.7725406299E-01  -0.7144060489E-01   0.5085498773E-02   0.1108581447E-01   0.2751587306E-03
   0.1002225327E+01   0.9992242159E+00   0.9995609648E+00   0.2751519987E-04  -0.7938414766E-05  -0.9979578558E-05   0.2197811740E-02  -0.7678456681E-03  -0.4290555743E-03   0.2111210645E+01  -0.7556467038E-01  -0.7481939011E-01   0.2370499145E-01   0.7406158195E-02  -0.8772075910E-02
   0.0000000000E+00   0.9990093411E+00   0.9994249208E+00   0.0000000000E+00  -0.7472369022E-05   0.1077710582E-04   0.0000000000E+00  -0.9831865635E-03  -0.5858562829E-03   0.2259915585E+01  -0.9112629224E-01  -0.6494638954E-01   0.2883052765E-01   0.2032781290E-01  -0.1478843644E-01
   0.2004300000E+01   0.0000000000E+00   0.2868862095E-03   0.1000000000E-03   0.0000000000E+00   0.3184021479E-04   0.4200000000E-02   0.0000000000E+00   0.2550459947E-03   0.1925139430E+01  -0.4753512338E-01  -0.5979404136E-01   0.7680294716E-02  -0.3116240950E-02   0.2136941399E-03
   0.2004300000E+01   0.9993857472E+00   0.3316280608E-03   0.1000000000E-03  -0.1422344299E-04   0.3331292671E-04   0.4200000000E-02  -0.6000293273E-03   0.2983151341E-03   0.1939479504E+01  -0.5180626093E-01  -0.6986297808E-01   0.2466619494E-01   0.4650830229E-02  -0.5881010913E-03
   0.2004300000E+01   0.0000000000E+00   0.9997071097E+00   0.1000000000E-03   0.0000000000E+00  -0.3272703157E-04   0.4200000000E-02   0.0000000000E+00  -0.2601632623E-03   0.1946616421E+01  -0.5907541454E-01  -0.6973074206E-01   0.1267322660E-01   0.2073129980E-01  -0.2685205444E-02
   0.2004300000E+01   0.9993989344E+00   0.9996674527E+00   0.1000000000E-03  -0.1251404425E-04  -0.3386954584E-04   0.4200000000E-02  -0.5885515533E-03  -0.2986777115E-03   0.1957571684E+01  -0.6165414633E-01  -0.7810727301E-01   0.3211344978E-01   0.2082097875E-01  -0.3487000675E-02
     1     2     3     4     5     6     7     8
     2     9    10     3     6    11    12     7
 VARIABLES = X,Y,Z,DU1,DU2,DU3,U1,U2,U3,S11,S22,S33,S12,S13,S23
 ZONE, T="0.4400D+00" F=FEPOINT, I=   12 J=    2 ET=BRICK
   0.0000000000E+00   0.0000000000E+00   0.0000000000E+00   0.0000000000E+00   0.0000000000E+00   0.0000000000E+00   0.0000000000E+00   0.0000000000E+00   0.0000000000E+00   0.2319678820E+01  -0.6204908526E-01  -0.1397007486E-01  -0.5448558484E-02   0.4243952403E-01   0.3567273642E-01
   0.1002464261E+01   0.0000000000E+00   0.3506894454E-03   0.5959254895E-04   0.0000000000E+00  -0.4697896047E-06   0.2404668217E-02   0.0000000000E+00   0.3511592350E-03   0.2163244041E+01  -0.4658945706E-01  -0.6603664951E-01  -0.1369618936E-01   0.4957258877E-02   0.1397990878E-02
   0.1002341869E+01   0.9992648419E+00   0.2899778495E-03   0.3171776733E-04  -0.4943303015E-05  -0.2934510127E-05   0.2310151381E-02  -0.7302147598E-03   0.2929123596E-03   0.2164144077E+01  -0.4568942027E-01  -0.6783672310E-01  -0.2071631598E-02  -0.4684733119E-02  -0.8087153072E-02
   0.0000000000E+00   0.9992853869E+00   0.3922592712E-03   0.0000000000E+00   0.1195439184E-04  -0.2565989454E-04   0.0000000000E+00  -0.7265674452E-03   0.4179191657E-03   0.2322512003E+01  -0.3389515585E-01  -0.4495718660E-01   0.1763256855E-02   0.9863314612E-02   0.1021337239E-01
   0.0000000000E+00   0.0000000000E+00   0.9994524976E+00   0.0000000000E+00   0.0000000000E+00   0.1097071516E-04   0.0000000000E+00   0.0000000000E+00  -0.5584731173E-03   0.2314121028E+01  -0.8472955330E-01   0.1426818516E-01   0.7014740828E-02   0.2670220591E-01   0.6102215842E-02
   0.1002308053E+01   0.0000000000E+00   0.9995059524E+00   0.4898319939E-04   0.0000000000E+00  -0.1386138718E-04   0.2259069481E-02   0.0000000000E+00  -0.4801862455E-03   0.2169567470E+01  -0.5923631566E-01  -0.5971322021E-01  -0.2154503804E-02   0.5767849255E-02   0.4793568372E-04
   0.1002249747E+01   0.9992178668E+00   0.9995525697E+00   0.2441962331E-04  -0.6349120360E-05  -0.8395101395E-05   0.2225326940E-02  -0.7757840828E-03  -0.4390351529E-03   0.2170467507E+01  -0.5833627886E-01  -0.6151329379E-01   0.1565789638E-01   0.2836189729E-02  -0.9437208265E-02
   0.0000000000E+00   0.9990041259E+00   0.9994371332E+00   0.0000000000E+00  -0.5215150623E-05   0.1221241090E-04   0.0000000000E+00  -0.9906589325E-03  -0.5750791771E-03   0.2320523439E+01  -0.5836023811E-01  -0.1850354081E-01   0.2401293348E-01   0.1563612904E-01  -0.1935714818E-01
   0.2004400000E+01   0.0000000000E+00   0.3173320950E-03   0.1000000000E-03   0.0000000000E+00   0.3044588557E-04   0.4300000000E-02   0.0000000000E+00   0.2868862095E-03   0.1978861727E+01  -0.4142639375E-01  -0.7985912472E-01   0.3376926831E-02   0.1271045704E-02   0.4407673623E-03
   0.2004400000E+01   0.9993721569E+00   0.3631609191E-03   0.1000000000E-03  -0.1359030866E-04   0.3153285832E-04   0.4300000000E-02  -0.6142527703E-03   0.3316280608E-03   0.1997561685E+01  -0.4804718279E-01  -0.9193829370E-01   0.1941422701E-01   0.9209428481E-02  -0.2672262904E-03
   0.2004400000E+01   0.0000000000E+00   0.9996756698E+00   0.1000000000E-03   0.0000000000E+00  -0.3143990607E-04   0.4300000000E-02   0.0000000000E+00  -0.2928902939E-03   0.2001864424E+01  -0.5363573595E-01  -0.9065247961E-01   0.8643155974E-02   0.1862954458E-01  -0.2288422613E-02
   0.2004400000E+01   0.9993871698E+00   0.9996351657E+00   0.1000000000E-03  -0.1176459503E-04  -0.3228701247E-04   0.4300000000E-02  -0.6010655975E-03  -0.3325472574E-03   0.2016995153E+01  -0.5847191077E-01  -0.1009470344E+00   0.2726976369E-01   0.1847845974E-01  -0.2996416266E-02
     1     2     3     4     5     6     7     8
     2     9    10     3     6    11    12     7
 VARIABLES = X,Y,Z,DU1,DU2,DU3,U1,U2,U3,S11,S22,S33,S12,S13,S23
 ZONE, T="0.4500D+00" F=FEPOINT, I=   12 J=    2 ET=BRICK
   0.0000000000E+00   0.0000000000E+00   0.0000000000E+00   0.0000000000E+00   0.0000000000E+00   0.0000000000E+00   0.0000000000E+00   0.0000000000E+00   0.0000000000E+00   0.2384075893E+01  -0.2828554500E-01   0.2544201013E-01  -0.1018115598E-01   0.4000177980E-01   0.3017784667E-01
   0.1002520276E+01   0.0000000000E+00   0.3486165615E-03   0.5601568816E-04   0.0000000000E+00  -0.2072883877E-05   0.2464260766E-02   0.0000000000E+00   0.3506894454E-03   0.2225330531E+01  -0.2503313385E-01  -0.5052331006E-01  -0.2149437946E-01   0.4781584283E-02   0.1547203250E-03
   0.1002370635E+01   0.9992606332E+00   0.2859811579E-03   0.2876547896E-04  -0.4208784756E-05  -0.3996691572E-05   0.2341869148E-02  -0.7351580628E-03   0.2899778495E-03   0.2225425437E+01  -0.2493822723E-01  -0.5071312330E-01  -0.1107778467E-01  -0.3552764800E-02  -0.9699140771E-02
   0.0000000000E+00   0.9992976420E+00   0.3660751106E-03   0.0000000000E+00   0.1225501239E-04  -0.2618416062E-04   0.0000000000E+00  -0.7146130533E-03   0.3922592712E-03   0.2380732061E+01   0.2815973165E-03   0.2186994591E-03  -0.4406824428E-02   0.9730703521E-02   0.3351823620E-02
   0.0000000000E+00   0.0000000000E+00   0.9994631925E+00   0.0000000000E+00   0.0000000000E+00   0.1069489782E-04   0.0000000000E+00   0.0000000000E+00  -0.5475024022E-03   0.2377896415E+01  -0.5202182912E-01   0.5535777210E-01   0.3027491564E-02   0.2071544674E-01   0.3282620176E-02
   0.1002353939E+01   0.0000000000E+00   0.9994930738E+00   0.4588672540E-04   0.0000000000E+00  -0.1287853345E-04   0.2308052680E-02   0.0000000000E+00  -0.4940476327E-03   0.2231899771E+01  -0.3817161531E-01  -0.4395406933E-01  -0.9341001392E-02   0.6499788053E-03   0.1236039152E-04
   0.1002271249E+01   0.9992127374E+00   0.9995454751E+00   0.2150212504E-04  -0.5129372161E-05  -0.7094678857E-05   0.2249746563E-02  -0.7821332032E-03  -0.4474302543E-03   0.2231994678E+01  -0.3807670869E-01  -0.4414388257E-01   0.7635729103E-02  -0.1586925796E-02  -0.9841500704E-02
   0.0000000000E+00   0.9990004823E+00   0.9994498134E+00   0.0000000000E+00  -0.3643603086E-05   0.1268017753E-04   0.0000000000E+00  -0.9958740832E-03  -0.5628667662E-03   0.2378281411E+01  -0.2531910076E-01   0.2827004747E-01   0.1921384901E-01   0.1109979221E-01  -0.2354340287E-01
   0.2004500000E+01   0.0000000000E+00   0.3459780480E-03   0.1000000000E-03   0.0000000000E+00   0.2864595295E-04   0.4400000000E-02   0.0000000000E+00   0.3173320950E-03   0.2040189181E+01  -0.2960765750E-01  -0.9226570768E-01  -0.8966289883E-03   0.5656628586E-02   0.7080256961E-03
   0.2004500000E+01   0.9993591910E+00   0.3924535744E-03   0.1000000000E-03  -0.1296587835E-04   0.2929265534E-04   0.4400000000E-02  -0.6278430790E-03   0.3631609191E-03   0.2063133462E+01  -0.3857435021E-01  -0.1062432962E+00   0.1416222905E-01   0.1366576483E-01   0.1225461585E-03
   0.2004500000E+01   0.0000000000E+00   0.9996459149E+00   0.1000000000E-03   0.0000000000E+00  -0.2975490465E-04   0.4400000000E-02   0.0000000000E+00  -0.3243301999E-03   0.2064642993E+01  -0.4242004349E-01  -0.1039071346E+00   0.4608237745E-02   0.1667975069E-01  -0.1797422214E-02
   0.2004500000E+01   0.9993761307E+00   0.9996048819E+00   0.1000000000E-03  -0.1103909062E-04  -0.3028384087E-04   0.4400000000E-02  -0.6128301926E-03  -0.3648342699E-03   0.2083858447E+01  -0.4952232224E-01  -0.1160203092E+00   0.2237534129E-01   0.1622835415E-01  -0.2382901751E-02
     1     2     3     4     5     6     7     8
     2     9    10     3     6    11    12     7
 VARIABLES = X,Y,Z,DU1,DU2,DU3,U1,U2,U3,S11,S22,S33,S12,S13,S23
 ZONE, T="0.4600D+00" F=FEPOINT, I=   12 J=    2 ET=BRICK
   0.0000000000E+00   0.0000000000E+00   0.0000000000E+00   0.0000000000E+00   0.0000000000E+00   0.0000000000E+00   0.0000000000E+00   0.0000000000E+00   0.0000000000E+00   0.2444420020E+01   0.3956329547E-02   0.6313490326E-01  -0.1472798776E-01   0.3754820217E-01   0.2504533309E-01
   0.1002572477E+01   0.0000000000E+00   0.3453362109E-03   0.5220097689E-04   0.0000000000E+00  -0.3280350591E-05   0.2520276454E-02   0.0000000000E+00   0.3486165615E-03   0.2288962635E+01  -0.1657586576E-02  -0.3219561731E-01  -0.2902435149E-01   0.4611491463E-02  -0.8637519086E-03
   0.1002396663E+01   0.9992566973E+00   0.2813803772E-03   0.2602814834E-04  -0.3935815591E-05  -0.4600780729E-05   0.2370634627E-02  -0.7393668476E-03   0.2859811579E-03   0.2288255397E+01  -0.2364824170E-02  -0.3078114212E-01  -0.1977424142E-01  -0.2509751082E-02  -0.1100919134E-01
   0.0000000000E+00   0.9993092543E+00   0.3403976988E-03   0.0000000000E+00   0.1161232785E-04  -0.2567741179E-04   0.0000000000E+00  -0.7023580410E-03   0.3660751106E-03   0.2435043693E+01   0.3285446346E-01   0.4361309646E-01  -0.1031874422E-01   0.9546956365E-02  -0.2997550815E-02
   0.0000000000E+00   0.0000000000E+00   0.9994726075E+00   0.0000000000E+00   0.0000000000E+00   0.9414971733E-05   0.0000000000E+00   0.0000000000E+00  -0.5368075044E-03   0.2437594168E+01  -0.2067362832E-01   0.9459071320E-01  -0.8379799620E-03   0.1508246392E-01   0.8353627302E-03
   0.1002396634E+01   0.0000000000E+00   0.9994808630E+00   0.4269463776E-04   0.0000000000E+00  -0.1221078498E-04   0.2353939406E-02   0.0000000000E+00  -0.5069261661E-03   0.2295726261E+01  -0.1518483915E-01  -0.2543199102E-01  -0.1633287285E-01  -0.4121717926E-02   0.1971044833E-03
   0.1002290118E+01   0.9992084005E+00   0.9995393197E+00   0.1886935198E-04  -0.4336884225E-05  -0.6155366337E-05   0.2271248688E-02  -0.7872625754E-03  -0.4545249331E-03   0.2295019023E+01  -0.1589207674E-01  -0.2401751583E-01  -0.1806453714E-03  -0.5747073621E-02  -0.9948334948E-02
   0.0000000000E+00   0.9989977294E+00   0.9994620056E+00   0.0000000000E+00  -0.2752962880E-05   0.1219215279E-04   0.0000000000E+00  -0.9995176863E-03  -0.5501865887E-03   0.2432077415E+01   0.6294718693E-02   0.7313911949E-01   0.1456659028E-01   0.6856157720E-02  -0.2720752117E-01
   0.2004600000E+01   0.0000000000E+00   0.3725747930E-03   0.1000000000E-03   0.0000000000E+00   0.2659674497E-04   0.4500000000E-02   0.0000000000E+00   0.3459780480E-03   0.2108740722E+01  -0.1267256377E-01  -0.9736054962E-01  -0.5046254187E-02   0.9956442770E-02   0.1011389876E-02
   0.2004600000E+01   0.9993467282E+00   0.4192048923E-03   0.1000000000E-03  -0.1246279741E-04   0.2675131782E-04   0.4500000000E-02  -0.6408089573E-03   0.3924535744E-03   0.2135741311E+01  -0.2394643587E-01  -0.1130872664E+00   0.9044722412E-02   0.1792584277E-01   0.5769763279E-03
   0.2004600000E+01   0.0000000000E+00   0.9996180859E+00   0.1000000000E-03   0.0000000000E+00  -0.2782902361E-04   0.4500000000E-02   0.0000000000E+00  -0.3540851046E-03   0.2134551439E+01  -0.2601233584E-01  -0.1098314946E+00   0.6573345856E-03   0.1495576224E-01  -0.1215032488E-02
   0.2004600000E+01   0.9993656767E+00   0.9995768594E+00   0.1000000000E-03  -0.1045400312E-04  -0.2802243933E-04   0.4500000000E-02  -0.6238692832E-03  -0.3951181107E-03   0.2157692454E+01  -0.3535642103E-01  -0.1236284245E+00   0.1755721929E-01   0.1414199634E-01  -0.1649446037E-02
     1     2     3     4     5     6     7     8
     2     9    10     3     6    11    12     7
 VARIABLES = X,Y,Z,DU1,DU2,DU3,U1,U2,U3,S11,S22,S33,S12,S13,S23
 ZONE, T="0.4700D+00" F=FEPOINT, I=   12 J=    2 ET=BRICK
   0.0000000000E+00   0.0000000000E+00   0.0000000000E+00   0.0000000000E+00   0.0000000000E+00   0.0000000000E+00   0.0000000000E+00   0.0000000000E+00   0.0000000000E+00   0.2499650801E+01   0.3304156378E-01   0.9716267413E-01  -0.1899729076E-01   0.3519568887E-01   0.2046009932E-01
   0.1002620758E+01   0.0000000000E+00   0.3412913104E-03   0.4828051075E-04   0.0000000000E+00  -0.4044900500E-05   0.2572477431E-02   0.0000000000E+00   0.3453362109E-03   0.2353267230E+01   0.2229732989E-01  -0.1247214215E-01  -0.3614774611E-01   0.4482944394E-02  -0.1608827397E-02
   0.1002420279E+01   0.9992525529E+00   0.2766682817E-03   0.2361642286E-04  -0.4144389190E-05  -0.4712095533E-05   0.2396662775E-02  -0.7433026632E-03   0.2813803772E-03   0.2351778896E+01   0.2080899627E-01  -0.9495474904E-02  -0.2798707762E-01  -0.1567535374E-02  -0.1196269330E-01
   0.0000000000E+00   0.9993193495E+00   0.3161877225E-03   0.0000000000E+00   0.1009525293E-04  -0.2420997628E-04   0.0000000000E+00  -0.6907457131E-03   0.3403976988E-03   0.2484509900E+01   0.6220907656E-01   0.8313606242E-01  -0.1584037357E-01   0.9346678507E-02  -0.8629654956E-02
   0.0000000000E+00   0.0000000000E+00   0.9994798147E+00   0.0000000000E+00   0.0000000000E+00   0.7207253019E-05   0.0000000000E+00   0.0000000000E+00  -0.5273925326E-03   0.2492158681E+01   0.7697869245E-02   0.1299984882E+00  -0.4501431756E-02   0.9970989290E-02  -0.1136962923E-02
   0.1002436161E+01   0.0000000000E+00   0.9994689654E+00   0.3952727184E-04   0.0000000000E+00  -0.1189760255E-04   0.2396634043E-02   0.0000000000E+00  -0.5191369511E-03   0.2360169807E+01   0.8492175343E-02  -0.5569564873E-02  -0.2300239080E-01  -0.8420060414E-02   0.6236730337E-03
   0.1002306747E+01   0.9992043943E+00   0.9995336928E+00   0.1662902988E-04  -0.4006260446E-05  -0.5626903972E-05   0.2290118040E-02  -0.7915994596E-03  -0.4606802995E-03   0.2358681474E+01   0.7003841722E-02  -0.2592897632E-02  -0.7633250881E-02  -0.9544168441E-02  -0.9730192874E-02
   0.0000000000E+00   0.9989952245E+00   0.9994728104E+00   0.0000000000E+00  -0.2504850405E-05   0.1080484129E-04   0.0000000000E+00  -0.1002270649E-02  -0.5379944359E-03   0.2480975702E+01   0.3488642091E-01   0.1139929153E+00   0.1018290198E-01   0.3025169600E-02  -0.3022671720E-01
   0.2004700000E+01   0.0000000000E+00   0.3970189415E-03   0.1000000000E-03   0.0000000000E+00   0.2444414853E-04   0.4600000000E-02   0.0000000000E+00   0.3725747930E-03   0.2183783065E+01   0.8467506439E-02  -0.9592077411E-01  -0.8989787620E-02   0.1409813344E-01   0.1344533017E-02
   0.2004700000E+01   0.9993345466E+00   0.4432634397E-03   0.1000000000E-03  -0.1218164608E-04   0.2405854748E-04   0.4600000000E-02  -0.6532717547E-03   0.4192048923E-03   0.2214583057E+01  -0.5040915010E-02  -0.1132123450E+00   0.4174632166E-02   0.2190930093E-01   0.1088665232E-02
   0.2004700000E+01   0.0000000000E+00   0.9995922768E+00   0.1000000000E-03   0.0000000000E+00  -0.2580907371E-04   0.4600000000E-02   0.0000000000E+00  -0.3819141282E-03   0.2210838932E+01  -0.5316295115E-02  -0.1091928401E+00  -0.3131819331E-02   0.1351682340E-01  -0.5470417317E-03
   0.2004700000E+01   0.9993555632E+00   0.9995512040E+00   0.1000000000E-03  -0.1011351757E-04  -0.2565549552E-04   0.4600000000E-02  -0.6343232863E-03  -0.4231405501E-03   0.2237681002E+01  -0.1684575545E-01  -0.1245054499E+00   0.1292212676E-01   0.1227754370E-01  -0.8029095167E-03
     1     2     3     4     5     6     7     8
     2     9    10     3     6    11    12     7
 VARIABLES = X,Y,Z,DU1,DU2,DU3,U1,U2,U3,S11,S22,S33,S12,S13,S23
 ZONE, T="0.4800D+00" F=FEPOINT, I=   12 J=    2 ET=BRICK
   0.0000000000E+00   0.0000000000E+00   0.0000000000E+00   0.0000000000E+00   0.0000000000E+00   0.0000000000E+00   0.0000000000E+00   0.0000000000E+00   0.0000000000E+00   0.2548958282E+01   0.5753957370E-01   0.1258055887E+00  -0.2291222477E-01   0.3305633185E-01   0.1658073554E-01
   0.1002665150E+01   0.0000000000E+00   0.3369412097E-03   0.4439220983E-04   0.0000000000E+00  -0.4350100693E-05   0.2620757942E-02   0.0000000000E+00   0.3412913104E-03   0.2417344029E+01   0.4556634172E-01   0.7175152816E-02  -0.4274385345E-01   0.4434649055E-02  -0.2042490619E-02
   0.1002441918E+01   0.9992477247E+00   0.2723396068E-03   0.2163846782E-04  -0.4828294044E-05  -0.4328674833E-05   0.2420279198E-02  -0.7474470524E-03   0.2766682817E-03   0.2415112335E+01   0.4333464712E-01   0.1163854201E-01  -0.3557111559E-01  -0.7290134492E-03  -0.1251780934E-01
   0.0000000000E+00   0.9993271596E+00   0.2942919307E-03   0.0000000000E+00   0.7810076347E-05  -0.2189579178E-04   0.0000000000E+00  -0.6806504602E-03   0.3161877225E-03   0.2528434526E+01   0.8693240773E-01   0.1169365110E+00  -0.2086615313E-01   0.9168942698E-02  -0.1336950686E-01
   0.0000000000E+00   0.0000000000E+00   0.9994840061E+00   0.0000000000E+00   0.0000000000E+00   0.4191418950E-05   0.0000000000E+00   0.0000000000E+00  -0.5201852796E-03   0.2540785363E+01   0.3167579087E-01   0.1598422907E+00  -0.7896197915E-02   0.5521976875E-02  -0.2550220344E-02
   0.1002472668E+01   0.0000000000E+00   0.9994570163E+00   0.3650715911E-04   0.0000000000E+00  -0.1194913561E-04   0.2436161315E-02   0.0000000000E+00  -0.5310345536E-03   0.2424327575E+01   0.3159925009E-01   0.1415869863E-01  -0.2923785736E-01  -0.1214078716E-01   0.1305051275E-02
   0.1002321632E+01   0.9992002469E+00   0.9995281634E+00   0.1488476803E-04  -0.4147344393E-05  -0.5529373610E-05   0.2306747070E-02  -0.7956057200E-03  -0.4663072034E-03   0.2422095880E+01   0.2936755550E-01   0.1862208782E-01  -0.1459052284E-01  -0.1289698788E-01  -0.9170267441E-02
   0.0000000000E+00   0.9989923941E+00   0.9994814262E+00   0.0000000000E+00  -0.2830441654E-05   0.8615753501E-05   0.0000000000E+00  -0.1004775500E-02  -0.5271895946E-03   0.2524282539E+01   0.5905815862E-01   0.1489627467E+00   0.6150200338E-02  -0.2943765283E-03  -0.3250046273E-01
   0.2004800000E+01   0.0000000000E+00   0.4193342779E-03   0.1000000000E-03   0.0000000000E+00   0.2231533645E-04   0.4700000000E-02   0.0000000000E+00   0.3970189415E-03   0.2264282330E+01   0.3265232798E-01  -0.8906705471E-01  -0.1265889178E-01   0.1802258737E-01   0.1698877261E-02
   0.2004800000E+01   0.9993223419E+00   0.4646099241E-03   0.1000000000E-03  -0.1220465605E-04   0.2134648439E-04   0.4700000000E-02  -0.6654534008E-03   0.4432634397E-03   0.2298560796E+01   0.1701420337E-01  -0.1077073958E+00  -0.3594876996E-03   0.2555125265E-01   0.1647022309E-02
   0.2004800000E+01   0.0000000000E+00   0.9995684533E+00   0.1000000000E-03   0.0000000000E+00  -0.2382344833E-04   0.4700000000E-02   0.0000000000E+00  -0.4077232019E-03   0.2292456647E+01   0.1851331434E-01  -0.1031023584E+00  -0.6694325321E-02   0.1240606991E-01   0.1977690065E-03
   0.2004800000E+01   0.9993454601E+00   0.9995278864E+00   0.1000000000E-03  -0.1010309716E-04  -0.2331758440E-04   0.4700000000E-02  -0.6444368039E-03  -0.4487960456E-03   0.2322714180E+01   0.4885656018E-02  -0.1197322333E+00   0.8553945460E-02   0.1067862301E-01   0.1459140551E-03
     1     2     3     4     5     6     7     8
     2     9    10     3     6    11    12     7
 VARIABLES = X,Y,Z,DU1,DU2,DU3,U1,U2,U3,S11,S22,S33,S12,S13,S23
 ZONE, T="0.4900D+00" F=FEPOINT, I=   12 J=    2 ET=BRICK
   0.0000000000E+00   0.0000000000E+00   0.0000000000E+00   0.0000000000E+00   0.0000000000E+00   0.0000000000E+00   0.0000000000E+00   0.0000000000E+00   0.0000000000E+00   0.2591838401E+01   0.7630366000E-01   0.1476680337E+00  -0.2641217780E-01   0.3123149162E-01   0.1353262328E-01
   0.1002705823E+01   0.0000000000E+00   0.3327307600E-03   0.4067323313E-04   0.0000000000E+00  -0.4210449672E-05   0.2665150152E-02   0.0000000000E+00   0.3369412097E-03   0.2480325310E+01   0.6693782494E-01   0.2532339857E-01  -0.4871161679E-01   0.4505155532E-02  -0.2139194017E-02
   0.1002462112E+01   0.9992417690E+00   0.2688587517E-03   0.2019464919E-04  -0.5955609014E-05  -0.3480855090E-05   0.2441917666E-02  -0.7522753464E-03   0.2723396068E-03   0.2477402715E+01   0.6401523002E-01   0.3116858839E-01  -0.4241230596E-01   0.1072780484E-04  -0.1264754068E-01
   0.0000000000E+00   0.9993320539E+00   0.2754062092E-03   0.0000000000E+00   0.4894297893E-05  -0.1888572155E-04   0.0000000000E+00  -0.6728403838E-03   0.2942919307E-03   0.2566414593E+01   0.1058907782E+00   0.1435047239E+00  -0.2531889094E-01   0.9054497144E-02  -0.1707963772E-01
   0.0000000000E+00   0.0000000000E+00   0.9994845299E+00   0.0000000000E+00   0.0000000000E+00   0.5237618134E-06   0.0000000000E+00   0.0000000000E+00  -0.5159938607E-03   0.2582975989E+01   0.5012260476E-01   0.1827115005E+00  -0.1097022787E-01   0.1845241251E-02  -0.3342590725E-02
   0.1002506421E+01   0.0000000000E+00   0.9994446700E+00   0.3375298466E-04   0.0000000000E+00  -0.1234626534E-04   0.2472668474E-02   0.0000000000E+00  -0.5429836892E-03   0.2487330875E+01   0.5292669605E-01   0.3232896301E-01  -0.3494534177E-01  -0.1520539506E-01   0.2244698349E-02
   0.1002335363E+01   0.9991955018E+00   0.9995223105E+00   0.1373094707E-04  -0.4745149618E-05  -0.5852946154E-05   0.2321631838E-02  -0.7997530644E-03  -0.4718365770E-03   0.2484408280E+01   0.5000410114E-01   0.3817415283E-01  -0.2094929625E-01  -0.1574501707E-01  -0.8263648313E-02
   0.0000000000E+00   0.9989887588E+00   0.9994871836E+00   0.0000000000E+00  -0.3635294882E-05   0.5757409337E-05   0.0000000000E+00  -0.1007605941E-02  -0.5185738411E-03   0.2561598541E+01   0.7768654300E-01   0.1765250107E+00   0.2530238216E-02  -0.3027452780E-02  -0.3395485172E-01
   0.2004900000E+01   0.0000000000E+00   0.4396467198E-03   0.1000000000E-03   0.0000000000E+00   0.2031244186E-04   0.4800000000E-02   0.0000000000E+00   0.4193342779E-03   0.2348969921E+01   0.5855378740E-01  -0.7816073578E-01  -0.1600012931E-01   0.2168469772E-01   0.2063692884E-02
   0.2004900000E+01   0.9993097510E+00   0.4833332950E-03   0.1000000000E-03  -0.1259092145E-04   0.1872337090E-04   0.4800000000E-02  -0.6776580569E-03   0.4646099241E-03   0.2386347866E+01   0.4092080573E-01  -0.9790569891E-01  -0.4494794521E-02   0.2880329700E-01   0.2238371502E-02
   0.2004900000E+01   0.0000000000E+00   0.9995464775E+00   0.1000000000E-03   0.0000000000E+00  -0.2197583174E-04   0.4800000000E-02   0.0000000000E+00  -0.4315466502E-03   0.2378124054E+01   0.4415139946E-01  -0.9291248095E-01  -0.9979068943E-02   0.1164984692E-01   0.1007702148E-02
   0.2004900000E+01   0.9993349756E+00   0.9995067677E+00   0.1000000000E-03  -0.1048454422E-04  -0.2111870815E-04   0.4800000000E-02  -0.6545399010E-03  -0.4721136300E-03   0.2411455639E+01   0.2854159771E-01  -0.1106342642E+00   0.4512556014E-02   0.9373757172E-02   0.1182380766E-02
     1     2     3     4     5     6     7     8
     2     9    10     3     6    11    12     7
 VARIABLES = X,Y,Z,DU1,DU2,DU3,U1,U2,U3,S11,S22,S33,S12,S13,S23
 ZONE, T="0.5000D+00" F=FEPOINT, I=   12 J=    2 ET=BRICK
   0.0000000000E+00   0.0000000000E+00   0.0000000000E+00   0.0000000000E+00   0.0000000000E+00   0.0000000000E+00   0.0000000000E+00   0.0000000000E+00   0.0000000000E+00   0.2628131194E+01   0.8853351759E-01   0.1617568258E+00  -0.2945324483E-01   0.2980657315E-01   0.1140277415E-01
   0.1002743077E+01   0.0000000000E+00   0.3290613938E-03   0.3725355872E-04   0.0000000000E+00  -0.3669366212E-05   0.2705823385E-02   0.0000000000E+00   0.3327307600E-03   0.2541432013E+01   0.8532778045E-01   0.4069519010E-01  -0.5397067297E-01   0.4730001840E-02  -0.1887155213E-02
   0.1002481485E+01   0.9992342982E+00   0.2666300546E-03   0.1937250305E-04  -0.7470799226E-05  -0.2228697152E-05   0.2462112315E-02  -0.7582309554E-03   0.2688587517E-03   0.2537883278E+01   0.8177904529E-01   0.4779266042E-01  -0.4842849751E-01   0.6629025607E-03  -0.1234111620E-01
   0.0000000000E+00   0.9993335628E+00   0.2600473172E-03   0.0000000000E+00   0.1508878065E-05  -0.1535889196E-04   0.0000000000E+00  -0.6679460859E-03   0.2754062092E-03   0.2598376054E+01   0.1182912253E+00   0.1617542574E+00  -0.2915006451E-01   0.9042958800E-02  -0.1966560066E-01
   0.0000000000E+00   0.0000000000E+00   0.9994809184E+00   0.0000000000E+00   0.0000000000E+00  -0.3611532589E-05   0.0000000000E+00   0.0000000000E+00  -0.5154700988E-03   0.2618576811E+01   0.6224233402E-01   0.1976023918E+00  -0.1368635525E-01  -0.9833076435E-03  -0.3477363896E-02
   0.1002537795E+01   0.0000000000E+00   0.9994316274E+00   0.3137382639E-04   0.0000000000E+00  -0.1304269105E-04   0.2506421459E-02   0.0000000000E+00  -0.5553299546E-03   0.2548401321E+01   0.7138916580E-01   0.4766449743E-01  -0.4004951791E-01  -0.1756270937E-01   0.3435947526E-02
   0.1002348611E+01   0.9991897405E+00   0.9995157508E+00   0.1324794581E-04  -0.5761334056E-05  -0.6559672803E-05   0.2335362785E-02  -0.8044982141E-03  -0.4776895232E-03   0.2544852585E+01   0.6784043064E-01   0.5476196774E-01  -0.2663527452E-01  -0.1804926720E-01  -0.7018013460E-02
   0.0000000000E+00   0.9989839532E+00   0.9994895730E+00   0.0000000000E+00  -0.4805537136E-05   0.2389461026E-05   0.0000000000E+00  -0.1011241236E-02  -0.5128164318E-03   0.2592854396E+01   0.8998367958E-01   0.1955834613E+00  -0.6408294650E-03  -0.5124222850E-02  -0.3454573871E-01
   0.2005000000E+01   0.0000000000E+00   0.4581551669E-03   0.1000000000E-03   0.0000000000E+00   0.1850844712E-04   0.4900000000E-02   0.0000000000E+00   0.4396467198E-03   0.2436417947E+01   0.8476313758E-01  -0.6469265356E-01  -0.1897525399E-01   0.2505337910E-01   0.2426303445E-02
   0.2005000000E+01   0.9992963777E+00   0.4996027038E-03   0.1000000000E-03  -0.1337332166E-04   0.1626940873E-04   0.4900000000E-02  -0.6902489783E-03   0.4833332950E-03   0.2476465159E+01   0.6529750311E-01  -0.8527423173E-01  -0.8194083401E-02   0.3163370835E-01   0.2846201228E-02
   0.2005000000E+01   0.0000000000E+00   0.9995261364E+00   0.1000000000E-03   0.0000000000E+00  -0.2034111240E-04   0.4900000000E-02   0.0000000000E+00  -0.4535224820E-03   0.2466404647E+01   0.7018968510E-01  -0.8010590160E-01  -0.1294891999E-01   0.1125783746E-01   0.1868331591E-02
   0.2005000000E+01   0.9993236828E+00   0.9994876276E+00   0.1000000000E-03  -0.1129278073E-04  -0.1914003918E-04   0.4900000000E-02  -0.6650244452E-03  -0.4932323381E-03   0.2502419135E+01   0.5274041281E-01  -0.9867111759E-01   0.8340410081E-03   0.8376550473E-02   0.2288229374E-02
     1     2     3     4     5     6     7     8
     2     9    10     3     6    11    12     7
 VARIABLES = X,Y,Z,DU1,DU2,DU3,U1,U2,U3,S11,S22,S33,S12,S13,S23
 ZONE, T="0.5100D+00" F=FEPOINT, I=   12 J=    2 ET=BRICK
   0.0000000000E+00   0.0000000000E+00   0.0000000000E+00   0.0000000000E+00   0.0000000000E+00   0.0000000000E+00   0.0000000000E+00   0.0000000000E+00   0.0000000000E+00   0.2658039368E+01   0.9381706648E-01   0.1675352046E+00  -0.3200791774E-01   0.2884681544E-01   0.1023666868E-01
   0.1002777327E+01   0.0000000000E+00   0.3262661068E-03   0.3425004383E-04   0.0000000000E+00  -0.2795287046E-05   0.2743076944E-02   0.0000000000E+00   0.3290613938E-03   0.2600022556E+01   0.9984398717E-01   0.5224248743E-01  -0.5846146511E-01   0.5139091033E-02  -0.1288994209E-02
   0.1002500727E+01   0.9992250000E+00   0.2659725708E-03   0.1924223868E-04  -0.9298248103E-05  -0.6574837937E-06   0.2481484818E-02  -0.7657017547E-03   0.2666300546E-03   0.2595921992E+01   0.9574342302E-01   0.6044361571E-01  -0.5356867597E-01   0.1243273494E-02  -0.1160462851E-01
   0.0000000000E+00   0.9993313921E+00   0.2485347529E-03   0.0000000000E+00  -0.2170650594E-05  -0.1151256435E-04   0.0000000000E+00  -0.6664372079E-03   0.2600473172E-03   0.2624590654E+01   0.1237226053E+00   0.1710783798E+00  -0.3233870735E-01   0.9170179877E-02  -0.2107930863E-01
   0.0000000000E+00   0.0000000000E+00   0.9994729058E+00   0.0000000000E+00   0.0000000000E+00  -0.8012569070E-05   0.0000000000E+00   0.0000000000E+00  -0.5190816314E-03   0.2647797006E+01   0.6762227004E-01   0.2039723628E+00  -0.1602184104E-01  -0.2922749907E-02  -0.2944513107E-02
   0.1002567259E+01   0.0000000000E+00   0.9994176585E+00   0.2946395800E-04   0.0000000000E+00  -0.1396886665E-04   0.2537795285E-02   0.0000000000E+00  -0.5683726456E-03   0.2606899646E+01   0.8608980810E-01   0.5911957696E-01  -0.4449364470E-01  -0.1918916143E-01   0.4861852004E-02
   0.1002362109E+01   0.9991826034E+00   0.9995081637E+00   0.1349794052E-04  -0.7137081548E-05  -0.7587136730E-05   0.2348610731E-02  -0.8102595481E-03  -0.4842491960E-03   0.2602799081E+01   0.8198924395E-01   0.6732070524E-01  -0.3160207111E-01  -0.1979208236E-01  -0.5453782298E-02
   0.0000000000E+00   0.9989777382E+00   0.9994882624E+00   0.0000000000E+00  -0.6215035962E-05  -0.1310589531E-05   0.0000000000E+00  -0.1016046773E-02  -0.5104269708E-03   0.2618327649E+01   0.9553813037E-01   0.2055258595E+00  -0.3351072508E-02  -0.6560254258E-02  -0.3426049042E-01
   0.2005100000E+01   0.0000000000E+00   0.4751005596E-03   0.1000000000E-03   0.0000000000E+00   0.1694539265E-04   0.5000000000E-02   0.0000000000E+00   0.4581551669E-03   0.2525119222E+01   0.1098787007E+00  -0.5017150037E-01  -0.2156075968E-01   0.2811088656E-01   0.2772395616E-02
   0.2005100000E+01   0.9992818204E+00   0.5136376172E-03   0.1000000000E-03  -0.1455725201E-04   0.1403491340E-04   0.5000000000E-02  -0.7036223000E-03   0.4996027038E-03   0.2567361787E+01   0.8876701307E-01  -0.7130237795E-01  -0.1144439178E-01   0.3402685166E-01   0.3451556919E-02
   0.2005100000E+01   0.0000000000E+00   0.9995071728E+00   0.1000000000E-03   0.0000000000E+00  -0.1896360390E-04   0.5000000000E-02   0.0000000000E+00  -0.4738635944E-03   0.2555786128E+01   0.9522440911E-01  -0.6618411455E-01  -0.1558023092E-01   0.1122394697E-01   0.2762800635E-02
   0.2005100000E+01   0.9993111483E+00   0.9994701956E+00   0.1000000000E-03  -0.1253445085E-04  -0.1743197508E-04   0.5000000000E-02  -0.6763172260E-03  -0.5123723773E-03   0.2594049336E+01   0.7610239995E-01  -0.8532531366E-01  -0.2467852299E-02   0.7686574088E-02   0.3441961938E-02
     1     2     3     4     5     6     7     8
     2     9    10     3     6    11    12     7
 VARIABLES = X,Y,Z,DU1,DU2,DU3,U1,U2,U3,S11,S22,S33,S12,S13,S23
 ZONE, T="0.5200D+00" F=FEPOINT, I=   12 J=    2 ET=BRICK
   0.0000000000E+00   0.0000000000E+00   0.0000000000E+00   0.0000000000E+00   0.0000000000E+00   0.0000000000E+00   0.0000000000E+00   0.0000000000E+00   0.0000000000E+00   0.2682126002E+01   0.9214918954E-01   0.1649493345E+00  -0.3406406138E-01   0.2839433697E-01   0.1003724766E-01
   0.1002809088E+01   0.0000000000E+00   0.3245899163E-03   0.3176124459E-04   0.0000000000E+00  -0.1676190464E-05   0.2777326988E-02   0.0000000000E+00   0.3262661068E-03   0.2655631304E+01   0.1098363791E+00   0.5921271161E-01  -0.6214450708E-01   0.5754470838E-02  -0.3616740900E-03
   0.1002520580E+01   0.9992136530E+00   0.2671009380E-03   0.1985299043E-04  -0.1134697081E-04   0.1128367193E-05   0.2500727057E-02  -0.7750000028E-03   0.2659725708E-03   0.2651059859E+01   0.1052649346E+00   0.6835560063E-01  -0.5781082576E-01   0.1770283895E-02  -0.1046087969E-01
   0.0000000000E+00   0.9993254284E+00   0.2409836133E-03   0.0000000000E+00  -0.5963697599E-05  -0.7551139559E-05   0.0000000000E+00  -0.6686078585E-03   0.2485347529E-03   0.2645672692E+01   0.1221740661E+00   0.1713777682E+00  -0.3488902749E-01   0.9465955633E-02  -0.2132004332E-01
   0.0000000000E+00   0.0000000000E+00   0.9994604350E+00   0.0000000000E+00   0.0000000000E+00  -0.1247079198E-04   0.0000000000E+00   0.0000000000E+00  -0.5270942005E-03   0.2671206249E+01   0.6625177505E-01   0.2017665019E+00  -0.1796727021E-01  -0.3966566181E-02  -0.1760973715E-02
   0.1002595358E+01   0.0000000000E+00   0.9994026210E+00   0.2809845950E-04   0.0000000000E+00  -0.1503747308E-04   0.2567259243E-02   0.0000000000E+00  -0.5823415123E-03   0.2662364107E+01   0.9637077161E-01   0.6594551533E-01  -0.4823877267E-01  -0.2008781537E-01   0.6495492679E-02
   0.1002376630E+01   0.9991738062E+00   0.9994993100E+00   0.1452147616E-04  -0.8797164882E-05  -0.8853661220E-05   0.2362108671E-02  -0.8173966297E-03  -0.4918363327E-03   0.2657792663E+01   0.9179932709E-01   0.7508840436E-01  -0.3582898364E-01  -0.2097599807E-01  -0.3603712917E-02
   0.0000000000E+00   0.9989700051E+00   0.9994831049E+00   0.0000000000E+00  -0.7733125221E-05  -0.5157521866E-05   0.0000000000E+00  -0.1022261809E-02  -0.5117375603E-03   0.2638639356E+01   0.9433344288E-01   0.2062517270E+00  -0.5610259086E-02  -0.7335563788E-02  -0.3311826469E-01
   0.2005200000E+01   0.0000000000E+00   0.4907354112E-03   0.1000000000E-03   0.0000000000E+00   0.1563485169E-04   0.5100000000E-02   0.0000000000E+00   0.4751005596E-03   0.2613566919E+01   0.1325884725E+00  -0.3601912934E-01  -0.2374676594E-01   0.3085152515E-01   0.3086427222E-02
   0.2005200000E+01   0.9992656993E+00   0.5256783282E-03   0.1000000000E-03  -0.1612113819E-04   0.1204071102E-04   0.5100000000E-02  -0.7181795520E-03   0.5136376172E-03   0.2657495180E+01   0.1100385463E+00  -0.5739746368E-01  -0.1425443718E-01   0.3598190649E-01   0.4033567943E-02
   0.2005200000E+01   0.0000000000E+00   0.9994893153E+00   0.1000000000E-03   0.0000000000E+00  -0.1785751732E-04   0.5100000000E-02   0.0000000000E+00  -0.4928271983E-03   0.2644760105E+01   0.1179390200E+00  -0.5256286329E-01  -0.1786171440E-01   0.1152785587E-01   0.3672223176E-02
   0.2005200000E+01   0.9992969600E+00   0.9994541812E+00   0.1000000000E-03  -0.1418832742E-04  -0.1601445533E-04   0.5100000000E-02  -0.6888516768E-03  -0.5298043524E-03   0.2684801949E+01   0.9733230244E-01  -0.7199798893E-01  -0.5399147462E-02   0.7290861986E-02   0.4619363898E-02
     1     2     3     4     5     6     7     8
     2     9    10     3     6    11    12     7
 VARIABLES = X,Y,Z,DU1,DU2,DU3,U1,U2,U3,S11,S22,S33,S12,S13,S23
 ZONE, T="0.5300D+00" F=FEPOINT, I=   12 J=    2 ET=BRICK
   0.0000000000E+00   0.0000000000E+00   0.0000000000E+00   0.0000000000E+00   0.0000000000E+00   0.0000000000E+00   0.0000000000E+00   0.0000000000E+00   0.0000000000E+00   0.2701291374E+01   0.8392638535E-01   0.1544258576E+00  -0.3562328264E-01   0.2846659491E-01   0.1076608565E-01
   0.1002838951E+01   0.0000000000E+00   0.3241769562E-03   0.2986322880E-04   0.0000000000E+00  -0.4129601082E-06   0.2809088232E-02   0.0000000000E+00   0.3245899163E-03   0.2707994408E+01   0.1149307088E+00   0.6119304898E-01  -0.6499891597E-01   0.6588652251E-02   0.8642533431E-03
   0.1002541810E+01   0.9992001368E+00   0.2701134697E-03   0.2122999225E-04  -0.1351618302E-04   0.3012531760E-05   0.2520580047E-02  -0.7863469736E-03   0.2671009380E-03   0.2703036750E+01   0.1099730506E+00   0.7110836518E-01  -0.6115862955E-01   0.2263200581E-02  -0.8948441247E-02
   0.0000000000E+00   0.9993157342E+00   0.2373086721E-03   0.0000000000E+00  -0.9694208220E-05  -0.3674941217E-05   0.0000000000E+00  -0.6745715561E-03   0.2409836133E-03   0.2662555709E+01   0.1140299208E+00   0.1630579874E+00  -0.3682696299E-01   0.9952211107E-02  -0.2043310769E-01
   0.0000000000E+00   0.0000000000E+00   0.9994436528E+00   0.0000000000E+00   0.0000000000E+00  -0.1678225284E-04   0.0000000000E+00   0.0000000000E+00  -0.5395649925E-03   0.2689711401E+01   0.5851717847E-01   0.1914150374E+00  -0.1952490928E-01  -0.4140464561E-02   0.3038279724E-04
   0.1002622688E+01   0.0000000000E+00   0.9993864710E+00   0.2732983108E-04   0.0000000000E+00  -0.1615001696E-04   0.2595357703E-02   0.0000000000E+00  -0.5973789854E-03   0.2714536204E+01   0.1018471160E+00   0.6773484537E-01  -0.5126229366E-01  -0.2028624658E-01   0.8300740497E-02
   0.1002392965E+01   0.9991631513E+00   0.9994890453E+00   0.1633496706E-04  -0.1065489369E-04  -0.1026467379E-04   0.2376630147E-02  -0.8261937945E-03  -0.5006899940E-03   0.2709578546E+01   0.9688945785E-01   0.7765016157E-01  -0.3931771613E-01  -0.2162175890E-01  -0.1511954093E-02
   0.0000000000E+00   0.9989607726E+00   0.9994741361E+00   0.0000000000E+00  -0.9232424072E-05  -0.8968772406E-05   0.0000000000E+00  -0.1029994934E-02  -0.5168950822E-03   0.2654730623E+01   0.8674327041E-01   0.1981697236E+00  -0.7446382446E-02  -0.7472597874E-02  -0.3116881054E-01
   0.2005300000E+01   0.0000000000E+00   0.5052958825E-03   0.1000000000E-03   0.0000000000E+00   0.1456047125E-04   0.5200000000E-02   0.0000000000E+00   0.4907354112E-03   0.2700329272E+01   0.1517427293E+00  -0.2347928697E-01  -0.2553534856E-01   0.3327986230E-01   0.3352122018E-02
   0.2005300000E+01   0.9992476807E+00   0.5359589055E-03   0.1000000000E-03  -0.1801859855E-04   0.1028057734E-04   0.5200000000E-02  -0.7343006902E-03   0.5256783282E-03   0.2745406036E+01   0.1279802925E+00  -0.4479361404E-01  -0.1665109538E-01   0.3751101218E-01   0.4570094033E-02
   0.2005300000E+01   0.0000000000E+00   0.9994723058E+00   0.1000000000E-03   0.0000000000E+00  -0.1700948361E-04   0.5200000000E-02   0.0000000000E+00  -0.5106847156E-03   0.2731896726E+01   0.1371769745E+00  -0.4048098588E-01  -0.1979280791E-01   0.1213712411E-01   0.4576176892E-02
   0.2005300000E+01   0.9992807526E+00   0.9994393018E+00   0.1000000000E-03  -0.1620739253E-04  -0.1487934361E-04   0.5200000000E-02  -0.7030400042E-03  -0.5458188077E-03   0.2773218603E+01   0.1152919812E+00  -0.5991786943E-01  -0.7982179678E-02   0.7165902197E-02   0.5794148907E-02
     1     2     3     4     5     6     7     8
     2     9    10     3     6    11    12     7
 VARIABLES = X,Y,Z,DU1,DU2,DU3,U1,U2,U3,S11,S22,S33,S12,S13,S23
 ZONE, T="0.5400D+00" F=FEPOINT, I=   12 J=    2 ET=BRICK
   0.0000000000E+00   0.0000000000E+00   0.0000000000E+00   0.0000000000E+00   0.0000000000E+00   0.0000000000E+00   0.0000000000E+00   0.0000000000E+00   0.0000000000E+00   0.2716730145E+01   0.6991782054E-01   0.1368408380E+00  -0.3669882418E-01   0.2905632317E-01   0.1234665266E-01
   0.1002867558E+01   0.0000000000E+00   0.3250648864E-03   0.2860655820E-04   0.0000000000E+00   0.8879301925E-06   0.2838951461E-02   0.0000000000E+00   0.3241769562E-03   0.2757061641E+01   0.1150437442E+00   0.5813055599E-01  -0.6702035833E-01   0.7643562848E-02   0.2346057766E-02
   0.1002565183E+01   0.9991844355E+00   0.2749881117E-03   0.2337280004E-04  -0.1570135075E-04   0.4874641947E-05   0.2541810040E-02  -0.7998631566E-03   0.2701134697E-03   0.2751803385E+01   0.1097854878E+00   0.6864706890E-01  -0.6363726786E-01   0.2740382896E-02  -0.7119975191E-02
   0.0000000000E+00   0.9993025344E+00   0.2372392393E-03   0.0000000000E+00  -0.1319979092E-04  -0.6943282901E-07   0.0000000000E+00  -0.6842657643E-03   0.2373086721E-03   0.2676450271E+01   0.1000413937E+00   0.1469971388E+00  -0.3819592285E-01   0.1064176614E-01  -0.1850622665E-01
   0.0000000000E+00   0.0000000000E+00   0.9994228943E+00   0.0000000000E+00   0.0000000000E+00  -0.2075844192E-04   0.0000000000E+00   0.0000000000E+00  -0.5563472453E-03   0.2704513549E+01   0.4517323904E-01   0.1738020151E+00  -0.2070665425E-01  -0.3498795172E-02   0.2363016482E-02
   0.1002649873E+01   0.0000000000E+00   0.9993692669E+00   0.2718574927E-04   0.0000000000E+00  -0.1720407963E-04   0.2622687534E-02   0.0000000000E+00  -0.6135290023E-03   0.2763372330E+01   0.1024223669E+00   0.6444124462E-01  -0.5355597634E-01  -0.1983342818E-01   0.1023344246E-01
   0.1002411894E+01   0.9991505337E+00   0.9994773256E+00   0.1892923612E-04  -0.1261760136E-04  -0.1171975919E-04   0.2392965114E-02  -0.8368486882E-03  -0.5109546677E-03   0.2758114073E+01   0.9716411048E-01   0.7495775754E-01  -0.4208830751E-01  -0.2176563971E-01   0.7674094986E-03
   0.0000000000E+00   0.9989501764E+00   0.9994615617E+00   0.0000000000E+00  -0.1059628649E-04  -0.1257444060E-04   0.0000000000E+00  -0.1039227358E-02  -0.5258638546E-03   0.2667820211E+01   0.7350354450E-01   0.1821650482E+00  -0.8901485366E-02  -0.7013299913E-02  -0.2848986282E-01
   0.2005400000E+01   0.0000000000E+00   0.5189781386E-03   0.1000000000E-03   0.0000000000E+00   0.1368225611E-04   0.5300000000E-02   0.0000000000E+00   0.5052958825E-03   0.2784115382E+01   0.1664126692E+00  -0.1354497199E-01  -0.2693844539E-01   0.3540857526E-01   0.3553035061E-02
   0.2005400000E+01   0.9992274987E+00   0.5446843012E-03   0.1000000000E-03  -0.2018202277E-04   0.8725395716E-05   0.5300000000E-02  -0.7523192887E-03   0.5359589055E-03   0.2829784188E+01   0.1416780283E+00  -0.3447913728E-01  -0.1867516579E-01   0.3863696934E-01   0.5038470082E-02
   0.2005400000E+01   0.0000000000E+00   0.9994559230E+00   0.1000000000E-03   0.0000000000E+00  -0.1638280135E-04   0.5300000000E-02   0.0000000000E+00  -0.5276941992E-03   0.2815910274E+01   0.1520006583E+00  -0.3092785291E-01  -0.2138165439E-01   0.1300971155E-01   0.5453272864E-02
   0.2005400000E+01   0.9992622302E+00   0.9994253073E+00   0.1000000000E-03  -0.1852236519E-04  -0.1399455609E-04   0.5300000000E-02  -0.7192473968E-03  -0.5606981513E-03   0.2857992545E+01   0.1290592851E+00  -0.5006875052E-01  -0.1025148561E-01   0.7279990176E-02   0.6938707885E-02
     1     2     3     4     5     6     7     8
     2     9    10     3     6    11    12     7
 VARIABLES = X,Y,Z,DU1,DU2,DU3,U1,U2,U3,S11,S22,S33,S12,S13,S23
 ZONE, T="0.5500D+00" F=FEPOINT, I=   12 J=    2 ET=BRICK
   0.0000000000E+00   0.0000000000E+00   0.0000000000E+00   0.0000000000E+00   0.0000000000E+00   0.0000000000E+00   0.0000000000E+00   0.0000000000E+00   0.0000000000E+00   0.2729871305E+01   0.5121470187E-01   0.1134621978E+00  -0.3731313114E-01   0.3013291877E-01   0.1466945294E-01
   0.1002895573E+01   0.0000000000E+00   0.3271867837E-03   0.2801455363E-04   0.0000000000E+00   0.2121897352E-05   0.2867558019E-02   0.0000000000E+00   0.3250648864E-03   0.2802993813E+01   0.1103795138E+00   0.5032735290E-01  -0.6821857581E-01   0.8910185010E-02   0.4030821582E-02
   0.1002591437E+01   0.9991666352E+00   0.2815863553E-03   0.2625463402E-04  -0.1780032493E-04   0.6598243575E-05   0.2565182840E-02  -0.8155645074E-03   0.2749881117E-03   0.2797519042E+01   0.1049047426E+00   0.6127689534E-01  -0.6528861224E-01   0.3217776008E-02  -0.5039902160E-02
   0.0000000000E+00   0.9992861946E+00   0.2403437473E-03   0.0000000000E+00  -0.1633986526E-04   0.3104508076E-05   0.0000000000E+00  -0.6974655552E-03   0.2372392393E-03   0.2688785184E+01   0.8127711790E-01   0.1244859033E+00  -0.3905199146E-01   0.1153773470E-01  -0.1566392492E-01
   0.0000000000E+00   0.0000000000E+00   0.9993986583E+00   0.0000000000E+00   0.0000000000E+00  -0.2423606043E-04   0.0000000000E+00   0.0000000000E+00  -0.5771056872E-03   0.2717047807E+01   0.2729307313E-01   0.1502073247E+00  -0.2153171185E-01  -0.2119793054E-02   0.5150097701E-02
   0.1002677541E+01   0.0000000000E+00   0.9993511662E+00   0.2766804384E-04   0.0000000000E+00  -0.1810070866E-04   0.2649873283E-02   0.0000000000E+00  -0.6307330820E-03   0.2809040962E+01   0.9828521551E-01   0.5637450206E-01  -0.5512364730E-01  -0.1879582668E-01   0.1224297841E-01
   0.1002434163E+01   0.9991359414E+00   0.9994642057E+00   0.2226914924E-04  -0.1459230016E-04  -0.1311990095E-04   0.2411894351E-02  -0.8494662896E-03  -0.5226744269E-03   0.2803566191E+01   0.9281044429E-01   0.6732404450E-01  -0.4417455093E-01  -0.2145624347E-01   0.3172254667E-02
   0.0000000000E+00   0.9989384509E+00   0.9994457354E+00   0.0000000000E+00  -0.1172544514E-04  -0.1582634003E-04   0.0000000000E+00  -0.1049823645E-02  -0.5384382952E-03   0.2679345549E+01   0.5566355744E-01   0.1595390986E+00  -0.1002705129E-01  -0.6015457439E-02  -0.2518328016E-01
   0.2005500000E+01   0.0000000000E+00   0.5319203170E-03   0.1000000000E-03   0.0000000000E+00   0.1294217838E-04   0.5400000000E-02   0.0000000000E+00   0.5189781386E-03   0.2863828955E+01   0.1759322560E+00  -0.6908056773E-02  -0.2797548286E-01   0.3725607647E-01   0.3673168537E-02
   0.2005500000E+01   0.9992049714E+00   0.5520129183E-03   0.1000000000E-03  -0.2252725980E-04   0.7328617078E-05   0.5400000000E-02  -0.7725013115E-03   0.5446843012E-03   0.2909522238E+01   0.1504770008E+00  -0.2714608405E-01  -0.2037669541E-01   0.3939064741E-01   0.5416322772E-02
   0.2005500000E+01   0.0000000000E+00   0.9994400000E+00   0.1000000000E-03   0.0000000000E+00  -0.1592299195E-04   0.5400000000E-02   0.0000000000E+00  -0.5440770006E-03   0.2895712603E+01   0.1617335866E+00  -0.2459303467E-01  -0.2264284027E-01   0.1409676491E-01   0.6281782480E-02
   0.2005500000E+01   0.9992411839E+00   0.9994119978E+00   0.1000000000E-03  -0.2104637310E-04  -0.1330952124E-04   0.5400000000E-02  -0.7377697620E-03  -0.5746927074E-03   0.2938022022E+01   0.1379702631E+00  -0.4313913024E-01  -0.1224930809E-01   0.7595800590E-02   0.8024936715E-02
     1     2     3     4     5     6     7     8
     2     9    10     3     6    11    12     7
 VARIABLES = X,Y,Z,DU1,DU2,DU3,U1,U2,U3,S11,S22,S33,S12,S13,S23
 ZONE, T="0.5600D+00" F=FEPOINT, I=   12 J=    2 ET=BRICK
   0.0000000000E+00   0.0000000000E+00   0.0000000000E+00   0.0000000000E+00   0.0000000000E+00   0.0000000000E+00   0.0000000000E+00   0.0000000000E+00   0.0000000000E+00   0.2742304295E+01   0.2916119380E-01   0.8586936300E-01  -0.3749524773E-01   0.3164515457E-01   0.1759872574E-01
   0.1002923655E+01   0.0000000000E+00   0.3303801694E-03   0.2808288973E-04   0.0000000000E+00   0.3193385657E-05   0.2895572573E-02   0.0000000000E+00   0.3271867837E-03   0.2846146350E+01   0.1014073785E+00   0.3841189021E-01  -0.6861466609E-01   0.1036888212E-01   0.5857906277E-02
   0.1002621260E+01   0.9991469160E+00   0.2896646731E-03   0.2982285843E-04  -0.1971916884E-04   0.8078317836E-05   0.2591437474E-02  -0.8333648323E-03   0.2815863553E-03   0.2840535543E+01   0.9579657150E-01   0.4963350419E-01  -0.6616612068E-01   0.3707704777E-02  -0.2781537301E-02
   0.0000000000E+00   0.9992671922E+00   0.2460624518E-03   0.0000000000E+00  -0.1900238004E-04   0.5718704457E-05   0.0000000000E+00  -0.7138054205E-03   0.2403437473E-03   0.2701135434E+01   0.5905554299E-01   0.9714387433E-01  -0.3945888858E-01   0.1263356922E-01  -0.1206022182E-01
   0.0000000000E+00   0.0000000000E+00   0.9993715731E+00   0.0000000000E+00   0.0000000000E+00  -0.2708517860E-04   0.0000000000E+00   0.0000000000E+00  -0.6013417477E-03   0.2728909290E+01   0.6199748552E-02   0.1222258129E+00  -0.2202416304E-01  -0.9994501116E-04   0.8288806818E-02
   0.1002706294E+01   0.0000000000E+00   0.9993324148E+00   0.2875291115E-04   0.0000000000E+00  -0.1875144741E-04   0.2677541327E-02   0.0000000000E+00  -0.6488337906E-03   0.2851905979E+01   0.8988812039E-01   0.4417151926E-01  -0.5597868479E-01  -0.1725294088E-01   0.1427411677E-01
   0.1002460458E+01   0.9991194503E+00   0.9994498313E+00   0.2629434889E-04  -0.1649113463E-04  -0.1437441274E-04   0.2434163500E-02  -0.8640585897E-03  -0.5357943279E-03   0.2846295172E+01   0.8427731339E-01   0.5539313324E-01  -0.4561919933E-01  -0.2075096736E-01   0.5634673187E-02
   0.0000000000E+00   0.9989259074E+00   0.9994271298E+00   0.0000000000E+00  -0.1254346619E-04  -0.1860557264E-04   0.0000000000E+00  -0.1061549090E-02  -0.5542646352E-03   0.2690890456E+01   0.3451908418E-01   0.1319253106E+00  -0.1087924039E-01  -0.4548551977E-02  -0.2137014075E-01
   0.2005600000E+01   0.0000000000E+00   0.5441909517E-03   0.1000000000E-03   0.0000000000E+00   0.1227063469E-04   0.5500000000E-02   0.0000000000E+00   0.5319203170E-03   0.2938607788E+01   0.1799216911E+00  -0.3933093370E-02  -0.2867087473E-01   0.3884406418E-01   0.3697614672E-02
   0.2005600000E+01   0.9991800124E+00   0.5580454633E-03   0.1000000000E-03  -0.2495905754E-04   0.6032545031E-05   0.5500000000E-02  -0.7950285713E-03   0.5520129183E-03   0.2983754804E+01   0.1540054980E+00  -0.2316391680E-01  -0.2181014306E-01   0.3980825417E-01   0.5682428162E-02
   0.2005600000E+01   0.0000000000E+00   0.9994244358E+00   0.1000000000E-03   0.0000000000E+00  -0.1556418440E-04   0.5500000000E-02   0.0000000000E+00  -0.5599999925E-03   0.2970452215E+01   0.1659842909E+00  -0.2184012054E-01  -0.2359503752E-01   0.1534551777E-01   0.7040299522E-02
   0.2005600000E+01   0.9992175035E+00   0.9993992363E+00   0.1000000000E-03  -0.2368041328E-04  -0.1276149616E-04   0.5500000000E-02  -0.7588161351E-03  -0.5880022287E-03   0.3012449204E+01   0.1416431113E+00  -0.3949593041E-01  -0.1402098926E-01   0.8073031095E-02   0.9025113012E-02
     1     2     3     4     5     6     7     8
     2     9    10     3     6    11    12     7
 VARIABLES = X,Y,Z,DU1,DU2,DU3,U1,U2,U3,S11,S22,S33,S12,S13,S23
 ZONE, T="0.5700D+00" F=FEPOINT, I=   12 J=    2 ET=BRICK
   0.0000000000E+00   0.0000000000E+00   0.0000000000E+00   0.0000000000E+00   0.0000000000E+00   0.0000000000E+00   0.0000000000E+00   0.0000000000E+00   0.0000000000E+00   0.2755695515E+01   0.5271202550E-02   0.5585520418E-01  -0.3727820044E-01   0.3352501445E-01   0.2098030877E-01
   0.1002952436E+01   0.0000000000E+00   0.3344023557E-03   0.2878049939E-04   0.0000000000E+00   0.4022186318E-05   0.2923655463E-02   0.0000000000E+00   0.3303801694E-03   0.2887040504E+01   0.8882388736E-01   0.2328885272E-01  -0.6823829594E-01   0.1199037025E-01   0.7761762927E-02
   0.1002655261E+01   0.9991255387E+00   0.2988925506E-03   0.3400056189E-04  -0.2137731683E-04   0.9227877472E-05   0.2621260332E-02  -0.8530840011E-03   0.2896646731E-03   0.2881368958E+01   0.8315234131E-01   0.3463194481E-01  -0.6632974167E-01   0.4218019651E-02  -0.4238419011E-03
   0.0000000000E+00   0.9992460835E+00   0.2537461828E-03   0.0000000000E+00  -0.2110874088E-04   0.7683731005E-05   0.0000000000E+00  -0.7328078005E-03   0.2460624518E-03   0.2715140944E+01   0.3486348027E-01   0.6681749716E-01  -0.3948297465E-01   0.1391371685E-01  -0.7870071744E-02
   0.0000000000E+00   0.0000000000E+00   0.9993423577E+00   0.0000000000E+00   0.0000000000E+00  -0.2921532749E-04   0.0000000000E+00   0.0000000000E+00  -0.6284269263E-03   0.2741769492E+01  -0.1661616659E-01   0.9166859606E-01  -0.2221055548E-01   0.2452185963E-02   0.1166531640E-01
   0.1002736687E+01   0.0000000000E+00   0.9993133302E+00   0.3039231946E-04   0.0000000000E+00  -0.1908453444E-04   0.2706294238E-02   0.0000000000E+00  -0.6675852380E-03   0.2892497574E+01   0.7790974759E-01   0.2874592260E-01  -0.5614149074E-01  -0.1529253777E-01   0.1626908200E-01
   0.1002491379E+01   0.9991012140E+00   0.9994344242E+00   0.3092103949E-04  -0.1823628807E-04  -0.1540709583E-04   0.2460457849E-02  -0.8805497244E-03  -0.5501687406E-03   0.2886826028E+01   0.7223820154E-01   0.4008901470E-01  -0.4646924750E-01  -0.1971233705E-01   0.8083477168E-02
   0.0000000000E+00   0.9989129067E+00   0.9994063016E+00   0.0000000000E+00  -0.1300070723E-04  -0.2082819932E-04   0.0000000000E+00  -0.1074092556E-02  -0.5728702078E-03   0.2704103665E+01   0.1153173923E-01   0.1011865171E+00  -0.1151424340E-01  -0.2689351699E-02  -0.1718506411E-01
   0.2005700000E+01   0.0000000000E+00   0.5557842000E-03   0.1000000000E-03   0.0000000000E+00   0.1159324831E-04   0.5600000000E-02   0.0000000000E+00   0.5441909517E-03   0.3007847829E+01   0.1782922208E+00  -0.4655482132E-02  -0.2905154302E-01   0.4019514066E-01   0.3613200198E-02
   0.2005700000E+01   0.9991526355E+00   0.5628204084E-03   0.1000000000E-03  -0.2737687221E-04   0.4774945086E-05   0.5600000000E-02  -0.8199876289E-03   0.5580454633E-03   0.3051882252E+01   0.1521797958E+00  -0.2257748059E-01  -0.2302966026E-01   0.3992862137E-01   0.5817576398E-02
   0.2005700000E+01   0.0000000000E+00   0.9994092000E+00   0.1000000000E-03   0.0000000000E+00  -0.1523582759E-04   0.5600000000E-02   0.0000000000E+00  -0.5755641769E-03   0.3039537854E+01   0.1646515842E+00  -0.2270487114E-01  -0.2425869327E-01   0.1670215311E-01   0.7708413463E-02
   0.2005700000E+01   0.9991911842E+00   0.9993869540E+00   0.1000000000E-03  -0.2631922088E-04  -0.1228223902E-04   0.5600000000E-02  -0.7824965483E-03  -0.6007637248E-03   0.3080683534E+01   0.1399835311E+00  -0.3918249769E-01  -0.1561051887E-01   0.8670976520E-02   0.9912789662E-02
     1     2     3     4     5     6     7     8
     2     9    10     3     6    11    12     7
 VARIABLES = X,Y,Z,DU1,DU2,DU3,U1,U2,U3,S11,S22,S33,S12,S13,S23
 ZONE, T="0.5800D+00" F=FEPOINT, I=   12 J=    2 ET=BRICK
   0.0000000000E+00   0.0000000000E+00   0.0000000000E+00   0.0000000000E+00   0.0000000000E+00   0.0000000000E+00   0.0000000000E+00   0.0000000000E+00   0.0000000000E+00   0.2771700021E+01  -0.1886383427E-01   0.2531639532E-01  -0.3669651626E-01   0.3569238023E-01   0.2465020486E-01
   0.1002982488E+01   0.0000000000E+00   0.3389508909E-03   0.3005170518E-04   0.0000000000E+00   0.4548535216E-05   0.2952435962E-02   0.0000000000E+00   0.3344023557E-03   0.2926324464E+01   0.7350138572E-01   0.6071630509E-02  -0.6712501423E-01   0.1373725206E-01   0.9674938439E-02
   0.1002693950E+01   0.9991028269E+00   0.3088757724E-03   0.3868915191E-04  -0.2271175567E-04   0.9983221850E-05   0.2655260894E-02  -0.8744613180E-03   0.2988925506E-03   0.2920661265E+01   0.6783818700E-01   0.1739802793E-01  -0.6584111621E-01   0.4751619887E-02   0.1952042025E-02
   0.0000000000E+00   0.9992234668E+00   0.2626987617E-03   0.0000000000E+00  -0.2261669636E-04   0.8952578865E-05   0.0000000000E+00  -0.7539165414E-03   0.2537461828E-03   0.2732420762E+01   0.1026581687E-01   0.3546600350E-01  -0.3918857531E-01   0.1535481454E-01  -0.3280043009E-02
   0.0000000000E+00   0.0000000000E+00   0.9993117785E+00   0.0000000000E+00   0.0000000000E+00  -0.3057920010E-04   0.0000000000E+00   0.0000000000E+00  -0.6576422538E-03   0.2757287849E+01  -0.3958799616E-01   0.6045272917E-01  -0.2211766174E-01   0.5422326055E-02   0.1516018339E-01
   0.1002769203E+01   0.0000000000E+00   0.9992942804E+00   0.3251650531E-04   0.0000000000E+00  -0.1904987239E-04   0.2736686558E-02   0.0000000000E+00  -0.6866697725E-03   0.2931473061E+01   0.6320419050E-01   0.1122022812E-01  -0.5563709619E-01  -0.1300584569E-01   0.1816973651E-01
   0.1002527424E+01   0.9990814499E+00   0.9994182629E+00   0.3604473004E-04  -0.1976404437E-04  -0.1616122446E-04   0.2491378888E-02  -0.8987860124E-03  -0.5655758365E-03   0.2925809863E+01   0.5754099178E-01   0.2254662554E-01  -0.4677156080E-01  -0.1840440678E-01   0.1044684009E-01
   0.0000000000E+00   0.9988998302E+00   0.9993838529E+00   0.0000000000E+00  -0.1307656390E-04  -0.2244870031E-04   0.0000000000E+00  -0.1087093264E-02  -0.5936984072E-03   0.2720612777E+01  -0.1176043840E-01   0.6930024398E-01  -0.1198400712E-01  -0.5174913634E-03  -0.1277006448E-01
   0.2005800000E+01   0.0000000000E+00   0.5666217239E-03   0.1000000000E-03   0.0000000000E+00   0.1083752391E-04   0.5700000000E-02   0.0000000000E+00   0.5557842000E-03   0.3071211689E+01   0.1712332160E+00  -0.8802526590E-02  -0.2914460173E-01   0.4133062972E-01   0.3409105784E-02
   0.2005800000E+01   0.9991229548E+00   0.5663158968E-03   0.1000000000E-03  -0.2968066701E-04   0.3495488321E-05   0.5700000000E-02  -0.8473645011E-03   0.5628204084E-03   0.3113578787E+01   0.1451914037E+00  -0.2512781241E-01  -0.2408474665E-01   0.3979065092E-01   0.5805408256E-02
   0.2005800000E+01   0.0000000000E+00   0.9993943308E+00   0.1000000000E-03   0.0000000000E+00  -0.1486923982E-04   0.5700000000E-02   0.0000000000E+00  -0.5908000045E-03   0.3102646491E+01   0.1579121173E+00  -0.2691623018E-01  -0.2465390032E-01   0.1811448839E-01   0.8267369032E-02
   0.2005800000E+01   0.9991623271E+00   0.9993751495E+00   0.1000000000E-03  -0.2885716513E-04  -0.1180454734E-04   0.5700000000E-02  -0.8088157692E-03  -0.6130459638E-03   0.3142409402E+01   0.1331723984E+00  -0.4193942262E-01  -0.1705648415E-01   0.9350903488E-02   0.1066367150E-01
     1     2     3     4     5     6     7     8
     2     9    10     3     6    11    12     7
 VARIABLES = X,Y,Z,DU1,DU2,DU3,U1,U2,U3,S11,S22,S33,S12,S13,S23
 ZONE, T="0.5900D+00" F=FEPOINT, I=   12 J=    2 ET=BRICK
   0.0000000000E+00   0.0000000000E+00   0.0000000000E+00   0.0000000000E+00   0.0000000000E+00   0.0000000000E+00   0.0000000000E+00   0.0000000000E+00   0.0000000000E+00   0.2791873437E+01  -0.4167052031E-01  -0.3861038415E-02  -0.3578400891E-01   0.3806025147E-01   0.2844336048E-01
   0.1003014307E+01   0.0000000000E+00   0.3436875684E-03   0.3181943797E-04   0.0000000000E+00   0.4736677432E-05   0.2982487667E-02   0.0000000000E+00   0.3389508909E-03   0.2964727216E+01   0.5642713033E-01  -0.1199765283E-01  -0.6531381546E-01   0.1556599569E-01   0.1153112022E-01
   0.1002737722E+01   0.9990791469E+00   0.3191833072E-03   0.4377183201E-04  -0.2367999221E-04   0.1030753478E-04   0.2693950046E-02  -0.8971730736E-03   0.3088757724E-03   0.2959134780E+01   0.5083469427E-01  -0.8127807289E-03  -0.6475933474E-01   0.5306353908E-02   0.4266297400E-02
   0.0000000000E+00   0.9991999457E+00   0.2722205192E-03   0.0000000000E+00  -0.2352105584E-04   0.9521757585E-05   0.0000000000E+00  -0.7765332378E-03   0.2626987617E-03   0.2754487573E+01  -0.1318808903E-01   0.5042393443E-02  -0.3863386867E-01   0.1692731702E-01   0.1521238595E-02
   0.0000000000E+00   0.0000000000E+00   0.9992806048E+00   0.0000000000E+00   0.0000000000E+00  -0.3117378478E-04   0.0000000000E+00   0.0000000000E+00  -0.6882214539E-03   0.2777023539E+01  -0.6116769365E-01   0.3048603201E-01  -0.2177052393E-01   0.8696693805E-02   0.1865386076E-01
   0.1002804240E+01   0.0000000000E+00   0.9992756579E+00   0.3503741162E-04   0.0000000000E+00  -0.1862245794E-04   0.2769203063E-02   0.0000000000E+00  -0.7057196448E-03   0.2969570431E+01   0.4674069990E-01  -0.7154437617E-02  -0.5449303729E-01  -0.1048295678E-01   0.1991977429E-01
   0.1002568967E+01   0.9990604222E+00   0.9994016599E+00   0.4154379859E-04  -0.2102777319E-04  -0.1660305104E-04   0.2527423618E-02  -0.9185500568E-03  -0.5817370609E-03   0.2963977995E+01   0.4114826385E-01   0.4030434482E-02  -0.4656908772E-01  -0.1688941042E-01   0.1265495147E-01
   0.0000000000E+00   0.9988870503E+00   0.9993603918E+00   0.0000000000E+00  -0.1277989676E-04  -0.2346105664E-04   0.0000000000E+00  -0.1100169827E-02  -0.6161471075E-03   0.2741938549E+01  -0.3383569864E-01   0.3823902759E-01  -0.1233255388E-01   0.1888724793E-02  -0.8268261120E-02
   0.2005900000E+01   0.0000000000E+00   0.5765606298E-03   0.1000000000E-03   0.0000000000E+00   0.9938905927E-05   0.5800000000E-02   0.0000000000E+00   0.5666217239E-03   0.3128622400E+01   0.1591835487E+00  -0.1583444071E-01  -0.2897532758E-01   0.4226870742E-01   0.3077434031E-02
   0.2005900000E+01   0.9990911785E+00   0.5684574802E-03   0.1000000000E-03  -0.3177634635E-04   0.2141583491E-05   0.5800000000E-02  -0.8770451681E-03   0.5663158968E-03   0.3168785761E+01   0.1334786150E+00  -0.3029286782E-01  -0.2501650639E-01   0.3943104949E-01   0.5633188372E-02
   0.2005900000E+01   0.0000000000E+00   0.9993799272E+00   0.1000000000E-03   0.0000000000E+00  -0.1440354851E-04   0.5800000000E-02   0.0000000000E+00  -0.6056692443E-03   0.3159716542E+01   0.1461922319E+00  -0.3393726611E-01  -0.2479856505E-01   0.1953436013E-01   0.8700687302E-02
   0.2005900000E+01   0.9991311332E+00   0.9993638813E+00   0.1000000000E-03  -0.3119381693E-04  -0.1126821469E-04   0.5800000000E-02  -0.8376729344E-03  -0.6248505112E-03   0.3197579031E+01   0.1216377345E+00  -0.4724525695E-01  -0.1838863595E-01   0.1007811305E-01   0.1125644164E-01
     1     2     3     4     5     6     7     8
     2     9    10     3     6    11    12     7
 VARIABLES = X,Y,Z,DU1,DU2,DU3,U1,U2,U3,S11,S22,S33,S12,S13,S23
 ZONE, T="0.6000D+00" F=FEPOINT, I=   12 J=    2 ET=BRICK
   0.0000000000E+00   0.0000000000E+00   0.0000000000E+00   0.0000000000E+00   0.0000000000E+00   0.0000000000E+00   0.0000000000E+00   0.0000000000E+00   0.0000000000E+00   0.2817589101E+01  -0.6168666226E-01  -0.2991399621E-01  -0.3457194391E-01   0.4054015328E-01   0.3220216108E-01
   0.1003048296E+01   0.0000000000E+00   0.3482642671E-03   0.3398935532E-04   0.0000000000E+00   0.4576698736E-05   0.3014307105E-02   0.0000000000E+00   0.3436875684E-03   0.3003008446E+01   0.3863718130E-01  -0.2963486684E-01  -0.6284508029E-01   0.1742921716E-01   0.1326806196E-01
   0.1002786840E+01   0.9990548853E+00   0.3293759339E-03   0.4911779365E-04  -0.2426165610E-04   0.1019262676E-04   0.2737721878E-02  -0.9208530658E-03   0.3191833072E-03   0.2997542604E+01   0.3317133976E-01  -0.1870318375E-01  -0.6313746236E-01   0.5875273134E-02   0.6443801514E-02
   0.0000000000E+00   0.9991760935E+00   0.2816503332E-03   0.0000000000E+00  -0.2385224182E-04   0.9429813976E-05   0.0000000000E+00  -0.8000542936E-03   0.2722205192E-03   0.2782667386E+01  -0.3405568049E-01  -0.2262326322E-01  -0.3786753770E-01   0.1859742713E-01   0.6352352173E-02
   0.0000000000E+00   0.0000000000E+00   0.9992495659E+00   0.0000000000E+00   0.0000000000E+00  -0.3103890910E-04   0.0000000000E+00   0.0000000000E+00  -0.7193952386E-03   0.2802352536E+01  -0.7991818861E-01   0.3554095263E-02  -0.2119088317E-01   0.1216770905E-01   0.2203203669E-01
   0.1002842093E+01   0.0000000000E+00   0.9992578538E+00   0.3785287816E-04   0.0000000000E+00  -0.1780407510E-04   0.2804240475E-02   0.0000000000E+00  -0.7243421028E-03   0.3007557953E+01   0.2953816738E-01  -0.2508535987E-01  -0.5273761425E-01  -0.7808670223E-02   0.2146682427E-01
   0.1002616251E+01   0.9990384225E+00   0.9993849363E+00   0.4728371002E-04  -0.2199968491E-04  -0.1672363173E-04   0.2568967417E-02  -0.9395778300E-03  -0.5983401120E-03   0.3002092111E+01   0.2407232584E-01  -0.1415367679E-01  -0.4589784909E-01  -0.1522482732E-01   0.1464256383E-01
   0.0000000000E+00   0.9988749026E+00   0.9993364944E+00   0.0000000000E+00  -0.1214764061E-04  -0.2389743034E-04   0.0000000000E+00  -0.1112949724E-02  -0.6396081641E-03   0.2769414367E+01  -0.5327897962E-01   0.9853055465E-02  -0.1259307611E-01   0.4456082453E-02  -0.3817772220E-02
   0.2006000000E+01   0.0000000000E+00   0.5854064918E-03   0.1000000000E-03   0.0000000000E+00   0.8845861940E-05   0.5900000000E-02   0.0000000000E+00   0.5765606298E-03   0.3180244099E+01   0.1427901803E+00  -0.2500120148E-01  -0.2856552016E-01   0.4302293762E-01   0.2613700994E-02
   0.2006000000E+01   0.9990575980E+00   0.5691307032E-03   0.1000000000E-03  -0.3358051900E-04   0.6732229293E-06   0.5900000000E-02  -0.9088215144E-03   0.5684574802E-03   0.3217691881E+01   0.1176852656E+00  -0.3734406862E-01  -0.2585469051E-01   0.3888245738E-01   0.5292481793E-02
   0.2006000000E+01   0.0000000000E+00   0.9993661366E+00   0.1000000000E-03   0.0000000000E+00  -0.1379064489E-04   0.5900000000E-02   0.0000000000E+00  -0.6200727928E-03   0.3210928016E+01   0.1301270025E+00  -0.4302194088E-01  -0.2470696716E-01   0.2091960709E-01   0.8994724767E-02
   0.2006000000E+01   0.9990978944E+00   0.9993532562E+00   0.1000000000E-03  -0.3323887785E-04  -0.1062502821E-04   0.5900000000E-02  -0.8688667513E-03  -0.6361187259E-03   0.3246392252E+01   0.1060138606E+00  -0.5437303524E-01  -0.1962524389E-01   0.1082360116E-01   0.1167350557E-01
     1     2     3     4     5     6     7     8
     2     9    10     3     6    11    12     7
 VARIABLES = X,Y,Z,DU1,DU2,DU3,U1,U2,U3,S11,S22,S33,S12,S13,S23
 ZONE, T="0.6100D+00" F=FEPOINT, I=   12 J=    2 ET=BRICK
   0.0000000000E+00   0.0000000000E+00   0.0000000000E+00   0.0000000000E+00   0.0000000000E+00   0.0000000000E+00   0.0000000000E+00   0.0000000000E+00   0.0000000000E+00   0.2849965150E+01  -0.7764646276E-01  -0.5130562956E-01  -0.3308766700E-01   0.4304738359E-01   0.3578417514E-01
   0.1003084751E+01   0.0000000000E+00   0.3523488132E-03   0.3645463498E-04   0.0000000000E+00   0.4084546137E-05   0.3048296460E-02   0.0000000000E+00   0.3482642671E-03   0.3041907906E+01   0.2114955500E-01  -0.4560137206E-01  -0.5975898897E-01   0.1927811050E-01   0.1483024218E-01
   0.1002841427E+01   0.9990304266E+00   0.3390346855E-03   0.5458692728E-04  -0.2445867966E-04   0.9658751508E-05   0.2786839672E-02  -0.9451147219E-03   0.3293759339E-03   0.3036618489E+01   0.1586013836E-01  -0.3502253879E-01  -0.6101999248E-01   0.6447195713E-02   0.8417192818E-02
   0.0000000000E+00   0.9991524207E+00   0.2904037360E-03   0.0000000000E+00  -0.2367280785E-04   0.8753402804E-05   0.0000000000E+00  -0.8239065354E-03   0.2816503332E-03   0.2818028928E+01  -0.5108470141E-01  -0.4593116843E-01  -0.3692634031E-01   0.2032918389E-01   0.1104754871E-01
   0.0000000000E+00   0.0000000000E+00   0.9992193125E+00   0.0000000000E+00   0.0000000000E+00  -0.3025332782E-04   0.0000000000E+00   0.0000000000E+00  -0.7504341477E-03   0.2834394608E+01  -0.9459781793E-01  -0.1878373187E-01  -0.2039606626E-01   0.1573891341E-01   0.2519052503E-01
   0.1002882945E+01   0.0000000000E+00   0.9992412306E+00   0.4085136648E-04   0.0000000000E+00  -0.1662317482E-04   0.2842093353E-02   0.0000000000E+00  -0.7421461779E-03   0.3046183272E+01   0.1259882252E-01  -0.4132600581E-01  -0.5039861630E-01  -0.5058975027E-02   0.2276436713E-01
   0.1002669373E+01   0.9990157512E+00   0.9993683974E+00   0.5312169462E-04  -0.2267128883E-04  -0.1653889191E-04   0.2616251127E-02  -0.9615775149E-03  -0.6150637437E-03   0.3040893855E+01   0.7309405882E-02  -0.3074717254E-01  -0.4478484464E-01  -0.1346099732E-01   0.1635131777E-01
   0.0000000000E+00   0.9988636609E+00   0.9993126698E+00   0.0000000000E+00  -0.1124170848E-04  -0.2382456675E-04   0.0000000000E+00  -0.1125097365E-02  -0.6635055944E-03   0.2804115450E+01  -0.6886458894E-01  -0.1423780309E-01  -0.1278593805E-01   0.7119596036E-02   0.4538986000E-03
   0.2006100000E+01   0.0000000000E+00   0.5929301962E-03   0.1000000000E-03   0.0000000000E+00   0.7523704420E-05   0.6000000000E-02   0.0000000000E+00   0.5854064918E-03   0.3226451922E+01   0.1228575127E+00  -0.3541031522E-01  -0.2793232713E-01   0.4360127763E-01   0.2017228782E-02
   0.2006100000E+01   0.9990225736E+00   0.5681972632E-03   0.1000000000E-03  -0.3502434807E-04  -0.9334399710E-06   0.6000000000E-02  -0.9424020334E-03   0.5691307032E-03   0.3260702631E+01   0.9861023784E-01  -0.4541374934E-01  -0.2661566084E-01   0.3817205069E-01   0.4779703791E-02
   0.2006100000E+01   0.0000000000E+00   0.9993531377E+00   0.1000000000E-03   0.0000000000E+00  -0.1299887058E-04   0.6000000000E-02   0.0000000000E+00  -0.6338634377E-03   0.3256671898E+01   0.1105099993E+00  -0.5328277863E-01  -0.2438877958E-01   0.2223557675E-01   0.9139149146E-02
   0.2006100000E+01   0.9990629781E+00   0.9993434137E+00   0.1000000000E-03  -0.3491622379E-04  -0.9842521097E-05   0.6000000000E-02  -0.9021056291E-03  -0.6467437541E-03   0.3289265542E+01   0.8709125679E-01  -0.6245768039E-01  -0.2077136447E-01   0.1156525249E-01   0.1190162415E-01
     1     2     3     4     5     6     7     8
     2     9    10     3     6    11    12     7
 VARIABLES = X,Y,Z,DU1,DU2,DU3,U1,U2,U3,S11,S22,S33,S12,S13,S23
 ZONE, T="0.6200D+00" F=FEPOINT, I=   12 J=    2 ET=BRICK
   0.0000000000E+00   0.0000000000E+00   0.0000000000E+00   0.0000000000E+00   0.0000000000E+00   0.0000000000E+00   0.0000000000E+00   0.0000000000E+00   0.0000000000E+00   0.2889805602E+01  -0.8855274058E-01  -0.6681358545E-01  -0.3135374981E-01   0.4550577073E-01   0.3906873129E-01
   0.1003123852E+01   0.0000000000E+00   0.3556490965E-03   0.3910119386E-04   0.0000000000E+00   0.3300283299E-05   0.3084751095E-02   0.0000000000E+00   0.3523488132E-03   0.3082097618E+01   0.4901033551E-02  -0.5878641784E-01  -0.5609447010E-01   0.2106486684E-01   0.1617112424E-01
   0.1002901461E+01   0.9990061325E+00   0.3477872412E-03   0.6003483942E-04  -0.2429409067E-04   0.8752555784E-05   0.2841426599E-02  -0.9695734016E-03   0.3390346855E-03   0.3077029447E+01  -0.1671372275E-03  -0.4865007628E-01  -0.5844132959E-01   0.7007521005E-02   0.1012948790E-01
   0.0000000000E+00   0.9991293485E+00   0.2980049253E-03   0.0000000000E+00  -0.2307217126E-04   0.7601189246E-05   0.0000000000E+00  -0.8475793433E-03   0.2904037360E-03   0.2861326709E+01  -0.6328402458E-01  -0.6360340841E-01  -0.3583369341E-01   0.2208655931E-01   0.1546397821E-01
   0.0000000000E+00   0.0000000000E+00   0.9991903839E+00   0.0000000000E+00   0.0000000000E+00  -0.2892863322E-04   0.0000000000E+00   0.0000000000E+00  -0.7806874756E-03   0.2873954352E+01  -0.1042318686E+00  -0.3528320734E-01  -0.1939837300E-01   0.1932886140E-01   0.2803946182E-01
   0.1002926862E+01   0.0000000000E+00   0.9992260977E+00   0.4391698348E-04   0.0000000000E+00  -0.1513298650E-04   0.2882944719E-02   0.0000000000E+00  -0.7587693527E-03   0.3086125375E+01  -0.3154481565E-02  -0.5475866028E-01  -0.4750256294E-01  -0.2298329062E-02   0.2377338041E-01
   0.1002728285E+01   0.9989926986E+00   0.9993523094E+00   0.5891168067E-04  -0.2305257618E-04  -0.1608797162E-04   0.2669372821E-02  -0.9842488038E-03  -0.6316026356E-03   0.3081057204E+01  -0.8222652343E-02  -0.4462231872E-01  -0.4324696004E-01  -0.1163938429E-01   0.1773174407E-01
   0.0000000000E+00   0.9988535165E+00   0.9992893317E+00   0.0000000000E+00  -0.1014440386E-04  -0.2333817917E-04   0.0000000000E+00  -0.1136339073E-02  -0.6873301612E-03   0.2846801755E+01  -0.7962630074E-01  -0.3273617841E-01  -0.1291766262E-01   0.9824884769E-02   0.4434708736E-02
   0.2006200000E+01   0.0000000000E+00   0.5988871657E-03   0.1000000000E-03   0.0000000000E+00   0.5956969506E-05   0.6100000000E-02   0.0000000000E+00   0.5929301962E-03   0.3267793903E+01   0.1002914141E+00  -0.4610012658E-01  -0.2708758136E-01   0.4400559113E-01   0.1291420359E-02
   0.2006200000E+01   0.9989865173E+00   0.5655133053E-03   0.1000000000E-03  -0.3605632106E-04  -0.2683957941E-05   0.6100000000E-02  -0.9774263815E-03   0.5681972632E-03   0.3298401713E+01   0.7715161542E-01  -0.5356813831E-01  -0.2730135675E-01   0.3732066653E-01   0.4096517585E-02
   0.2006200000E+01   0.0000000000E+00   0.9993411224E+00   0.1000000000E-03   0.0000000000E+00  -0.1201525901E-04   0.6100000000E-02   0.0000000000E+00  -0.6468623083E-03   0.3297511590E+01   0.8823766765E-01  -0.6376406746E-01  -0.2384858820E-01   0.2345610865E-01   0.9127313821E-02
   0.2006200000E+01   0.9990268113E+00   0.9993345074E+00   0.1000000000E-03  -0.3616689035E-04  -0.8906299203E-05   0.6100000000E-02  -0.9370218529E-03  -0.6565862752E-03   0.3326793104E+01   0.6576101711E-01  -0.7056893107E-01  -0.2181809278E-01   0.1228853048E-01   0.1193241105E-01
     1     2     3     4     5     6     7     8
     2     9    10     3     6    11    12     7
 VARIABLES = X,Y,Z,DU1,DU2,DU3,U1,U2,U3,S11,S22,S33,S12,S13,S23
 ZONE, T="0.6300D+00" F=FEPOINT, I=   12 J=    2 ET=BRICK
   0.0000000000E+00   0.0000000000E+00   0.0000000000E+00   0.0000000000E+00   0.0000000000E+00   0.0000000000E+00   0.0000000000E+00   0.0000000000E+00   0.0000000000E+00   0.2937558700E+01  -0.9373202712E-01  -0.7559803217E-01  -0.2938767532E-01   0.4785165246E-01   0.4196199017E-01
   0.1003165665E+01   0.0000000000E+00   0.3579338404E-03   0.4181307123E-04   0.0000000000E+00   0.2284743859E-05   0.3123852289E-02   0.0000000000E+00   0.3556490965E-03   0.3124140011E+01  -0.9308350898E-02  -0.6827907079E-01  -0.5188871092E-01   0.2274493128E-01   0.1725491068E-01
   0.1002966779E+01   0.9989823230E+00   0.3553305849E-03   0.6531795546E-04  -0.2380954306E-04   0.7543343683E-05   0.2901461438E-02  -0.9938674923E-03   0.3477872412E-03   0.3119334190E+01  -0.1411417167E-01  -0.5866742924E-01  -0.5542533958E-01   0.7539225266E-02   0.1153612848E-01
   0.0000000000E+00   0.9991071886E+00   0.3041109142E-03   0.0000000000E+00  -0.2215991204E-04   0.6105988948E-05   0.0000000000E+00  -0.8706515145E-03   0.2980049253E-03   0.2912960902E+01  -0.6997774466E-01  -0.7475451631E-01  -0.3459930868E-01   0.2383542200E-01   0.1948731430E-01
   0.0000000000E+00   0.0000000000E+00   0.9991631825E+00   0.0000000000E+00   0.0000000000E+00  -0.2720139210E-04   0.0000000000E+00   0.0000000000E+00  -0.8096161088E-03   0.2921479506E+01  -0.1081671062E+00  -0.4508375947E-01  -0.1820497758E-01   0.2287380671E-01   0.3050660687E-01
   0.1002973796E+01   0.0000000000E+00   0.9992126896E+00   0.4693456279E-04   0.0000000000E+00  -0.1340802338E-04   0.2926861703E-02   0.0000000000E+00  -0.7739023392E-03   0.3127952532E+01  -0.1693339384E-01  -0.6446654932E-01  -0.4407447774E-01   0.4221585964E-03   0.2446364184E-01
   0.1002792794E+01   0.9989695286E+00   0.9993368794E+00   0.6450926998E-04  -0.2317003328E-04  -0.1543000629E-04   0.2728284502E-02  -0.1007301380E-02  -0.6476906072E-03   0.3123146712E+01  -0.2173921461E-01  -0.5485490777E-01  -0.4129089801E-01  -0.9791548078E-02   0.1874485963E-01
   0.0000000000E+00   0.9988445639E+00   0.9992667760E+00   0.0000000000E+00  -0.8952642189E-05  -0.2255569435E-04   0.0000000000E+00  -0.1146483477E-02  -0.7106683404E-03   0.2897877724E+01  -0.8491083184E-01  -0.4473825175E-01  -0.1298092601E-01   0.1252969111E-01   0.8031931001E-02
   0.2006300000E+01   0.0000000000E+00   0.6030374483E-03   0.1000000000E-03   0.0000000000E+00   0.4150282624E-05   0.6200000000E-02   0.0000000000E+00   0.5988871657E-03   0.3304947885E+01   0.7604190708E-01  -0.5611325416E-01  -0.2603766575E-01   0.4423167644E-01   0.4439021450E-03
   0.2006300000E+01   0.9989498734E+00   0.5609483388E-03   0.1000000000E-03  -0.3664385426E-04  -0.4564966458E-05   0.6200000000E-02  -0.1013482703E-02   0.5655133053E-03   0.3331507529E+01   0.5424947044E-01  -0.6088046164E-01  -0.2789928971E-01   0.3634247046E-01   0.3250060519E-02
   0.2006300000E+01   0.0000000000E+00   0.9993302762E+00   0.1000000000E-03   0.0000000000E+00  -0.1084626594E-04   0.6200000000E-02   0.0000000000E+00  -0.6588775673E-03   0.3334139423E+01   0.6425229613E-01  -0.7351518185E-01  -0.2308592154E-01   0.2456397682E-01   0.8956516724E-02
   0.2006300000E+01   0.9989898603E+00   0.9993266866E+00   0.1000000000E-03  -0.3695090722E-04  -0.7820871437E-05   0.6200000000E-02  -0.9731887433E-03  -0.6654925744E-03   0.3359703051E+01   0.4295786763E-01  -0.7778438119E-01  -0.2274281365E-01   0.1298665466E-01   0.1176267510E-01
     1     2     3     4     5     6     7     8
     2     9    10     3     6    11    12     7
 VARIABLES = X,Y,Z,DU1,DU2,DU3,U1,U2,U3,S11,S22,S33,S12,S13,S23
 ZONE, T="0.6400D+00" F=FEPOINT, I=   12 J=    2 ET=BRICK
   0.0000000000E+00   0.0000000000E+00   0.0000000000E+00   0.0000000000E+00   0.0000000000E+00   0.0000000000E+00   0.0000000000E+00   0.0000000000E+00   0.0000000000E+00   0.2993294740E+01  -0.9286948403E-01  -0.7724564247E-01  -0.2720205382E-01   0.5003684512E-01   0.4440026768E-01
   0.1003210143E+01   0.0000000000E+00   0.3590486891E-03   0.4447771556E-04   0.0000000000E+00   0.1114848733E-05   0.3165665360E-02   0.0000000000E+00   0.3579338404E-03   0.3168454583E+01  -0.2085977241E-01  -0.7342515073E-01  -0.4717721982E-01   0.2427896382E-01   0.1805771478E-01
   0.1003037078E+01   0.9989592612E+00   0.3614485282E-03   0.7029849128E-04  -0.2306178848E-04   0.6117943267E-05   0.2966779394E-02  -0.1017677035E-02   0.3553305849E-03   0.3163949966E+01  -0.2536438917E-01  -0.6441591719E-01  -0.5198594402E-01   0.8023963812E-02   0.1260637138E-01
   0.0000000000E+00   0.9990861305E+00   0.3085265653E-03   0.0000000000E+00  -0.2105806796E-04   0.4415651053E-05   0.0000000000E+00  -0.8928114266E-03   0.3041109142E-03   0.2972956185E+01  -0.7083954425E-01  -0.7893702780E-01  -0.3321985906E-01   0.2554524119E-01   0.2303551485E-01
   0.0000000000E+00   0.0000000000E+00   0.9991379585E+00   0.0000000000E+00   0.0000000000E+00  -0.2522401331E-04   0.0000000000E+00   0.0000000000E+00  -0.8368175009E-03   0.2977038770E+01  -0.1061062520E+00  -0.4775290481E-01  -0.1681832797E-01   0.2632908190E-01   0.3253960512E-01
   0.1003023591E+01   0.0000000000E+00   0.9992011504E+00   0.4979456872E-04   0.0000000000E+00  -0.1153924625E-04   0.2973796265E-02   0.0000000000E+00  -0.7873103626E-03   0.3172088812E+01  -0.2812823027E-01  -0.6979092180E-01  -0.4013817740E-01   0.3065588528E-02   0.2481463993E-01
   0.1002862570E+01   0.9989464649E+00   0.9993222398E+00   0.6977655075E-04  -0.2306366464E-04  -0.1463959888E-04   0.2792793772E-02  -0.1030471413E-02  -0.6631206135E-03   0.3167584195E+01  -0.3263284703E-01  -0.6078168826E-01  -0.3891409837E-01  -0.7938843774E-02   0.1936329653E-01
   0.0000000000E+00   0.9988367925E+00   0.9992451681E+00   0.0000000000E+00  -0.7771350376E-05  -0.2160783145E-04   0.0000000000E+00  -0.1155436119E-02  -0.7332240347E-03   0.2957371041E+01  -0.8441172518E-01  -0.4977970308E-01  -0.1295552735E-01   0.1520449769E-01   0.1117485230E-01
   0.2006400000E+01   0.0000000000E+00   0.6051651977E-03   0.1000000000E-03   0.0000000000E+00   0.2127749350E-05   0.6300000000E-02   0.0000000000E+00   0.6030374483E-03   0.3338676467E+01   0.5104830475E-01  -0.6456506590E-01  -0.2478389160E-01   0.4426978984E-01  -0.5134747885E-03
   0.2006400000E+01   0.9989130997E+00   0.5544033132E-03   0.1000000000E-03  -0.3677372667E-04  -0.6545025597E-05   0.6300000000E-02  -0.1050126557E-02   0.5609483388E-03   0.3360827724E+01   0.3083106747E-01  -0.6649908556E-01  -0.2838353476E-01   0.3524515492E-01   0.2252985963E-02
   0.2006400000E+01   0.0000000000E+00   0.9993207591E+00   0.1000000000E-03   0.0000000000E+00  -0.9517032409E-05   0.6300000000E-02   0.0000000000E+00  -0.6697238333E-03   0.3367331298E+01   0.3948734998E-01  -0.8165894217E-01  -0.2209577145E-01   0.2555080248E-01   0.8628134023E-02
   0.2006400000E+01   0.9989526124E+00   0.9993200775E+00   0.1000000000E-03  -0.3724796915E-04  -0.6609022374E-05   0.6300000000E-02  -0.1010139650E-02  -0.6733134458E-03   0.3388811729E+01   0.1960552564E-01  -0.8325754888E-01  -0.2351041401E-01   0.1366028324E-01   0.1139459477E-01
     1     2     3     4     5     6     7     8
     2     9    10     3     6    11    12     7
 VARIABLES = X,Y,Z,DU1,DU2,DU3,U1,U2,U3,S11,S22,S33,S12,S13,S23
 ZONE, T="0.6500D+00" F=FEPOINT, I=   12 J=    2 ET=BRICK
   0.0000000000E+00   0.0000000000E+00   0.0000000000E+00   0.0000000000E+00   0.0000000000E+00   0.0000000000E+00   0.0000000000E+00   0.0000000000E+00   0.0000000000E+00   0.3056704457E+01  -0.8602185335E-01  -0.7178723192E-01  -0.2480532964E-01   0.5203044358E-01   0.4635147424E-01
   0.1003257134E+01   0.0000000000E+00   0.3589266250E-03   0.4699092820E-04   0.0000000000E+00  -0.1220641074E-06   0.3210143076E-02   0.0000000000E+00   0.3590486891E-03   0.3215295045E+01  -0.2934646138E-01  -0.7386577466E-01  -0.4199439743E-01   0.2563439637E-01   0.1856810547E-01
   0.1003111927E+01   0.9989371428E+00   0.3660230764E-03   0.7484908954E-04  -0.2211835382E-04   0.4574548237E-05   0.3037077885E-02  -0.1040738824E-02   0.3614485282E-03   0.3211129741E+01  -0.3351176536E-01  -0.6553516670E-01  -0.4812867627E-01   0.8443204990E-02   0.1332397201E-01
   0.0000000000E+00   0.9990662376E+00   0.3112098221E-03   0.0000000000E+00  -0.1989290830E-04   0.2683256822E-05   0.0000000000E+00  -0.9138694945E-03   0.3085265653E-03   0.3040960612E+01  -0.6590558081E-01  -0.7615965972E-01  -0.3168059929E-01   0.2719042886E-01   0.2606057220E-01
   0.0000000000E+00   0.0000000000E+00   0.9991148036E+00   0.0000000000E+00   0.0000000000E+00  -0.2315491714E-04   0.0000000000E+00   0.0000000000E+00  -0.8620415142E-03   0.3040320213E+01  -0.9812063314E-01  -0.4330420763E-01  -0.1523699940E-01   0.2966914802E-01   0.3410712407E-01
   0.1003075988E+01   0.0000000000E+00   0.9991915222E+00   0.5239760465E-04   0.0000000000E+00  -0.9628231769E-05   0.3023590834E-02   0.0000000000E+00  -0.7988496089E-03   0.3218791134E+01  -0.3633863933E-01  -0.7036968568E-01  -0.3571702748E-01   0.5609176834E-02   0.2481606144E-01
   0.1002937157E+01   0.9989236817E+00   0.9993084385E+00   0.7458655665E-04  -0.2278326547E-04  -0.1380132106E-04   0.2862570323E-02  -0.1053535078E-02  -0.6777602124E-03   0.3214625830E+01  -0.4050394330E-01  -0.6203907772E-01  -0.3610655742E-01  -0.6092826546E-02   0.1957192798E-01
   0.0000000000E+00   0.9988300861E+00   0.9992245386E+00   0.0000000000E+00  -0.6706458023E-05  -0.2062955039E-04   0.0000000000E+00  -0.1163207470E-02  -0.7548318662E-03   0.3024931448E+01  -0.7818190083E-01  -0.4785417567E-01  -0.1281024969E-01   0.1783225114E-01   0.1381622203E-01
   0.2006500000E+01   0.0000000000E+00   0.6050962066E-03   0.1000000000E-03   0.0000000000E+00  -0.6899102871E-07   0.6400000000E-02   0.0000000000E+00   0.6051651977E-03   0.3369782877E+01   0.2619013805E-01  -0.7070276908E-01  -0.2332334793E-01   0.4410561793E-01  -0.1564778637E-02
   0.2006500000E+01   0.9988766483E+00   0.5458265294E-03   0.1000000000E-03  -0.3645141369E-04  -0.8576783788E-05   0.6400000000E-02  -0.1086900283E-02   0.5544033132E-03   0.3387214687E+01   0.7761830669E-02  -0.6970627160E-01  -0.2871663596E-01   0.3403062917E-01   0.1123315570E-02
   0.2006500000E+01   0.0000000000E+00   0.9993126898E+00   0.1000000000E-03   0.0000000000E+00  -0.8069322162E-05   0.6400000000E-02   0.0000000000E+00  -0.6792408657E-03   0.3397902327E+01   0.1481850740E-01  -0.8745058814E-01  -0.2086955899E-01   0.2641647442E-01   0.8147623793E-02
   0.2006500000E+01   0.9989155554E+00   0.9993147677E+00   0.1000000000E-03  -0.3705700544E-04  -0.5309864087E-05   0.6400000000E-02  -0.1047387620E-02  -0.6799224682E-03   0.3414979056E+01  -0.3432259740E-02  -0.8627655042E-01  -0.2407536857E-01   0.1431674382E-01   0.1083571800E-01
     1     2     3     4     5     6     7     8
     2     9    10     3     6    11    12     7
 VARIABLES = X,Y,Z,DU1,DU2,DU3,U1,U2,U3,S11,S22,S33,S12,S13,S23
 ZONE, T="0.6600D+00" F=FEPOINT, I=   12 J=    2 ET=BRICK
   0.0000000000E+00   0.0000000000E+00   0.0000000000E+00   0.0000000000E+00   0.0000000000E+00   0.0000000000E+00   0.0000000000E+00   0.0000000000E+00   0.0000000000E+00   0.3127117885E+01  -0.7360800769E-01  -0.5968839213E-01  -0.2220291246E-01   0.5381937242E-01   0.4781464846E-01
   0.1003306395E+01   0.0000000000E+00   0.3575921330E-03   0.4926124176E-04   0.0000000000E+00  -0.1334492027E-05   0.3257134004E-02   0.0000000000E+00   0.3589266250E-03   0.3264738160E+01  -0.3458938390E-01  -0.6955542741E-01  -0.3637454245E-01   0.2678650958E-01   0.1878701739E-01
   0.1003190784E+01   0.9989160901E+00   0.3690390417E-03   0.7885693866E-04  -0.2105273324E-04   0.3015965303E-05   0.3111926974E-02  -0.1062857178E-02   0.3660230764E-03   0.3260950940E+01  -0.3837660427E-01  -0.6198098668E-01  -0.4385306501E-01   0.8779326049E-02   0.1368715070E-01
   0.0000000000E+00   0.9990474509E+00   0.3122670600E-03   0.0000000000E+00  -0.1878669088E-04   0.1057237926E-05   0.0000000000E+00  -0.9337624028E-03   0.3112098221E-03   0.3116264405E+01  -0.5556546910E-01  -0.6687745059E-01  -0.2995781436E-01   0.2875124778E-01   0.2854822695E-01
   0.0000000000E+00   0.0000000000E+00   0.9990936550E+00   0.0000000000E+00   0.0000000000E+00  -0.2114860950E-04   0.0000000000E+00   0.0000000000E+00  -0.8851964313E-03   0.3110650177E+01  -0.8464057531E-01  -0.3218811672E-01  -0.1345693381E-01   0.3288636738E-01   0.3519884994E-01
   0.1003130647E+01   0.0000000000E+00   0.9991837414E+00   0.5465833398E-04   0.0000000000E+00  -0.7780748775E-05   0.3075988439E-02   0.0000000000E+00  -0.8084778406E-03   0.3268138071E+01  -0.4138920615E-01  -0.6615551629E-01  -0.3083508828E-01   0.8043261226E-02   0.2446784793E-01
   0.1003015984E+01   0.9989012974E+00   0.9992954348E+00   0.7882720312E-04  -0.2238422462E-04  -0.1300363712E-04   0.2937156879E-02  -0.1076318343E-02  -0.6915615334E-03   0.3264350851E+01  -0.4517642651E-01  -0.5858107556E-01  -0.3285340865E-01  -0.4256301907E-02   0.1936798125E-01
   0.0000000000E+00   0.9988242282E+00   0.9992047876E+00   0.0000000000E+00  -0.5857912781E-05  -0.1975093555E-04   0.0000000000E+00  -0.1169913928E-02  -0.7754614165E-03   0.3099849531E+01  -0.6662445395E-01  -0.3940359241E-01  -0.1250548337E-01   0.2040725110E-01   0.1593242843E-01
   0.2006600000E+01   0.0000000000E+00   0.6027123779E-03   0.1000000000E-03   0.0000000000E+00  -0.2383828741E-05   0.6500000000E-02   0.0000000000E+00   0.6050962066E-03   0.3399070254E+01   0.2246575902E-02  -0.7395161734E-01  -0.2165015373E-01   0.4372162994E-01  -0.2690283806E-02
   0.2006600000E+01   0.9988409488E+00   0.5352262923E-03   0.1000000000E-03  -0.3569945538E-04  -0.1060023708E-04   0.6500000000E-02  -0.1123351697E-02   0.5458265294E-03   0.3411524478E+01  -0.1419521946E-01  -0.6996404532E-01  -0.2885229694E-01   0.3269613583E-01  -0.1158959613E-03
   0.2006600000E+01   0.0000000000E+00   0.9993061315E+00   0.1000000000E-03   0.0000000000E+00  -0.6558358822E-05   0.6500000000E-02   0.0000000000E+00  -0.6873101878E-03   0.3426665984E+01  -0.8976901367E-02  -0.9032387030E-01  -0.1939647573E-01   0.2716813826E-01   0.7524399887E-02
   0.2006600000E+01   0.9988791606E+00   0.9993107919E+00   0.1000000000E-03  -0.3639477488E-04  -0.3975787204E-05   0.6500000000E-02  -0.1084444625E-02  -0.6852323323E-03   0.3439067373E+01  -0.2539227951E-01  -0.8630988105E-01  -0.2438456689E-01   0.1496887659E-01   0.1009878773E-01
     1     2     3     4     5     6     7     8
     2     9    10     3     6    11    12     7
 VARIABLES = X,Y,Z,DU1,DU2,DU3,U1,U2,U3,S11,S22,S33,S12,S13,S23
 ZONE, T="0.6700D+00" F=FEPOINT, I=   12 J=    2 ET=BRICK
   0.0000000000E+00   0.0000000000E+00   0.0000000000E+00   0.0000000000E+00   0.0000000000E+00   0.0000000000E+00   0.0000000000E+00   0.0000000000E+00   0.0000000000E+00   0.3203542382E+01  -0.5637802974E-01  -0.4181411416E-01  -0.1939864391E-01   0.5540769250E-01   0.4881767598E-01
   0.1003357609E+01   0.0000000000E+00   0.3551589642E-03   0.5121354577E-04   0.0000000000E+00  -0.2433168755E-05   0.3306395246E-02   0.0000000000E+00   0.3575921330E-03   0.3316684653E+01  -0.3663724091E-01  -0.6075889635E-01  -0.3035319310E-01   0.2771898872E-01   0.1872705257E-01
   0.1003273011E+01   0.9988961507E+00   0.3705817675E-03   0.8222722112E-04  -0.1993942413E-04   0.1542725777E-05   0.3190783913E-02  -0.1083909911E-02   0.3690390417E-03   0.3313316131E+01  -0.4000576274E-01  -0.5402185269E-01  -0.3915566743E-01   0.9016609683E-02   0.1370787066E-01
   0.0000000000E+00   0.9990296010E+00   0.3119390729E-03   0.0000000000E+00  -0.1784989833E-04  -0.3279871623E-06   0.0000000000E+00  -0.9525490937E-03   0.3122670600E-03   0.3197837428E+01  -0.4053226645E-01  -0.5195492300E-01  -0.2802192791E-01   0.3021424669E-01   0.3051573937E-01
   0.0000000000E+00   0.0000000000E+00   0.9990743087E+00   0.0000000000E+00   0.0000000000E+00  -0.1934625879E-04   0.0000000000E+00   0.0000000000E+00  -0.9063450408E-03   0.3187031381E+01  -0.6642446597E-01  -0.1525667719E-01  -0.1147297687E-01   0.3598862622E-01   0.3582438991E-01
   0.1003187155E+01   0.0000000000E+00   0.9991776412E+00   0.5650865577E-04   0.0000000000E+00  -0.6100174499E-05   0.3130646773E-02   0.0000000000E+00  -0.8162585894E-03   0.3320030774E+01  -0.4332948347E-01  -0.5741277507E-01  -0.2551855202E-01   0.1036951160E-01   0.2377983531E-01
   0.1003098389E+01   0.9988793743E+00   0.9992831022E+00   0.8240456116E-04  -0.2192316118E-04  -0.1233267298E-04   0.3015984083E-02  -0.1098702568E-02  -0.7045651706E-03   0.3316662252E+01  -0.4669800529E-01  -0.5067573141E-01  -0.2913808754E-01  -0.2424927485E-02   0.1876065340E-01
   0.0000000000E+00   0.9988189150E+00   0.9991856991E+00   0.0000000000E+00  -0.5313144886E-05  -0.1908857537E-04   0.0000000000E+00  -0.1175771840E-02  -0.7952123521E-03   0.3181094228E+01  -0.5046260336E-01  -0.2528138670E-01  -0.1199644527E-01   0.2293330897E-01   0.1752245331E-01
   0.2006700000E+01   0.0000000000E+00   0.5979622972E-03   0.1000000000E-03   0.0000000000E+00  -0.4750080667E-05   0.6600000000E-02   0.0000000000E+00   0.6027123779E-03   0.3427306393E+01  -0.2013374517E-01  -0.7394585370E-01  -0.1975702458E-01   0.4309872263E-01  -0.3866893221E-02
   0.2006700000E+01   0.9988063938E+00   0.5226794969E-03   0.1000000000E-03  -0.3455504528E-04  -0.1254679540E-04   0.6600000000E-02  -0.1159051153E-02   0.5352262923E-03   0.3434581221E+01  -0.3440963398E-01  -0.6694479379E-01  -0.2873868923E-01   0.3123570836E-01  -0.1437074048E-02
   0.2006700000E+01   0.0000000000E+00   0.9993010826E+00   0.1000000000E-03   0.0000000000E+00  -0.5048849890E-05   0.6600000000E-02   0.0000000000E+00  -0.6938685466E-03   0.3454398805E+01  -0.3125013217E-01  -0.8992187904E-01  -0.1766511146E-01   0.2781883467E-01   0.6771581136E-02
   0.2006700000E+01   0.9988438669E+00   0.9993081233E+00   0.1000000000E-03  -0.3529366380E-04  -0.2668593518E-05   0.6600000000E-02  -0.1120839400E-02  -0.6892081195E-03   0.3461905832E+01  -0.4564212031E-01  -0.8303691846E-01  -0.2438071411E-01   0.1563357175E-01   0.9201400308E-02
     1     2     3     4     5     6     7     8
     2     9    10     3     6    11    12     7
 VARIABLES = X,Y,Z,DU1,DU2,DU3,U1,U2,U3,S11,S22,S33,S12,S13,S23
 ZONE, T="0.6800D+00" F=FEPOINT, I=   12 J=    2 ET=BRICK
   0.0000000000E+00   0.0000000000E+00   0.0000000000E+00   0.0000000000E+00   0.0000000000E+00   0.0000000000E+00   0.0000000000E+00   0.0000000000E+00   0.0000000000E+00   0.3284717494E+01  -0.3536303225E-01  -0.1936996423E-01  -0.1639649311E-01   0.5681474819E-01   0.4941338937E-01
   0.1003410401E+01   0.0000000000E+00   0.3518217823E-03   0.5279181425E-04   0.0000000000E+00  -0.3337181936E-05   0.3357608792E-02   0.0000000000E+00   0.3551589642E-03   0.3370871775E+01  -0.3575133458E-01  -0.4802782910E-01  -0.2396868553E-01   0.2842395476E-01   0.1841123303E-01
   0.1003357897E+01   0.9988773015E+00   0.3708282843E-03   0.8488577304E-04  -0.1884913582E-04   0.2465168029E-06   0.3273011134E-02  -0.1103849335E-02   0.3705817675E-03   0.3367965256E+01  -0.3865785309E-01  -0.4221479208E-01  -0.3403354124E-01   0.9142091823E-02   0.1341049202E-01
   0.0000000000E+00   0.9990124266E+00   0.3105787706E-03   0.0000000000E+00  -0.1717441169E-04  -0.1360302212E-05   0.0000000000E+00  -0.9703989920E-03   0.3119390729E-03   0.3284383075E+01  -0.2179362205E-01  -0.3260495572E-01  -0.2584107088E-01   0.3157221906E-01   0.3200792373E-01
   0.0000000000E+00   0.0000000000E+00   0.9990564414E+00   0.0000000000E+00   0.0000000000E+00  -0.1786733141E-04   0.0000000000E+00   0.0000000000E+00  -0.9256912996E-03   0.3268197873E+01  -0.4450868780E-01   0.6295311508E-02  -0.9280609480E-02   0.3899599729E-01   0.3601118853E-01
   0.1003245055E+01   0.0000000000E+00   0.9991729601E+00   0.5790001743E-04   0.0000000000E+00  -0.4681181689E-05   0.3187155429E-02   0.0000000000E+00  -0.8223587639E-03   0.3374205602E+01  -0.4241898926E-01  -0.4469400176E-01  -0.1979735554E-01   0.1259849121E-01   0.2277101079E-01
   0.1003183634E+01   0.9988579206E+00   0.9992712359E+00   0.8524536211E-04  -0.2145369783E-04  -0.1186625190E-04   0.3098388644E-02  -0.1120625729E-02  -0.7168978435E-03   0.3371299084E+01  -0.4532550776E-01  -0.3888096474E-01  -0.2494587392E-01  -0.5892445202E-03   0.1777026978E-01
   0.0000000000E+00   0.9988137736E+00   0.9991669611E+00   0.0000000000E+00  -0.5141372831E-05  -0.1873795912E-04   0.0000000000E+00  -0.1181084985E-02  -0.8143009275E-03   0.3267366783E+01  -0.3069094174E-01  -0.6691344118E-02  -0.1123680021E-01   0.2542131923E-01   0.1860572288E-01
   0.2006800000E+01   0.0000000000E+00   0.5908673973E-03   0.1000000000E-03   0.0000000000E+00  -0.7094899885E-05   0.6700000000E-02   0.0000000000E+00   0.5979622972E-03   0.3455195377E+01  -0.4045142787E-01  -0.7054322379E-01  -0.1763704905E-01   0.4221805726E-01  -0.5068683047E-02
   0.2006800000E+01   0.9987733267E+00   0.5083356679E-03   0.1000000000E-03  -0.3306705933E-04  -0.1434382905E-04   0.6700000000E-02  -0.1193606198E-02   0.5226794969E-03   0.3457148390E+01  -0.5240224326E-01  -0.6054542191E-01  -0.2832218270E-01   0.2964186809E-01  -0.2808798838E-02
   0.2006800000E+01   0.0000000000E+00   0.9992974721E+00   0.1000000000E-03   0.0000000000E+00  -0.3610522886E-05   0.6700000000E-02   0.0000000000E+00  -0.6989173965E-03   0.3481812051E+01  -0.5149988090E-01  -0.8611144523E-01  -0.1566526511E-01   0.2838588106E-01   0.5905625588E-02
   0.2006800000E+01   0.9988100680E+00   0.9993066682E+00   0.1000000000E-03  -0.3379889990E-04  -0.1455130947E-05   0.6700000000E-02  -0.1156133064E-02  -0.6918767130E-03   0.3484261736E+01  -0.6369903215E-01  -0.7636197921E-01  -0.2400611114E-01   0.1633009523E-01   0.8165509796E-02
     1     2     3     4     5     6     7     8
     2     9    10     3     6    11    12     7
 VARIABLES = X,Y,Z,DU1,DU2,DU3,U1,U2,U3,S11,S22,S33,S12,S13,S23
 ZONE, T="0.6900D+00" F=FEPOINT, I=   12 J=    2 ET=BRICK
   0.0000000000E+00   0.0000000000E+00   0.0000000000E+00   0.0000000000E+00   0.0000000000E+00   0.0000000000E+00   0.0000000000E+00   0.0000000000E+00   0.0000000000E+00   0.3369183349E+01  -0.1180905543E-01   0.6176243530E-02  -0.1320236378E-01   0.5807231405E-01   0.4967433575E-01
   0.1003464361E+01   0.0000000000E+00   0.3478423770E-03   0.5396083752E-04   0.0000000000E+00  -0.3979405297E-05   0.3410400606E-02   0.0000000000E+00   0.3518217823E-03   0.3426896335E+01  -0.3237683644E-01  -0.3215900341E-01  -0.1726379887E-01   0.2890150196E-01   0.1787129181E-01
   0.1003444678E+01   0.9988594571E+00   0.3700326388E-03   0.8678087532E-04  -0.1784447709E-04  -0.7956454612E-06   0.3357896907E-02  -0.1122698471E-02   0.3708282843E-03   0.3424498236E+01  -0.3477493514E-01  -0.2736280600E-01  -0.2848792398E-01   0.9146224897E-02   0.1282989850E-01
   0.0000000000E+00   0.9989955986E+00   0.3086221445E-03   0.0000000000E+00  -0.1682801439E-04  -0.1956626113E-05   0.0000000000E+00  -0.9875734037E-03   0.3105787706E-03   0.3374405378E+01  -0.5473534043E-03  -0.1030748752E-01  -0.2338489036E-01   0.3282371515E-01   0.3309174723E-01
   0.0000000000E+00   0.0000000000E+00   0.9990396386E+00   0.0000000000E+00   0.0000000000E+00  -0.1680276809E-04   0.0000000000E+00   0.0000000000E+00  -0.9435586310E-03   0.3352683548E+01  -0.2014174349E-01   0.3100873250E-01  -0.6877761275E-02   0.4193668424E-01   0.3580161921E-01
   0.1003303860E+01   0.0000000000E+00   0.9991693560E+00   0.5880479044E-04   0.0000000000E+00  -0.3604098604E-05   0.3245055446E-02   0.0000000000E+00  -0.8270399456E-03   0.3430257264E+01  -0.3909869420E-01  -0.2879807453E-01  -0.1370684300E-01   0.1474674728E-01   0.2146843987E-01
   0.1003270933E+01   0.9988368979E+00   0.9992595673E+00   0.8729866437E-04  -0.2102265495E-04  -0.1166858991E-04   0.3183634006E-02  -0.1142079427E-02  -0.7287640954E-03   0.3427859165E+01  -0.4149679290E-01  -0.2400187712E-01  -0.2026758771E-01   0.1263003155E-02   0.1642704655E-01
   0.0000000000E+00   0.9988083846E+00   0.9991481938E+00   0.0000000000E+00  -0.5389085758E-05  -0.1876734158E-04   0.0000000000E+00  -0.1186226358E-02  -0.8330388866E-03   0.3357167960E+01  -0.8511233218E-02   0.1489380970E-01  -0.1018247330E-01   0.2788641667E-01   0.1921903070E-01
   0.2006900000E+01   0.0000000000E+00   0.5815235348E-03   0.1000000000E-03   0.0000000000E+00  -0.9343862515E-05   0.6800000000E-02   0.0000000000E+00   0.5908673973E-03   0.3483356953E+01  -0.5836338038E-01  -0.6382311864E-01  -0.1528556096E-01   0.4106297975E-01  -0.6267552250E-02
   0.2006900000E+01   0.9987420340E+00   0.4924163123E-03   0.1000000000E-03  -0.3129276161E-04  -0.1591935563E-04   0.6800000000E-02  -0.1226673257E-02   0.5083356679E-03   0.3479907791E+01  -0.6785221530E-01  -0.5088512178E-01  -0.2755128460E-01   0.2790744926E-01  -0.4196618653E-02
   0.2006900000E+01   0.0000000000E+00   0.9992951586E+00   0.1000000000E-03   0.0000000000E+00  -0.2313511851E-05   0.6800000000E-02   0.0000000000E+00  -0.7025279194E-03   0.3509531190E+01  -0.6937956553E-01  -0.7898117099E-01  -0.1338982698E-01   0.2888910019E-01   0.4945863637E-02
   0.2006900000E+01   0.9987781026E+00   0.9993062654E+00   0.1000000000E-03  -0.3196541157E-04  -0.4027653176E-06   0.6800000000E-02  -0.1189931964E-02  -0.6933318439E-03   0.3506819644E+01  -0.7923720871E-01  -0.6641198239E-01  -0.2320660436E-01   0.1707830427E-01   0.7016797233E-02
     1     2     3     4     5     6     7     8
     2     9    10     3     6    11    12     7
 VARIABLES = X,Y,Z,DU1,DU2,DU3,U1,U2,U3,S11,S22,S33,S12,S13,S23
 ZONE, T="0.7000D+00" F=FEPOINT, I=   12 J=    2 ET=BRICK
   0.0000000000E+00   0.0000000000E+00   0.0000000000E+00   0.0000000000E+00   0.0000000000E+00   0.0000000000E+00   0.0000000000E+00   0.0000000000E+00   0.0000000000E+00   0.3455358593E+01   0.1290071908E-01   0.3318721684E-01  -0.9825890634E-02   0.5922096156E-01   0.4968657027E-01
   0.1003519068E+01   0.0000000000E+00   0.3435314774E-03   0.5470691122E-04   0.0000000000E+00  -0.4310899642E-05   0.3464361444E-02   0.0000000000E+00   0.3478423770E-03   0.3484246355E+01  -0.2710284678E-01  -0.1413755048E-01  -0.1028735135E-01   0.2915880475E-01   0.1714561283E-01
   0.1003532562E+01   0.9988424807E+00   0.3685065005E-03   0.8788413766E-04  -0.1697638644E-04  -0.1526138387E-05   0.3444677783E-02  -0.1140542948E-02   0.3700326388E-03   0.3482406144E+01  -0.2894305846E-01  -0.1045712711E-01  -0.2252787953E-01   0.9023335363E-02   0.1200921808E-01
   0.0000000000E+00   0.9989787480E+00   0.3065544337E-03   0.0000000000E+00  -0.1685053207E-04  -0.2067710797E-05   0.0000000000E+00  -0.1004401418E-02   0.3086221445E-03   0.3466285456E+01   0.2187440437E-01   0.1328666882E-01  -0.2062836946E-01   0.3397216783E-01   0.3384987205E-01
   0.0000000000E+00   0.0000000000E+00   0.9990234285E+00   0.0000000000E+00   0.0000000000E+00  -0.1621008019E-04   0.0000000000E+00   0.0000000000E+00  -0.9603613991E-03   0.3438900215E+01   0.5293209956E-02   0.5725310415E-01  -0.4266590963E-02   0.4484252671E-01   0.3524945361E-01
   0.1003363077E+01   0.0000000000E+00   0.9991664257E+00   0.5921668064E-04   0.0000000000E+00  -0.2930288875E-05   0.3303860236E-02   0.0000000000E+00  -0.8306440442E-03   0.3487670618E+01  -0.3395137311E-01  -0.1071328731E-01  -0.7289349837E-02   0.1683363186E-01   0.1990593035E-01
   0.1003359469E+01   0.9988162310E+00   0.9992477813E+00   0.8853665084E-04  -0.2066691090E-04  -0.1178598990E-04   0.3270932670E-02  -0.1163102082E-02  -0.7404326853E-03   0.3485830407E+01  -0.3579158479E-01  -0.7032863940E-02  -0.1510320834E-01   0.3144417170E-02   0.1476953561E-01
   0.0000000000E+00   0.9988023076E+00   0.9991289803E+00   0.0000000000E+00  -0.6076962530E-05  -0.1921342940E-04   0.0000000000E+00  -0.1191615444E-02  -0.8518062282E-03   0.3448874632E+01   0.1474311803E-01   0.3782877892E-01  -0.8795436232E-02   0.3034491213E-01   0.1941275539E-01
   0.2007000000E+01   0.0000000000E+00   0.5700981273E-03   0.1000000000E-03   0.0000000000E+00  -0.1142540755E-04   0.6900000000E-02   0.0000000000E+00   0.5815235348E-03   0.3512313834E+01  -0.7367889353E-01  -0.5406955343E-01  -0.1270198950E-01   0.3962091345E-01  -0.7433955533E-02
   0.2007000000E+01   0.9987127396E+00   0.4752097730E-03   0.1000000000E-03  -0.2929442223E-04  -0.1720653923E-04   0.6900000000E-02  -0.1257966019E-02   0.4924163123E-03   0.3503446447E+01  -0.8059310292E-01  -0.3828795719E-01  -0.2638056704E-01   0.2602743676E-01  -0.5563974563E-02
   0.2007000000E+01   0.0000000000E+00   0.9992939346E+00   0.1000000000E-03   0.0000000000E+00  -0.1223920876E-05   0.6900000000E-02   0.0000000000E+00  -0.7048414313E-03   0.3538083357E+01  -0.8469367406E-01  -0.6882429591E-01  -0.1083661778E-01   0.2934900251E-01   0.3913947289E-02
   0.2007000000E+01   0.9987482481E+00   0.9993066904E+00   0.1000000000E-03  -0.2985456299E-04   0.4249874284E-06   0.6900000000E-02  -0.1221897375E-02  -0.6937346093E-03   0.3530168416E+01  -0.9208410625E-01  -0.5351892246E-01  -0.2193548952E-01   0.1789685608E-01   0.5783928259E-02
     1     2     3     4     5     6     7     8
     2     9    10     3     6    11    12     7
 VARIABLES = X,Y,Z,DU1,DU2,DU3,U1,U2,U3,S11,S22,S33,S12,S13,S23
 ZONE, T="0.7100D+00" F=FEPOINT, I=   12 J=    2 ET=BRICK
   0.0000000000E+00   0.0000000000E+00   0.0000000000E+00   0.0000000000E+00   0.0000000000E+00   0.0000000000E+00   0.0000000000E+00   0.0000000000E+00   0.0000000000E+00   0.3541623367E+01   0.3733057002E-01   0.5995755139E-01  -0.6282104893E-02   0.6030591234E-01   0.4954288276E-01
   0.1003574106E+01   0.0000000000E+00   0.3392274630E-03   0.5503748653E-04   0.0000000000E+00  -0.4304014357E-05   0.3519068355E-02   0.0000000000E+00   0.3435314774E-03   0.3542338980E+01  -0.2061430347E-01   0.4930723488E-02  -0.3095615229E-02   0.2920888279E-01   0.1627694527E-01
   0.1003620752E+01   0.9988261992E+00   0.3665964295E-03   0.8819047716E-04  -0.1628151113E-04  -0.1910070986E-05   0.3532561920E-02  -0.1157519334E-02   0.3685065005E-03   0.3541108603E+01  -0.2184468048E-01   0.7391477501E-02  -0.1617367668E-01   0.8771868645E-02   0.1099727696E-01
   0.0000000000E+00   0.9989614962E+00   0.3048736845E-03   0.0000000000E+00  -0.1725180961E-04  -0.1680749246E-05   0.0000000000E+00  -0.1021251950E-02   0.3065544337E-03   0.3558362959E+01   0.4408771607E-01   0.3646081264E-01  -0.1755543278E-01   0.3502471664E-01   0.3437357027E-01
   0.0000000000E+00   0.0000000000E+00   0.9990073179E+00   0.0000000000E+00   0.0000000000E+00  -0.1611062254E-04   0.0000000000E+00   0.0000000000E+00  -0.9765714793E-03   0.3525220732E+01   0.3036257459E-01   0.8332818093E-01  -0.1455120916E-02   0.4774436462E-01   0.3441594035E-01
   0.1003422227E+01   0.0000000000E+00   0.9991637268E+00   0.5915018939E-04   0.0000000000E+00  -0.2698822083E-05   0.3363076917E-02   0.0000000000E+00  -0.8335743331E-03   0.3545858759E+01  -0.2765386123E-01   0.8450502366E-02  -0.5955834093E-03   0.1887806382E-01   0.1812251078E-01
   0.1003448424E+01   0.9987958199E+00   0.9992355375E+00   0.8895456404E-04  -0.2041112070E-04  -0.1224379829E-04   0.3359469321E-02  -0.1183768993E-02  -0.7522186752E-03   0.3544628381E+01  -0.2888423824E-01   0.1091125638E-01  -0.9465194165E-02   0.5065517786E-02   0.1284284246E-01
   0.0000000000E+00   0.9987951092E+00   0.9991089012E+00   0.0000000000E+00  -0.7198397147E-05  -0.2007912641E-04   0.0000000000E+00  -0.1197692407E-02  -0.8710196576E-03   0.3540821379E+01   0.3768919365E-01   0.6040091519E-01  -0.7047255554E-02   0.3281120837E-01   0.1924662787E-01
   0.2007100000E+01   0.0000000000E+00   0.5568232890E-03   0.1000000000E-03   0.0000000000E+00  -0.1327483828E-04   0.7000000000E-02   0.0000000000E+00   0.5700981273E-03   0.3542486599E+01  -0.8634610480E-01  -0.4174118300E-01  -0.9891572220E-02   0.3788511690E-01  -0.8537695324E-02
   0.2007100000E+01   0.9986856035E+00   0.4570620658E-03   0.1000000000E-03  -0.2713606569E-04  -0.1814770720E-04   0.7000000000E-02  -0.1287260441E-02   0.4752097730E-03   0.3528251014E+01  -0.9059924308E-01  -0.2325245978E-01  -0.2477436723E-01   0.2400070335E-01  -0.6873204581E-02
   0.2007100000E+01   0.0000000000E+00   0.9992935348E+00   0.1000000000E-03   0.0000000000E+00  -0.3998575623E-06   0.7000000000E-02   0.0000000000E+00  -0.7060653521E-03   0.3567892448E+01  -0.9738453835E-01  -0.5610859804E-01  -0.8010073504E-02   0.2978502667E-01   0.2833235433E-02
   0.2007100000E+01   0.9987207171E+00   0.9993076628E+00   0.1000000000E-03  -0.2753097899E-04   0.9723778512E-06   0.7000000000E-02  -0.1251751938E-02  -0.6933096218E-03   0.3554795809E+01  -0.1022071497E+00  -0.3818934783E-01  -0.2015716038E-01   0.1880150990E-01   0.4497726175E-02
     1     2     3     4     5     6     7     8
     2     9    10     3     6    11    12     7
 VARIABLES = X,Y,Z,DU1,DU2,DU3,U1,U2,U3,S11,S22,S33,S12,S13,S23
 ZONE, T="0.7200D+00" F=FEPOINT, I=   12 J=    2 ET=BRICK
   0.0000000000E+00   0.0000000000E+00   0.0000000000E+00   0.0000000000E+00   0.0000000000E+00   0.0000000000E+00   0.0000000000E+00   0.0000000000E+00   0.0000000000E+00   0.3626402642E+01   0.6007846608E-01   0.8481743429E-01  -0.2592856860E-02   0.6137267163E-01   0.4933588767E-01
   0.1003629086E+01   0.0000000000E+00   0.3352734487E-03   0.5497983447E-04   0.0000000000E+00  -0.3954014293E-05   0.3574105841E-02   0.0000000000E+00   0.3392274630E-03   0.3600561938E+01  -0.1363924378E-01   0.2389317087E-01   0.4246572187E-02   0.2906913150E-01   0.1531002668E-01
   0.1003708470E+01   0.9988104185E+00   0.3646593737E-03   0.8771723232E-04  -0.1578067090E-04  -0.1937055745E-05   0.3620752397E-02  -0.1173800845E-02   0.3665964295E-03   0.3599994752E+01  -0.1420643018E-01   0.2502754367E-01  -0.9459680423E-02   0.8394427776E-02   0.9845934946E-02
   0.0000000000E+00   0.9989434846E+00   0.3040540089E-03   0.0000000000E+00  -0.1801161233E-04  -0.8196756155E-06   0.0000000000E+00  -0.1038503760E-02   0.3048736845E-03   0.3649017958E+01   0.6474095679E-01   0.5753962780E-01  -0.1416212611E-01   0.3599083296E-01   0.3475546708E-01
   0.0000000000E+00   0.0000000000E+00   0.9989908287E+00   0.0000000000E+00   0.0000000000E+00  -0.1648916259E-04   0.0000000000E+00   0.0000000000E+00  -0.9926821019E-03   0.3610062511E+01   0.5366811074E-01   0.1075679201E+00   0.1541377701E-02   0.5066756302E-01   0.3336573907E-01
   0.1003480866E+01   0.0000000000E+00   0.9991608022E+00   0.5863918433E-04   0.0000000000E+00  -0.2924614139E-05   0.3422227107E-02   0.0000000000E+00  -0.8362731551E-03   0.3604204666E+01  -0.2092469943E-01   0.2753589869E-01   0.6314313680E-02   0.2089544118E-01   0.1616080628E-01
   0.1003536994E+01   0.9987755535E+00   0.9992224927E+00   0.8856982138E-04  -0.2026642032E-04  -0.1304479742E-04   0.3448423885E-02  -0.1204180114E-02  -0.7644624735E-03   0.3603637479E+01  -0.2149188583E-01   0.2867027149E-01  -0.3381295622E-02   0.7032495256E-02   0.1069671455E-01
   0.0000000000E+00   0.9987863895E+00   0.9990875678E+00   0.0000000000E+00  -0.8719701235E-05  -0.2133344572E-04   0.0000000000E+00  -0.1204890804E-02  -0.8910987840E-03   0.3631382559E+01   0.5897823545E-01   0.8093774762E-01  -0.4922206218E-02   0.3529489438E-01   0.1878531848E-01
   0.2007200000E+01   0.0000000000E+00   0.5419856438E-03   0.1000000000E-03   0.0000000000E+00  -0.1483764516E-04   0.7100000000E-02   0.0000000000E+00   0.5568232890E-03   0.3574195321E+01  -0.9643080033E-01  -0.2743133262E-01  -0.6866823818E-02   0.3585620769E-01  -0.9548746596E-02
   0.2007200000E+01   0.9986607230E+00   0.4383644233E-03   0.1000000000E-03  -0.2488053746E-04  -0.1869764252E-04   0.7100000000E-02  -0.1314396507E-02   0.4570620658E-03   0.3554708849E+01  -0.9796444754E-01  -0.6411213146E-02  -0.2271005979E-01   0.2183154089E-01  -0.8086593518E-02
   0.2007200000E+01   0.0000000000E+00   0.9992936466E+00   0.1000000000E-03   0.0000000000E+00   0.1118229916E-06   0.7100000000E-02   0.0000000000E+00  -0.7064652097E-03   0.3599280963E+01  -0.1075114683E+00  -0.4143630677E-01  -0.4922673414E-02   0.3021393566E-01   0.1728136742E-02
   0.2007200000E+01   0.9986956574E+00   0.9993088574E+00   0.1000000000E-03  -0.2505964464E-04   0.1194649070E-05   0.7100000000E-02  -0.1279282917E-02  -0.6923372440E-03   0.3581089759E+01  -0.1096927495E+00  -0.2106382130E-01  -0.1785030810E-01   0.1980361443E-01   0.3190289820E-02
     1     2     3     4     5     6     7     8
     2     9    10     3     6    11    12     7
 VARIABLES = X,Y,Z,DU1,DU2,DU3,U1,U2,U3,S11,S22,S33,S12,S13,S23
 ZONE, T="0.7300D+00" F=FEPOINT, I=   12 J=    2 ET=BRICK
   0.0000000000E+00   0.0000000000E+00   0.0000000000E+00   0.0000000000E+00   0.0000000000E+00   0.0000000000E+00   0.0000000000E+00   0.0000000000E+00   0.0000000000E+00   0.3708245293E+01   0.7985873572E-01   0.1062324032E+00   0.1212102739E-02   0.6246274368E-01   0.4915140452E-01
   0.1003683664E+01   0.0000000000E+00   0.3319942897E-03   0.5457882237E-04   0.0000000000E+00  -0.3279159047E-05   0.3629085676E-02   0.0000000000E+00   0.3352734487E-03   0.3658315699E+01  -0.6895119827E-02   0.4162527533E-01   0.1166510738E-01   0.2875973550E-01   0.1428924852E-01
   0.1003794972E+01   0.9987949400E+00   0.3630380339E-03   0.8650248868E-04  -0.1547846590E-04  -0.1621339815E-05   0.3708469630E-02  -0.1189581516E-02   0.3646593737E-03   0.3658464934E+01  -0.6745884740E-02   0.4132680515E-01  -0.2436565001E-02   0.7897623285E-02   0.8607451063E-02
   0.0000000000E+00   0.9989244032E+00   0.3045108278E-03   0.0000000000E+00  -0.1908142083E-04   0.4568189626E-06   0.0000000000E+00  -0.1056515372E-02   0.3040540089E-03   0.3736748779E+01   0.8259544218E-01   0.7499221048E-01  -0.1045918450E-01   0.3688085865E-01   0.3508256407E-01
   0.0000000000E+00   0.0000000000E+00   0.9989735330E+00   0.0000000000E+00   0.0000000000E+00  -0.1729572444E-04   0.0000000000E+00   0.0000000000E+00  -0.1009171264E-02   0.3691966760E+01   0.7392916157E-01   0.1284405100E+00   0.4699339296E-02   0.5362798377E-01   0.3216295492E-01
   0.1003538601E+01   0.0000000000E+00   0.9991572041E+00   0.5773467628E-04   0.0000000000E+00  -0.3598115728E-05   0.3480866291E-02   0.0000000000E+00  -0.8391977693E-03   0.3662103564E+01  -0.1447084977E-01   0.4541314030E-01   0.1337011526E-01   0.2289489915E-01   0.1406539589E-01
   0.1003624414E+01   0.9987553233E+00   0.9992083236E+00   0.8742038562E-04  -0.2023017319E-04  -0.1416910773E-04   0.3536993707E-02  -0.1224446534E-02  -0.7775072710E-03   0.3662252799E+01  -0.1432161468E-01   0.4511467012E-01   0.3103316402E-02   0.9045279211E-02   0.8383598433E-02
   0.0000000000E+00   0.9987758075E+00   0.9990646542E+00   0.0000000000E+00  -0.1058195266E-04  -0.2291356317E-04   0.0000000000E+00  -0.1213610505E-02  -0.9124322297E-03   0.3719050336E+01   0.7737582328E-01   0.9791027249E-01  -0.2419778681E-02   0.3779820307E-01   0.1809411447E-01
   0.2007300000E+01   0.0000000000E+00   0.5259136688E-03   0.1000000000E-03   0.0000000000E+00  -0.1607197504E-04   0.7200000000E-02   0.0000000000E+00   0.5419856438E-03   0.3607666721E+01  -0.1040899005E+00  -0.1182154288E-01  -0.3648667805E-02   0.3354336666E-01  -0.1043808763E-01
   0.2007300000E+01   0.9986381359E+00   0.4195384479E-03   0.1000000000E-03  -0.2258703460E-04  -0.1882597541E-04   0.7200000000E-02  -0.1339277044E-02   0.4383644233E-03   0.3583114521E+01  -0.1028753207E+00   0.1151607736E-01  -0.2018072533E-01   0.1953089304E-01  -0.9167433582E-02
   0.2007300000E+01   0.0000000000E+00   0.9992939245E+00   0.1000000000E-03   0.0000000000E+00   0.2778889278E-06   0.7200000000E-02   0.0000000000E+00  -0.7063533867E-03   0.3632477378E+01  -0.1152245749E+00  -0.2549752536E-01  -0.1596022810E-02   0.3064845388E-01   0.6234325963E-03
   0.2007300000E+01   0.9986731540E+00   0.9993099178E+00   0.1000000000E-03  -0.2250342436E-04   0.1060397805E-05   0.7200000000E-02  -0.1304342562E-02  -0.6911425949E-03   0.3609345088E+01  -0.1147199503E+00  -0.2869860379E-02  -0.1501050255E-01   0.2090886048E-01   0.1894086646E-02
     1     2     3     4     5     6     7     8
     2     9    10     3     6    11    12     7
 VARIABLES = X,Y,Z,DU1,DU2,DU3,U1,U2,U3,S11,S22,S33,S12,S13,S23
 ZONE, T="0.7400D+00" F=FEPOINT, I=   12 J=    2 ET=BRICK
   0.0000000000E+00   0.0000000000E+00   0.0000000000E+00   0.0000000000E+00   0.0000000000E+00   0.0000000000E+00   0.0000000000E+00   0.0000000000E+00   0.0000000000E+00   0.3785894603E+01   0.9557630478E-01   0.1228932410E+00   0.5094462021E-02   0.6360971861E-01   0.4906252737E-01
   0.1003737558E+01   0.0000000000E+00   0.3296750239E-03   0.5389393879E-04   0.0000000000E+00  -0.2319265810E-05   0.3683664498E-02   0.0000000000E+00   0.3319942897E-03   0.3715053492E+01  -0.1037814279E-02   0.5710181809E-01   0.1907641337E-01   0.2830208443E-01   0.1325649072E-01
   0.1003879575E+01   0.9987795760E+00   0.3620377034E-03   0.8460272272E-04  -0.1536401015E-04  -0.1000330471E-05   0.3794972118E-02  -0.1205059982E-02   0.3630380339E-03   0.3715970331E+01  -0.1209747519E-03   0.5526813904E-01   0.4827306068E-02   0.7291760603E-02   0.7332019652E-02
   0.0000000000E+00   0.9989040152E+00   0.3065702219E-03   0.0000000000E+00  -0.2038797562E-04   0.2059394012E-05   0.0000000000E+00  -0.1075596793E-02   0.3045108278E-03   0.3820241633E+01   0.9659781374E-01   0.8752470256E-01  -0.6473836506E-02   0.3770457210E-01   0.3542996496E-01
   0.0000000000E+00   0.0000000000E+00   0.9989550835E+00   0.0000000000E+00   0.0000000000E+00  -0.1844954998E-04   0.0000000000E+00   0.0000000000E+00  -0.1026466989E-02   0.3769669176E+01   0.9005645601E-01   0.1446385171E+00   0.7986269660E-02   0.5662865927E-01   0.3086750365E-01
   0.1003595103E+01   0.0000000000E+00   0.9991525176E+00   0.5650193100E-04   0.0000000000E+00  -0.4686524116E-05   0.3538600967E-02   0.0000000000E+00  -0.8427958850E-03   0.3719003139E+01  -0.8937109032E-02   0.6105146547E-01   0.2049135435E-01   0.2487708540E-01   0.1188123143E-01
   0.1003709977E+01   0.9987350366E+00   0.9991927480E+00   0.8556249265E-04  -0.2028674199E-04  -0.1557557183E-04   0.3624414092E-02  -0.1244676707E-02  -0.7916763787E-03   0.3719919978E+01  -0.8020269504E-02   0.5921778641E-01   0.9924749766E-02   0.1109604542E-01   0.5956760361E-02
   0.0000000000E+00   0.9987631032E+00   0.9990399254E+00   0.0000000000E+00  -0.1270436120E-04  -0.2472885713E-04   0.0000000000E+00  -0.1224192458E-02  -0.9353457929E-03   0.3802504497E+01   0.9183381893E-01   0.1100258326E+00   0.4435595544E-03   0.4031399296E-01   0.1723494125E-01
   0.2007400000E+01   0.0000000000E+00   0.5089635241E-03   0.1000000000E-03   0.0000000000E+00  -0.1695014466E-04   0.7300000000E-02   0.0000000000E+00   0.5259136688E-03   0.3643045379E+01  -0.1095421705E+00   0.4367634344E-02  -0.2671558226E-03   0.3096515357E-01  -0.1117851013E-01
   0.2007400000E+01   0.9986178267E+00   0.4010198756E-03   0.1000000000E-03  -0.2030919883E-04  -0.1851857225E-04   0.7300000000E-02  -0.1361864079E-02   0.4195384479E-03   0.3613680290E+01  -0.1055817386E+00   0.2977229111E-01  -0.1719707190E-01   0.1711721431E-01  -0.1008106126E-01
   0.2007400000E+01   0.0000000000E+00   0.9992940046E+00   0.1000000000E-03   0.0000000000E+00   0.8011640498E-07   0.7300000000E-02   0.0000000000E+00  -0.7060754978E-03   0.3667627548E+01  -0.1207358064E+00  -0.9020899344E-02   0.1938480374E-02   0.3109621485E-01  -0.4563976964E-03
   0.2007400000E+01   0.9986532329E+00   0.9993104708E+00   0.1000000000E-03  -0.1992109894E-04   0.5529690448E-06   0.7300000000E-02  -0.1326845986E-02  -0.6900821971E-03   0.3639774167E+01  -0.1175312285E+00   0.1562790346E-01  -0.1165201869E-01   0.2211636308E-01   0.6410511723E-03
     1     2     3     4     5     6     7     8
     2     9    10     3     6    11    12     7
 VARIABLES = X,Y,Z,DU1,DU2,DU3,U1,U2,U3,S11,S22,S33,S12,S13,S23
 ZONE, T="0.7500D+00" F=FEPOINT, I=   12 J=    2 ET=BRICK
   0.0000000000E+00   0.0000000000E+00   0.0000000000E+00   0.0000000000E+00   0.0000000000E+00   0.0000000000E+00   0.0000000000E+00   0.0000000000E+00   0.0000000000E+00   0.3858346506E+01   0.1063882335E+00   0.1337907997E+00   0.9007164701E-02   0.6483599006E-01   0.4912472987E-01
   0.1003790554E+01   0.0000000000E+00   0.3285421378E-03   0.5299573470E-04   0.0000000000E+00  -0.1132886068E-05   0.3737558437E-02   0.0000000000E+00   0.3296750239E-03   0.3770316603E+01   0.3383293211E-02   0.6945968836E-01   0.2638778393E-01   0.2771730357E-01   0.1224923664E-01
   0.1003961665E+01   0.9987641633E+00   0.3619060498E-03   0.8208989520E-04  -0.1541269771E-04  -0.1316536621E-06   0.3879574841E-02  -0.1220423992E-02   0.3620377034E-03   0.3772047968E+01   0.5114657707E-02   0.6599695936E-01   0.1224544303E-01   0.6590397173E-02   0.6065601672E-02
   0.0000000000E+00   0.9988821769E+00   0.3104442268E-03   0.0000000000E+00  -0.2183832511E-04   0.3874004933E-05   0.0000000000E+00  -0.1095984769E-02   0.3065702219E-03   0.3898428403E+01   0.1059400061E+00   0.9415712999E-01  -0.2250733334E-02   0.3846988922E-01   0.3585567123E-01
   0.0000000000E+00   0.0000000000E+00   0.9989352386E+00   0.0000000000E+00   0.0000000000E+00  -0.1984489420E-04   0.0000000000E+00   0.0000000000E+00  -0.1044916539E-02   0.3842158366E+01   0.1012132447E+00   0.1551539283E+00   0.1136057372E-01   0.5965737821E-01   0.2953200869E-01
   0.1003650120E+01   0.0000000000E+00   0.9991463812E+00   0.5501706960E-04   0.0000000000E+00  -0.6136395402E-05   0.3595102898E-02   0.0000000000E+00  -0.8474824091E-03   0.3774439027E+01  -0.4861553414E-02   0.7358211167E-01   0.2758770782E-01   0.2683259020E-01   0.9652189896E-02
   0.1003793044E+01   0.9987146274E+00   0.9991755436E+00   0.8306786090E-04  -0.2040920014E-04  -0.1720449598E-04   0.3709976585E-02  -0.1264963449E-02  -0.8072519505E-03   0.3776170391E+01  -0.3130188917E-02   0.7011938267E-01   0.1700001790E-01   0.1316825276E-01   0.3468554927E-02
   0.0000000000E+00   0.9987481142E+00   0.9990132587E+00   0.0000000000E+00  -0.1498893362E-04  -0.2666666204E-04   0.0000000000E+00  -0.1236896819E-02  -0.9600746500E-03   0.3880670445E+01   0.1015499264E+00   0.1163051676E+00   0.3633448190E-02   0.4282438245E-01   0.1626295004E-01
   0.2007500000E+01   0.0000000000E+00   0.4915043526E-03   0.1000000000E-03   0.0000000000E+00  -0.1745917152E-04   0.7400000000E-02   0.0000000000E+00   0.5089635241E-03   0.3680407426E+01  -0.1130386926E+00   0.2042489673E-01   0.3238278662E-02   0.2814988554E-01  -0.1174538353E-01
   0.2007500000E+01   0.9985997329E+00   0.3832419794E-03   0.1000000000E-03  -0.1809381926E-04  -0.1777789623E-04   0.7400000000E-02  -0.1382173278E-02   0.4010198756E-03   0.3646548973E+01  -0.1063670214E+00   0.4761167881E-01  -0.1378850510E-01   0.1461690081E-01  -0.1079583787E-01
   0.2007500000E+01   0.0000000000E+00   0.9992935203E+00   0.1000000000E-03   0.0000000000E+00  -0.4843359856E-06   0.7400000000E-02   0.0000000000E+00  -0.7059953814E-03   0.3704808575E+01  -0.1242897212E+00   0.7274776804E-02   0.5639444637E-02   0.3155907064E-01  -0.1487828094E-02
   0.2007500000E+01   0.9986358669E+00   0.9993101416E+00   0.1000000000E-03  -0.1736596950E-04  -0.3291415562E-06   0.7400000000E-02  -0.1346767085E-02  -0.6895292281E-03   0.3672519939E+01  -0.1184029591E+00   0.3367664981E-01  -0.7808809668E-02   0.2341811874E-01  -0.5382824363E-03
     1     2     3     4     5     6     7     8
     2     9    10     3     6    11    12     7
 VARIABLES = X,Y,Z,DU1,DU2,DU3,U1,U2,U3,S11,S22,S33,S12,S13,S23
 ZONE, T="0.7600D+00" F=FEPOINT, I=   12 J=    2 ET=BRICK
   0.0000000000E+00   0.0000000000E+00   0.0000000000E+00   0.0000000000E+00   0.0000000000E+00   0.0000000000E+00   0.0000000000E+00   0.0000000000E+00   0.0000000000E+00   0.3924892615E+01   0.1117491340E+00   0.1382715648E+00   0.1289473590E-01   0.6615031597E-01   0.4937228103E-01
   0.1003842516E+01   0.0000000000E+00   0.3287488236E-03   0.5196187013E-04   0.0000000000E+00   0.2066857949E-06   0.3790554172E-02   0.0000000000E+00   0.3285421378E-03   0.3823762750E+01   0.5961367815E-02   0.7804847272E-01   0.3349830758E-01   0.2702499750E-01   0.1129905948E-01
   0.1004040713E+01   0.9987485745E+00   0.3628170736E-03   0.7904814259E-04  -0.1558884287E-04   0.9110237812E-06   0.3961664736E-02  -0.1235836690E-02   0.3619060498E-03   0.3826348909E+01   0.8547527682E-02   0.7287615298E-01   0.1971379710E-01   0.5809804449E-02   0.4848153058E-02
   0.0000000000E+00   0.9988588509E+00   0.3162135216E-03   0.0000000000E+00  -0.2332604482E-04   0.5769294818E-05   0.0000000000E+00  -0.1117823094E-02   0.3104442268E-03   0.3970529752E+01   0.1101034539E+00   0.9428010731E-01   0.2148062350E-02   0.3918179295E-01   0.3639673969E-01
   0.0000000000E+00   0.0000000000E+00   0.9989138803E+00   0.0000000000E+00   0.0000000000E+00  -0.2135826717E-04   0.0000000000E+00   0.0000000000E+00  -0.1064761433E-02   0.3908719061E+01   0.1068603695E+00   0.1593338830E+00   0.1477187215E-01   0.6268533667E-01   0.2819939231E-01
   0.1003703483E+01   0.0000000000E+00   0.9991385037E+00   0.5336332832E-04   0.0000000000E+00  -0.7877447163E-05   0.3650119968E-02   0.0000000000E+00  -0.8536188045E-03   0.3828063354E+01  -0.2639840744E-02   0.8234907700E-01   0.3455994613E-01   0.2874112898E-01   0.7419819676E-02
   0.1003873065E+01   0.9986940655E+00   0.9991565620E+00   0.8002052160E-04  -0.2056183533E-04  -0.1898153850E-04   0.3793044446E-02  -0.1285372649E-02  -0.8244564465E-03   0.3830649514E+01  -0.5368087730E-04   0.7717675726E-01   0.2422764752E-01   0.1523627208E-01   0.9689132572E-03
   0.0000000000E+00   0.9987307881E+00   0.9989846593E+00   0.0000000000E+00  -0.1732614617E-04  -0.2859936375E-04   0.0000000000E+00  -0.1251885752E-02  -0.9867413120E-03   0.3952762483E+01   0.1060115473E+00   0.1161392833E+00   0.7097621466E-02   0.4530012600E-01   0.1522385097E-01
   0.2007600000E+01   0.0000000000E+00   0.4739039848E-03   0.1000000000E-03   0.0000000000E+00  -0.1760036783E-04   0.7500000000E-02   0.0000000000E+00   0.4915043526E-03   0.3719775186E+01  -0.1148354445E+00   0.3569212529E-01   0.6819061734E-02   0.2513555107E-01  -0.1211735067E-01
   0.2007600000E+01   0.9985837528E+00   0.3666195920E-03   0.1000000000E-03  -0.1598014255E-04  -0.1662238738E-04   0.7500000000E-02  -0.1400267097E-02   0.3832419794E-03   0.3681807670E+01  -0.1055201431E+00   0.6434434009E-01  -0.1000328566E-01   0.1206426142E-01  -0.1128404418E-01
   0.2007600000E+01   0.0000000000E+00   0.9992921168E+00   0.1000000000E-03   0.0000000000E+00  -0.1403514555E-05   0.7500000000E-02   0.0000000000E+00  -0.7064797174E-03   0.3744043563E+01  -0.1261363265E+00   0.2272463029E-01   0.9455776019E-02   0.3203279332E-01  -0.2448893946E-02
   0.2007600000E+01   0.9986209819E+00   0.9993085688E+00   0.1000000000E-03  -0.1488502919E-04  -0.1572831214E-05   0.7500000000E-02  -0.1364133055E-02  -0.6898583696E-03   0.3707669762E+01  -0.1176178830E+00   0.5057998728E-01  -0.3534570513E-02   0.2479886363E-01  -0.1615587459E-02
     1     2     3     4     5     6     7     8
     2     9    10     3     6    11    12     7
 VARIABLES = X,Y,Z,DU1,DU2,DU3,U1,U2,U3,S11,S22,S33,S12,S13,S23
 ZONE, T="0.7700D+00" F=FEPOINT, I=   12 J=    2 ET=BRICK
   0.0000000000E+00   0.0000000000E+00   0.0000000000E+00   0.0000000000E+00   0.0000000000E+00   0.0000000000E+00   0.0000000000E+00   0.0000000000E+00   0.0000000000E+00   0.3985146043E+01   0.1114380881E+00   0.1360710192E+00   0.1669412202E-01   0.6754637617E-01   0.4981616030E-01
   0.1003893389E+01   0.0000000000E+00   0.3303651067E-03   0.5087296836E-04   0.0000000000E+00   0.1616283086E-05   0.3842516042E-02   0.0000000000E+00   0.3287488236E-03   0.3875185843E+01   0.6457111467E-02   0.8246587785E-01   0.4030036881E-01   0.2624228454E-01   0.1043054556E-01
   0.1004116283E+01   0.9987327255E+00   0.3648601773E-03   0.7557022550E-04  -0.1584898270E-04   0.2043103697E-05   0.4040712879E-02  -0.1251425533E-02   0.3628170736E-03   0.3878657989E+01   0.9929257825E-02   0.7552158513E-01   0.2711234106E-01   0.4968370198E-02   0.3712324552E-02
   0.0000000000E+00   0.9988341126E+00   0.3238184840E-03   0.0000000000E+00  -0.2473823167E-04   0.7604962429E-05   0.0000000000E+00  -0.1141149139E-02   0.3162135216E-03   0.4036081564E+01   0.1088852133E+00   0.8768837300E-01   0.6644045232E-02   0.3984156494E-01   0.3706700339E-01
   0.0000000000E+00   0.0000000000E+00   0.9988910236E+00   0.0000000000E+00   0.0000000000E+00  -0.2285665594E-04   0.0000000000E+00   0.0000000000E+00  -0.1086119700E-02   0.3968958106E+01   0.1067828997E+00   0.1569141446E+00   0.1816180898E-01   0.6566694352E-01   0.2690127461E-01
   0.1003755110E+01   0.0000000000E+00   0.9991286765E+00   0.5162715733E-04   0.0000000000E+00  -0.9827270751E-05   0.3703483296E-02   0.0000000000E+00  -0.8614962517E-03   0.3879664657E+01  -0.2500516546E-02   0.8694469185E-01   0.4130144226E-01   0.3057152936E-01   0.5222326024E-02
   0.1003949578E+01   0.9986733623E+00   0.9991357395E+00   0.7651341796E-04  -0.2070324802E-04  -0.2082246533E-04   0.3873064967E-02  -0.1305934484E-02  -0.8434379850E-03   0.3883136803E+01   0.9716298123E-03   0.8000039913E-01   0.3148927152E-01   0.1726563499E-01  -0.1495894985E-02
   0.0000000000E+00   0.9987111868E+00   0.9989542669E+00   0.0000000000E+00  -0.1960127732E-04  -0.3039239037E-04   0.0000000000E+00  -0.1269211899E-02  -0.1015340676E-02   0.4018310438E+01   0.1050216195E+00   0.1093230930E+00   0.1076681091E-01   0.4770077804E-01   0.1415211770E-01
   0.2007700000E+01   0.0000000000E+00   0.4565158783E-03   0.1000000000E-03   0.0000000000E+00  -0.1738810649E-04   0.7600000000E-02   0.0000000000E+00   0.4739039848E-03   0.3761131340E+01  -0.1151699710E+00   0.4960114434E-01   0.1041821976E-01   0.2196925540E-01  -0.1227693508E-01
   0.2007700000E+01   0.9985697530E+00   0.3515346173E-03   0.1000000000E-03  -0.1399974348E-04  -0.1508497478E-04   0.7600000000E-02  -0.1416247239E-02   0.3666195920E-03   0.3719500946E+01  -0.1033119691E+00   0.7937353638E-01  -0.5907758944E-02   0.9501021604E-02  -0.1152266361E-01
   0.2007700000E+01   0.0000000000E+00   0.9992894647E+00   0.1000000000E-03   0.0000000000E+00  -0.2652106413E-05   0.7600000000E-02   0.0000000000E+00  -0.7078832319E-03   0.3785315868E+01  -0.1265079632E+00   0.3675460919E-01   0.1332746338E-01   0.3250717767E-01  -0.3319740004E-02
   0.2007700000E+01   0.9986084633E+00   0.9993054170E+00   0.1000000000E-03  -0.1251865990E-04  -0.3151769183E-05   0.7600000000E-02  -0.1379018084E-02  -0.6914312008E-03   0.3745268663E+01  -0.1154415559E+00   0.6573540668E-01   0.1098119973E-02   0.2623633809E-01  -0.2565468530E-02
     1     2     3     4     5     6     7     8
     2     9    10     3     6    11    12     7
 VARIABLES = X,Y,Z,DU1,DU2,DU3,U1,U2,U3,S11,S22,S33,S12,S13,S23
 ZONE, T="0.7800D+00" F=FEPOINT, I=   12 J=    2 ET=BRICK
   0.0000000000E+00   0.0000000000E+00   0.0000000000E+00   0.0000000000E+00   0.0000000000E+00   0.0000000000E+00   0.0000000000E+00   0.0000000000E+00   0.0000000000E+00   0.4039049045E+01   0.1055658434E+00   0.1273232673E+00   0.2033602300E-01   0.6900241209E-01   0.5044356525E-01
   0.1003943197E+01   0.0000000000E+00   0.3333733846E-03   0.4980848176E-04   0.0000000000E+00   0.3008277885E-05   0.3893389010E-02   0.0000000000E+00   0.3303651067E-03   0.3924526099E+01   0.4811352385E-02   0.8257612598E-01   0.4668169337E-01   0.2538317432E-01   0.9660692041E-02
   0.1004188037E+01   0.9987165799E+00   0.3680349187E-03   0.7175389540E-04  -0.1614559297E-04   0.3174741429E-05   0.4116283104E-02  -0.1267274516E-02   0.3648601773E-03   0.3928904010E+01   0.9189263766E-02   0.7382030321E-01   0.3430762081E-01   0.4085974323E-02   0.2682676465E-02
   0.0000000000E+00   0.9988081498E+00   0.3330590704E-03   0.0000000000E+00  -0.2596283773E-04   0.9240586400E-05   0.0000000000E+00  -0.1165887370E-02   0.3238184840E-03   0.4094943772E+01   0.1024048048E+00   0.7458957950E-01   0.1114416240E-01   0.4044636863E-01   0.3785645578E-01
   0.0000000000E+00   0.0000000000E+00   0.9988668174E+00   0.0000000000E+00   0.0000000000E+00  -0.2420620984E-04   0.0000000000E+00   0.0000000000E+00  -0.1108976356E-02   0.4022812266E+01   0.1010971237E+00   0.1480287665E+00   0.2146532788E-01   0.6854080003E-01   0.2565724065E-01
   0.1003805005E+01   0.0000000000E+00   0.9991167799E+00   0.4989433871E-04   0.0000000000E+00  -0.1189662252E-04   0.3755110453E-02   0.0000000000E+00  -0.8713235224E-03   0.3929178109E+01  -0.4492668382E-02   0.8722813636E-01   0.4770020545E-01   0.3228252702E-01   0.3093824969E-02
   0.1004022223E+01   0.9986525725E+00   0.9991131011E+00   0.7264492288E-04  -0.2078981284E-04  -0.2263844363E-04   0.3949578385E-02  -0.1326637733E-02  -0.8642604503E-03   0.3933556021E+01  -0.1147570010E-03   0.7847231359E-01   0.3865216281E-01   0.1921389538E-01  -0.3884190606E-02
   0.0000000000E+00   0.9986894858E+00   0.9989223543E+00   0.0000000000E+00  -0.2170101979E-04  -0.3191260572E-04   0.0000000000E+00  -0.1288813176E-02  -0.1045733066E-02   0.4077168647E+01   0.9870525774E-01   0.9606425138E-01   0.1455653107E-01   0.4997564531E-01   0.1307013118E-01
   0.2007800000E+01   0.0000000000E+00   0.4396679585E-03   0.1000000000E-03   0.0000000000E+00  -0.1684791983E-04   0.7700000000E-02   0.0000000000E+00   0.4565158783E-03   0.3804431482E+01  -0.1142436569E+00   0.6170117329E-01   0.1397159874E-01   0.1870621529E-01  -0.1221104392E-01
   0.2007800000E+01   0.9985575761E+00   0.3383237317E-03   0.1000000000E-03  -0.1217687215E-04  -0.1321088557E-04   0.7700000000E-02  -0.1430246983E-02   0.3515346173E-03   0.3759642339E+01  -0.9997703500E-01   0.9222369454E-01  -0.1584685785E-02   0.6975376715E-02  -0.1149403334E-01
   0.2007800000E+01   0.0000000000E+00   0.9992852711E+00   0.1000000000E-03   0.0000000000E+00  -0.4193558768E-05   0.7700000000E-02   0.0000000000E+00  -0.7105353383E-03   0.3828581661E+01  -0.1256017357E+00   0.4890907332E-01   0.1718683598E-01   0.3296653275E-01  -0.4083094227E-02
   0.2007800000E+01   0.9985981625E+00   0.9993003886E+00   0.1000000000E-03  -0.1030077512E-04  -0.5028449745E-05   0.7700000000E-02  -0.1391536744E-02  -0.6945829700E-03   0.3785330863E+01  -0.1121042865E+00   0.7866242192E-01   0.5999547507E-02   0.2770194215E-01  -0.3366083649E-02
     1     2     3     4     5     6     7     8
     2     9    10     3     6    11    12     7
 VARIABLES = X,Y,Z,DU1,DU2,DU3,U1,U2,U3,S11,S22,S33,S12,S13,S23
 ZONE, T="0.7900D+00" F=FEPOINT, I=   12 J=    2 ET=BRICK
   0.0000000000E+00   0.0000000000E+00   0.0000000000E+00   0.0000000000E+00   0.0000000000E+00   0.0000000000E+00   0.0000000000E+00   0.0000000000E+00   0.0000000000E+00   0.4086862555E+01   0.9456227300E-01   0.1125468390E+00   0.2374666996E-01   0.7048196256E-01   0.5121900576E-01
   0.1003992040E+01   0.0000000000E+00   0.3376695524E-03   0.4884276652E-04   0.0000000000E+00   0.4296167800E-05   0.3943197492E-02   0.0000000000E+00   0.3333733846E-03   0.3971870108E+01   0.1144750342E-02   0.7851063766E-01   0.5252787531E-01   0.2445831312E-01   0.8998786800E-02
   0.1004255735E+01   0.9987001489E+00   0.3722516411E-03   0.6769833655E-04  -0.1643094893E-04   0.4216722420E-05   0.4188037000E-02  -0.1283420109E-02   0.3680349187E-03   0.3977160047E+01   0.6434690000E-02   0.6793075834E-01   0.4115618648E-01   0.3183367295E-02   0.1775419620E-02
   0.0000000000E+00   0.9987812539E+00   0.3436034390E-03   0.0000000000E+00  -0.2689589608E-04   0.1054436859E-04   0.0000000000E+00  -0.1191850208E-02   0.3330590704E-03   0.4147291614E+01   0.9109176884E-01   0.5558828431E-01   0.1554355713E-01   0.4098920590E-01   0.3873229427E-01
   0.0000000000E+00   0.0000000000E+00   0.9988415366E+00   0.0000000000E+00   0.0000000000E+00  -0.2528085579E-04   0.0000000000E+00   0.0000000000E+00  -0.1133182566E-02   0.4070537910E+01   0.9023788391E-01   0.1331958729E+00   0.2461237147E-01   0.7123180524E-01   0.2447498048E-01
   0.1003853251E+01   0.0000000000E+00   0.9991027849E+00   0.4824629586E-04   0.0000000000E+00  -0.1399493642E-04   0.3805004792E-02   0.0000000000E+00  -0.8832201450E-03   0.3976685685E+01  -0.8486405898E-02   0.8332621578E-01   0.5364137828E-01   0.3382432830E-01   0.1063877313E-02
   0.1004090739E+01   0.9986317932E+00   0.9990887596E+00   0.6851542016E-04  -0.2077925233E-04  -0.2434151867E-04   0.4022223308E-02  -0.1347427545E-02  -0.8868988940E-03   0.3981975625E+01  -0.3196466240E-02   0.7274633646E-01   0.4557261885E-01   0.2103206304E-01  -0.6159489867E-02
   0.0000000000E+00   0.9986659658E+00   0.9988893177E+00   0.0000000000E+00  -0.2351998047E-04  -0.3303659675E-04   0.0000000000E+00  -0.1310514196E-02  -0.1077645672E-02   0.4129507351E+01   0.8749718860E-01   0.7696712706E-01   0.1836967337E-01   0.5206548335E-01   0.1198826899E-01
   0.2007900000E+01   0.0000000000E+00   0.4236538309E-03   0.1000000000E-03   0.0000000000E+00  -0.1601412754E-04   0.7800000000E-02   0.0000000000E+00   0.4396679585E-03   0.3849614198E+01  -0.1122105383E+00   0.7167566429E-01   0.1740951763E-01   0.1540834239E-01  -0.1191135447E-01
   0.2007900000E+01   0.9985470470E+00   0.3272687791E-03   0.1000000000E-03  -0.1052916684E-04  -0.1105495260E-04   0.7800000000E-02  -0.1442423855E-02   0.3383237317E-03   0.3802223357E+01  -0.9570181587E-01   0.1025577825E+00   0.2869252801E-02   0.4540633958E-02  -0.1118634801E-01
   0.2007900000E+01   0.0000000000E+00   0.9992792884E+00   0.1000000000E-03   0.0000000000E+00  -0.5982680096E-05   0.7800000000E-02   0.0000000000E+00  -0.7147288971E-03   0.3873779979E+01  -0.1235684226E+00   0.5886776707E-01   0.2096024861E-01   0.3339053007E-01  -0.4724656585E-02
   0.2007900000E+01   0.9985899032E+00   0.9992932319E+00   0.1000000000E-03  -0.8259304337E-05  -0.7156721174E-05   0.7800000000E-02  -0.1401837519E-02  -0.6996114198E-03   0.3827848756E+01  -0.1077895090E+00   0.8902007641E-01   0.1106542784E-01   0.2916174799E-01  -0.3999650123E-02
     1     2     3     4     5     6     7     8
     2     9    10     3     6    11    12     7
 VARIABLES = X,Y,Z,DU1,DU2,DU3,U1,U2,U3,S11,S22,S33,S12,S13,S23
 ZONE, T="0.8000D+00" F=FEPOINT, I=   12 J=    2 ET=BRICK
   0.0000000000E+00   0.0000000000E+00   0.0000000000E+00   0.0000000000E+00   0.0000000000E+00   0.0000000000E+00   0.0000000000E+00   0.0000000000E+00   0.0000000000E+00   0.4129138732E+01   0.7914526486E-01   0.9260802790E-01   0.2684997833E-01   0.7193563817E-01   0.5208688274E-01
   0.1004040082E+01   0.0000000000E+00   0.3430695246E-03   0.4804154678E-04   0.0000000000E+00   0.5399972226E-05   0.3992040258E-02   0.0000000000E+00   0.3376695524E-03   0.4017441146E+01  -0.4254988049E-02   0.7065149941E-01   0.5772529733E-01   0.2347509311E-01   0.8446749840E-02
   0.1004319236E+01   0.9986834881E+00   0.3773377870E-03   0.6350082819E-04  -0.1666086126E-04   0.5086145885E-05   0.4255735336E-02  -0.1299851058E-02   0.3722516411E-03   0.4023634114E+01   0.1937980270E-02   0.5826556277E-01   0.4750876697E-01   0.2281574788E-02   0.9986621500E-03
   0.0000000000E+00   0.9987538057E+00   0.3550047139E-03   0.0000000000E+00  -0.2744820555E-04   0.1140127490E-04   0.0000000000E+00  -0.1218746104E-02   0.3436034390E-03   0.4193590370E+01   0.7565507595E-01   0.3164657931E-01   0.1972904200E-01   0.4145924181E-01   0.3964151715E-01
   0.0000000000E+00   0.0000000000E+00   0.9988155663E+00   0.0000000000E+00   0.0000000000E+00  -0.2597032515E-04   0.0000000000E+00   0.0000000000E+00  -0.1158463422E-02   0.4112683692E+01   0.7492741925E-01   0.1132809135E+00   0.2752993730E-01   0.7365427293E-01   0.2335125290E-01
   0.1003900008E+01   0.0000000000E+00   0.9990867492E+00   0.4675675178E-04   0.0000000000E+00  -0.1603569807E-04   0.3853251088E-02   0.0000000000E+00  -0.8972150814E-03   0.4022406537E+01  -0.1418577164E-01   0.7561689120E-01   0.5901011171E-01   0.3514085270E-01  -0.8427026381E-03
   0.1004154963E+01   0.9986111591E+00   0.9990629097E+00   0.6422408304E-04  -0.2063407166E-04  -0.2584991716E-04   0.4090738728E-02  -0.1368206798E-02  -0.9112404126E-03   0.4028599505E+01  -0.7992803316E-02   0.6323095456E-01   0.5210006530E-01   0.2266653692E-01  -0.8290790328E-02
   0.0000000000E+00   0.9986409991E+00   0.9988556594E+00   0.0000000000E+00  -0.2496668987E-04  -0.3365836140E-04   0.0000000000E+00  -0.1334034176E-02  -0.1110682269E-02   0.4175787550E+01   0.7211112024E-01   0.5299335479E-01   0.2209979477E-01   0.5390485093E-01   0.1090588730E-01
   0.2008000000E+01   0.0000000000E+00   0.4087266222E-03   0.1000000000E-03   0.0000000000E+00  -0.1492720868E-04   0.7900000000E-02   0.0000000000E+00   0.4236538309E-03   0.3896608185E+01  -0.1091729915E+00   0.7934809585E-01   0.2065878993E-01   0.1214247364E-01  -0.1137457681E-01
   0.2008000000E+01   0.9985379784E+00   0.3185901375E-03   0.1000000000E-03  -0.9068606121E-05  -0.8678641598E-05   0.7900000000E-02  -0.1452953022E-02   0.3272687791E-03   0.3847219513E+01  -0.9061983684E-01   0.1101836130E+00   0.7346665541E-02   0.2253503037E-02  -0.1059400627E-01
   0.2008000000E+01   0.0000000000E+00   0.9992713199E+00   0.1000000000E-03   0.0000000000E+00  -0.7968502726E-05   0.7900000000E-02   0.0000000000E+00  -0.7207115772E-03   0.3920839755E+01  -0.1205082060E+00   0.6645174029E-01   0.2457012940E-01   0.3375535806E-01  -0.5233395572E-02
   0.2008000000E+01   0.9985834863E+00   0.9992837473E+00   0.1000000000E-03  -0.6416898853E-05  -0.9484573984E-05   0.7900000000E-02  -0.1410096823E-02  -0.7067681409E-03   0.3872798862E+01  -0.1026289412E+00   0.9661336750E-01   0.1618017912E-01   0.3057781817E-01  -0.4452825035E-02
     1     2     3     4     5     6     7     8
     2     9    10     3     6    11    12     7
 VARIABLES = X,Y,Z,DU1,DU2,DU3,U1,U2,U3,S11,S22,S33,S12,S13,S23
 ZONE, T="0.8100D+00" F=FEPOINT, I=   12 J=    2 ET=BRICK
   0.0000000000E+00   0.0000000000E+00   0.0000000000E+00   0.0000000000E+00   0.0000000000E+00   0.0000000000E+00   0.0000000000E+00   0.0000000000E+00   0.0000000000E+00   0.4166678576E+01   0.6027328754E-01   0.6866443229E-01   0.2956998710E-01   0.7330381117E-01   0.5297536143E-01
   0.1004087541E+01   0.0000000000E+00   0.3493206192E-03   0.4745892486E-04   0.0000000000E+00   0.6251094598E-05   0.4040081805E-02   0.0000000000E+00   0.3430695246E-03   0.4061580678E+01  -0.1095716670E-01   0.5959932734E-01   0.6216433426E-01   0.2243809446E-01   0.7999888753E-02
   0.1004378490E+01   0.9986666900E+00   0.3830493418E-03   0.5925375478E-04  -0.1679803464E-04   0.5711554801E-05   0.4319236165E-02  -0.1316511919E-02   0.3773377870E-03   0.4068651127E+01  -0.3886717643E-02   0.4545842923E-01   0.5321501491E-01   0.1401345902E-02   0.3531127174E-03
   0.0000000000E+00   0.9987262546E+00   0.3667248123E-03   0.0000000000E+00  -0.2755108172E-04   0.1172009835E-04   0.0000000000E+00  -0.1246194310E-02   0.3550047139E-03   0.4234555535E+01   0.5703659506E-01   0.4024165076E-02   0.2358314653E-01   0.4184246568E-01   0.4051487567E-01
   0.0000000000E+00   0.0000000000E+00   0.9987893791E+00   0.0000000000E+00   0.0000000000E+00  -0.2618711996E-04   0.0000000000E+00   0.0000000000E+00  -0.1184433747E-02   0.4150048269E+01   0.5612795486E-01   0.8944007113E-01   0.3014440632E-01   0.7571588858E-01   0.2227357406E-01
   0.1003945497E+01   0.0000000000E+00   0.9990688079E+00   0.4548887201E-04   0.0000000000E+00  -0.1794134134E-04   0.3900007840E-02   0.0000000000E+00  -0.9132507794E-03   0.4066678529E+01  -0.2115286808E-01   0.6469717802E-01   0.6369471242E-01   0.3617253055E-01  -0.2605784826E-02
   0.1004214829E+01   0.9985908345E+00   0.9990358168E+00   0.5986596788E-04  -0.2032461883E-04  -0.2709284193E-04   0.4154962811E-02  -0.1388840869E-02  -0.9370903298E-03   0.4073748978E+01  -0.1408241902E-01   0.5055627992E-01   0.5808171267E-01   0.2406143871E-01  -0.1025256086E-01
   0.0000000000E+00   0.9986150304E+00   0.9988219634E+00   0.0000000000E+00  -0.2596877791E-04  -0.3369594772E-04   0.0000000000E+00  -0.1359000866E-02  -0.1144340630E-02   0.4216721268E+01   0.5349324290E-01   0.2540178443E-01   0.2563495570E-01   0.5542499968E-01   0.9813088303E-02
   0.2008100000E+01   0.0000000000E+00   0.3950954882E-03   0.1000000000E-03   0.0000000000E+00  -0.1363113406E-04   0.8000000000E-02   0.0000000000E+00   0.4087266222E-03   0.3945336275E+01  -0.1051840426E+00   0.8467715056E-01   0.2364502924E-01   0.8978322754E-02  -0.1060258905E-01
   0.2008100000E+01   0.9985301758E+00   0.3124431170E-03   0.1000000000E-03  -0.7802570175E-05  -0.6147020501E-05   0.8000000000E-02  -0.1462021628E-02   0.3185901375E-03   0.3894593280E+01  -0.8481338548E-01   0.1150494886E+00   0.1173323113E-01   0.1721126806E-03  -0.9717796104E-02
   0.2008100000E+01   0.0000000000E+00   0.9992612227E+00   0.1000000000E-03   0.0000000000E+00  -0.1009718508E-04   0.8000000000E-02   0.0000000000E+00  -0.7286800799E-03   0.3969683709E+01  -0.1164729670E+00   0.7161864026E-01   0.2793730792E-01   0.3403511753E-01  -0.5601748572E-02
   0.2008100000E+01   0.9985786945E+00   0.9992717903E+00   0.1000000000E-03  -0.4791735754E-05  -0.1195697049E-04   0.8000000000E-02  -0.1416513722E-02  -0.7162527149E-03   0.3920144675E+01  -0.9670429040E-01   0.1013889978E+00   0.2122075902E-01   0.3190976431E-01  -0.4716955627E-02
     1     2     3     4     5     6     7     8
     2     9    10     3     6    11    12     7
 VARIABLES = X,Y,Z,DU1,DU2,DU3,U1,U2,U3,S11,S22,S33,S12,S13,S23
 ZONE, T="0.8200D+00" F=FEPOINT, I=   12 J=    2 ET=BRICK
   0.0000000000E+00   0.0000000000E+00   0.0000000000E+00   0.0000000000E+00   0.0000000000E+00   0.0000000000E+00   0.0000000000E+00   0.0000000000E+00   0.0000000000E+00   0.4200477438E+01   0.3908480109E-01   0.4209249141E-01   0.3183348016E-01   0.7452004089E-01   0.5380127512E-01
   0.1004134676E+01   0.0000000000E+00   0.3561169709E-03   0.4713506306E-04   0.0000000000E+00   0.6796351684E-05   0.4087540730E-02   0.0000000000E+00   0.3493206192E-03   0.4104722519E+01  -0.1842149560E-01   0.4612811018E-01   0.6574271279E-01   0.2134980552E-01   0.7647998325E-02
   0.1004433532E+01   0.9986498752E+00   0.3890865401E-03   0.5504206949E-04  -0.1681482935E-04   0.6037198289E-05   0.4378489919E-02  -0.1333309954E-02   0.3830493418E-03   0.4112627613E+01  -0.1051640166E-01   0.3031792230E-01   0.5812861970E-01   0.5626561118E-03  -0.1668342300E-03
   0.0000000000E+00   0.9986990938E+00   0.3781638550E-03   0.0000000000E+00  -0.2716084402E-04   0.1143904276E-04   0.0000000000E+00  -0.1273745391E-02   0.3667248123E-03   0.4271101164E+01   0.3635172278E-01  -0.2579815628E-01   0.2698855644E-01   0.4212263330E-01   0.4127190449E-01
   0.0000000000E+00   0.0000000000E+00   0.9987635071E+00   0.0000000000E+00   0.0000000000E+00  -0.2587201942E-04   0.0000000000E+00   0.0000000000E+00  -0.1210620867E-02   0.4183625906E+01   0.3498119678E-01   0.6304762835E-01   0.3238404637E-01   0.7732228689E-01   0.2122249042E-01
   0.1003989990E+01   0.0000000000E+00   0.9990491605E+00   0.4449300113E-04   0.0000000000E+00  -0.1964737168E-04   0.3945496712E-02   0.0000000000E+00  -0.9311921208E-03   0.4109932407E+01  -0.2884127234E-01   0.5133799854E-01   0.6758994179E-01   0.3685949920E-01  -0.4209642579E-02
   0.1004270358E+01   0.9985710029E+00   0.9990078024E+00   0.5552952027E-04  -0.1983156619E-04  -0.2801446563E-04   0.4214828779E-02  -0.1409165488E-02  -0.9641831717E-03   0.4117837501E+01  -0.2093617840E-01   0.3552781067E-01   0.6336757279E-01   0.2516122584E-01  -0.1202447513E-01
   0.0000000000E+00   0.9985885533E+00   0.9987888668E+00   0.0000000000E+00  -0.2647702745E-04  -0.3309666521E-04   0.0000000000E+00  -0.1384969644E-02  -0.1178036578E-02   0.4253219968E+01   0.3276295021E-01  -0.4328187602E-02   0.2886193646E-01   0.5655714655E-01   0.8693119800E-02
   0.2008200000E+01   0.0000000000E+00   0.3829246288E-03   0.1000000000E-03   0.0000000000E+00  -0.1217085942E-04   0.8100000000E-02   0.0000000000E+00   0.3950954882E-03   0.3995716562E+01  -0.1002555075E+00   0.8774248192E-01   0.2629514111E-01   0.5986239710E-02  -0.9602446088E-02
   0.2008200000E+01   0.9985234409E+00   0.3089172386E-03   0.1000000000E-03  -0.6734888119E-05  -0.3525878436E-05   0.8100000000E-02  -0.1469824198E-02   0.3124431170E-03   0.3944294212E+01  -0.7832105308E-01   0.1172303773E+00   0.1591187865E-01  -0.1646156293E-02  -0.8564920005E-02
   0.2008200000E+01   0.0000000000E+00   0.9992489080E+00   0.1000000000E-03   0.0000000000E+00  -0.1231474740E-04   0.8100000000E-02   0.0000000000E+00  -0.7387772650E-03   0.4020229324E+01  -0.1114743626E+00   0.7444857468E-01   0.3098352812E-01   0.3420338108E-01  -0.5825725605E-02
   0.2008200000E+01   0.9985752962E+00   0.9992572718E+00   0.1000000000E-03  -0.3398303927E-05  -0.1451851300E-04   0.8100000000E-02  -0.1421305458E-02  -0.7282096854E-03   0.3969836638E+01  -0.9005473989E-01   0.1034216383E+00   0.2606090003E-01   0.3311646992E-01  -0.4788199522E-02
     1     2     3     4     5     6     7     8
     2     9    10     3     6    11    12     7
 VARIABLES = X,Y,Z,DU1,DU2,DU3,U1,U2,U3,S11,S22,S33,S12,S13,S23
 ZONE, T="0.8300D+00" F=FEPOINT, I=   12 J=    2 ET=BRICK
   0.0000000000E+00   0.0000000000E+00   0.0000000000E+00   0.0000000000E+00   0.0000000000E+00   0.0000000000E+00   0.0000000000E+00   0.0000000000E+00   0.0000000000E+00   0.4231661903E+01   0.1682838962E-01   0.1440367360E-01   0.3357267523E-01   0.7551501113E-01   0.5447573847E-01
   0.1004181770E+01   0.0000000000E+00   0.3631179045E-03   0.4709462672E-04   0.0000000000E+00   0.7000933667E-05   0.4134675793E-02   0.0000000000E+00   0.3561169709E-03   0.4147361577E+01  -0.2603832340E-01   0.3113038560E-01   0.6836888969E-01   0.2021154733E-01   0.7376716671E-02
   0.1004484473E+01   0.9986331800E+00   0.3951127183E-03   0.5094128974E-04  -0.1669525330E-04   0.6026178205E-05   0.4433531989E-02  -0.1350124783E-02   0.3890865401E-03   0.4156041054E+01  -0.1735884639E-01   0.1377143158E-01   0.6211256729E-01  -0.2157297749E-03  -0.5717249836E-03
   0.0000000000E+00   0.9986728320E+00   0.3886933767E-03   0.0000000000E+00  -0.2626178979E-04   0.1052952166E-04   0.0000000000E+00  -0.1300906235E-02   0.3781638550E-03   0.4304279694E+01   0.1482096966E-01  -0.5620669691E-01   0.2983274344E-01   0.4228241662E-01   0.4182669385E-01
   0.0000000000E+00   0.0000000000E+00   0.9987385093E+00   0.0000000000E+00   0.0000000000E+00  -0.2499782330E-04   0.0000000000E+00   0.0000000000E+00  -0.1236492886E-02   0.4214543407E+01   0.1273859324E-01   0.3561196646E-01   0.3418158442E-01   0.7838199608E-01   0.2017426319E-01
   0.1004033795E+01   0.0000000000E+00   0.9990280550E+00   0.4380507115E-04   0.0000000000E+00  -0.2110548055E-04   0.3989989713E-02   0.0000000000E+00  -0.9508394925E-03   0.4152660538E+01  -0.3663624561E-01   0.3642934670E-01   0.7060033591E-01   0.3714501944E-01  -0.5642498844E-02
   0.1004321653E+01   0.9985518553E+00   0.9989792255E+00   0.5129456675E-04  -0.1914765303E-04  -0.2857689201E-04   0.4270358299E-02  -0.1428997054E-02  -0.9921976374E-03   0.4161340015E+01  -0.2795676860E-01   0.1907039268E-01   0.6781562460E-01   0.2591344771E-01  -0.1359094050E-01
   0.0000000000E+00   0.9985620852E+00   0.9987570262E+00   0.0000000000E+00  -0.2646808763E-04  -0.3184058076E-04   0.0000000000E+00  -0.1411446671E-02  -0.1211133243E-02   0.4286334420E+01   0.1114456163E-01  -0.3458501571E-01   0.3167064430E-01   0.5723595547E-01   0.7525218575E-02
   0.2008300000E+01   0.0000000000E+00   0.3723344789E-03   0.1000000000E-03   0.0000000000E+00  -0.1059014989E-04   0.8200000000E-02   0.0000000000E+00   0.3829246288E-03   0.4047661123E+01  -0.9437072761E-01   0.8872291753E-01   0.2853989373E-01   0.3234872877E-02  -0.8386266192E-02
   0.2008300000E+01   0.9985175741E+00   0.3080380663E-03   0.1000000000E-03  -0.5866765835E-05  -0.8791722316E-06   0.8200000000E-02  -0.1476559086E-02   0.3089172386E-03   0.3996256751E+01  -0.7114988893E-01   0.1169064506E+00   0.1976718072E-01  -0.3146921786E-02  -0.7148866029E-02
   0.2008300000E+01   0.0000000000E+00   0.9992343385E+00   0.1000000000E-03   0.0000000000E+00  -0.1456946474E-04   0.8200000000E-02   0.0000000000E+00  -0.7510920124E-03   0.4072387382E+01  -0.1054964572E+00   0.7512238764E-01   0.3363404201E-01   0.3423483216E-01  -0.5904918994E-02
   0.2008300000E+01   0.9985730482E+00   0.9992401560E+00   0.1000000000E-03  -0.2248073095E-05  -0.1711577789E-04   0.8200000000E-02  -0.1424703762E-02  -0.7427281984E-03   0.4021809787E+01  -0.8268900684E-01   0.1028925324E+00   0.3057555953E-01   0.3415789434E-01  -0.4667518831E-02
     1     2     3     4     5     6     7     8
     2     9    10     3     6    11    12     7
 VARIABLES = X,Y,Z,DU1,DU2,DU3,U1,U2,U3,S11,S22,S33,S12,S13,S23
 ZONE, T="0.8400D+00" F=FEPOINT, I=   12 J=    2 ET=BRICK
   0.0000000000E+00   0.0000000000E+00   0.0000000000E+00   0.0000000000E+00   0.0000000000E+00   0.0000000000E+00   0.0000000000E+00   0.0000000000E+00   0.0000000000E+00   0.4261421860E+01  -0.5212050059E-02  -0.1284546310E-01   0.3472786220E-01   0.7622072692E-01   0.5491011360E-01
   0.1004229116E+01   0.0000000000E+00   0.3699680396E-03   0.4734603939E-04   0.0000000000E+00   0.6850135095E-05   0.4181770420E-02   0.0000000000E+00   0.3631179045E-03   0.4190019417E+01  -0.3317282202E-01   0.1555662942E-01   0.6996530684E-01   0.1902451547E-01   0.7169038628E-02
   0.1004531489E+01   0.9986167439E+00   0.4007750300E-03   0.4701607516E-04  -0.1643606872E-04   0.5662311721E-05   0.4484473279E-02  -0.1366820036E-02   0.3951127183E-03   0.4199396078E+01  -0.2379616122E-01  -0.3196692179E-02   0.6504431674E-01  -0.9166341658E-03  -0.8754916721E-03
   0.0000000000E+00   0.9986479645E+00   0.3976913557E-03   0.0000000000E+00  -0.2486750019E-04   0.8997979028E-05   0.0000000000E+00  -0.1327168025E-02   0.3886933767E-03   0.4335216952E+01  -0.6303253321E-02  -0.8554935174E-01   0.3201257494E-01   0.4230467433E-01   0.4209402909E-01
   0.0000000000E+00   0.0000000000E+00   0.9987149381E+00   0.0000000000E+00   0.0000000000E+00  -0.2357114036E-04   0.0000000000E+00   0.0000000000E+00  -0.1261490710E-02   0.4243992230E+01  -0.9313319825E-02   0.8685436152E-02   0.3547673687E-01   0.7881147499E-01   0.1910377090E-01
   0.1004077241E+01   0.0000000000E+00   0.9990057695E+00   0.4344572673E-04   0.0000000000E+00  -0.2228548992E-04   0.4033794784E-02   0.0000000000E+00  -0.9719449730E-03   0.4195382438E+01  -0.4389886242E-01   0.2091964962E-01   0.7264341262E-01   0.3697892105E-01  -0.6895952575E-02
   0.1004368884E+01   0.9985335767E+00   0.9989504635E+00   0.4723083970E-04  -0.1827858272E-04  -0.2876192724E-04   0.4321652866E-02  -0.1448144707E-02  -0.1020774529E-02   0.4204759098E+01  -0.3452220162E-01   0.2166328020E-02   0.7129691066E-01   0.2627150160E-01  -0.1494048287E-01
   0.0000000000E+00   0.9985361395E+00   0.9987270841E+00   0.0000000000E+00  -0.2594571076E-04  -0.2994211802E-04   0.0000000000E+00  -0.1437914759E-02  -0.1242973824E-02   0.4317189734E+01  -0.1010572892E-01  -0.6371965832E-01   0.3395851550E-01   0.5740304322E-01   0.6287686394E-02
   0.2008400000E+01   0.0000000000E+00   0.3634046136E-03   0.1000000000E-03   0.0000000000E+00  -0.8929865294E-05   0.8300000000E-02   0.0000000000E+00   0.3723344789E-03   0.4101073035E+01  -0.8750034489E-01   0.8786941241E-01   0.3031645630E-01   0.7888327445E-03  -0.6971003182E-02
   0.2008400000E+01   0.9985123766E+00   0.3097711292E-03   0.1000000000E-03  -0.5197513267E-05   0.1733062924E-05   0.8300000000E-02  -0.1482425852E-02   0.3080380663E-03   0.4050396453E+01  -0.6329063250E-01   0.1143362828E+00   0.2318976337E-01  -0.4281031428E-02  -0.5489134783E-02
   0.2008400000E+01   0.0000000000E+00   0.9992175247E+00   0.1000000000E-03   0.0000000000E+00  -0.1681378289E-04   0.8300000000E-02   0.0000000000E+00  -0.7656614771E-03   0.4126058809E+01  -0.9851136326E-01   0.7389465724E-01   0.3582017571E-01   0.3410689584E-01  -0.5842424169E-02
   0.2008400000E+01   0.9985716982E+00   0.9992204568E+00   0.1000000000E-03  -0.1349971325E-05  -0.1969918350E-04   0.8300000000E-02  -0.1426951835E-02  -0.7598439763E-03   0.4075979814E+01  -0.7460044505E-01   0.1000627335E+00   0.3464539317E-01   0.3499687121E-01  -0.4360555769E-02
     1     2     3     4     5     6     7     8
     2     9    10     3     6    11    12     7
 VARIABLES = X,Y,Z,DU1,DU2,DU3,U1,U2,U3,S11,S22,S33,S12,S13,S23
 ZONE, T="0.8500D+00" F=FEPOINT, I=   12 J=    2 ET=BRICK
   0.0000000000E+00   0.0000000000E+00   0.0000000000E+00   0.0000000000E+00   0.0000000000E+00   0.0000000000E+00   0.0000000000E+00   0.0000000000E+00   0.0000000000E+00   0.4290941789E+01  -0.2579254259E-01  -0.3814388443E-01   0.3524987298E-01   0.7657470613E-01   0.5502195819E-01
   0.1004276998E+01   0.0000000000E+00   0.3763178208E-03   0.4788156037E-04   0.0000000000E+00   0.6349781143E-05   0.4229116459E-02   0.0000000000E+00   0.3699680396E-03   0.4233208989E+01  -0.3921005783E-01   0.3529898880E-03   0.7047138331E-01   0.1779084620E-01   0.7006881946E-02
   0.1004574809E+01   0.9986006969E+00   0.4057256600E-03   0.4331940834E-04  -0.1604696048E-04   0.4950629997E-05   0.4531489354E-02  -0.1383256105E-02   0.4007750300E-03   0.4243189805E+01  -0.2922924187E-01  -0.1960864204E-01   0.6682066563E-01  -0.1524785890E-02  -0.1093828645E-02
   0.0000000000E+00   0.9986249441E+00   0.4045770148E-03   0.0000000000E+00  -0.2302042367E-04   0.6885659077E-05   0.0000000000E+00  -0.1352035525E-02   0.3976913557E-03   0.4365046208E+01  -0.2581022268E-01  -0.1122306234E+00   0.3343869447E-01   0.4217375026E-01   0.4199550825E-01
   0.0000000000E+00   0.0000000000E+00   0.9986933060E+00   0.0000000000E+00   0.0000000000E+00  -0.2163215000E-04   0.0000000000E+00   0.0000000000E+00  -0.1285061850E-02   0.4273159776E+01  -0.2992798614E-01  -0.1622642812E-01   0.3621858909E-01   0.7853996465E-01   0.1798742874E-01
   0.1004120661E+01   0.0000000000E+00   0.9989825935E+00   0.4342017837E-04   0.0000000000E+00  -0.2317604765E-04   0.4077240511E-02   0.0000000000E+00  -0.9942304629E-03   0.4238609463E+01  -0.5001100529E-01   0.5753463615E-02   0.7365263349E-01   0.3632088507E-01  -0.7964341997E-02
   0.1004412281E+01   0.9985163337E+00   0.9989218920E+00   0.4339705606E-04  -0.1724302695E-04  -0.2857158560E-04   0.4368883706E-02  -0.1466423290E-02  -0.1049536457E-02   0.4248590279E+01  -0.4003018932E-01  -0.1420816831E-01   0.7370034786E-01   0.2619724398E-01  -0.1606505259E-01
   0.0000000000E+00   0.9985111991E+00   0.9986996344E+00   0.0000000000E+00  -0.2494046467E-04  -0.2744969359E-04   0.0000000000E+00  -0.1463860470E-02  -0.1272915942E-02   0.4346919407E+01  -0.2977327222E-01  -0.9014077309E-01   0.3563471767E-01   0.5701032280E-01   0.4960978804E-02
   0.2008500000E+01   0.0000000000E+00   0.3561778271E-03   0.1000000000E-03   0.0000000000E+00  -0.7226786445E-05   0.8400000000E-02   0.0000000000E+00   0.3634046136E-03   0.4155842535E+01  -0.7961938464E-01   0.8547533068E-01   0.3157079445E-01  -0.1293544656E-02  -0.5378114502E-02
   0.2008500000E+01   0.9985076516E+00   0.3140273801E-03   0.1000000000E-03  -0.4725020405E-05   0.4256250835E-05   0.8400000000E-02  -0.1487623365E-02   0.3097711292E-03   0.4106605511E+01  -0.5473430859E-01   0.1098272778E+00   0.2608053761E-01  -0.5006670913E-02  -0.3610835829E-02
   0.2008500000E+01   0.0000000000E+00   0.9991985191E+00   0.1000000000E-03   0.0000000000E+00  -0.1900567148E-04   0.8400000000E-02   0.0000000000E+00  -0.7824752600E-03   0.4181130662E+01  -0.9049616943E-01   0.7106398854E-01   0.3748176076E-01   0.3380127456E-01  -0.5644678980E-02
   0.2008500000E+01   0.9985709876E+00   0.9991982325E+00   0.1000000000E-03  -0.7106260176E-06  -0.2222430906E-04   0.8400000000E-02  -0.1428301806E-02  -0.7795431598E-03   0.4132238426E+01  -0.6578348740E-01   0.9524354161E-01   0.3816106093E-01   0.3560081628E-01  -0.3877400307E-02
     1     2     3     4     5     6     7     8
     2     9    10     3     6    11    12     7
 VARIABLES = X,Y,Z,DU1,DU2,DU3,U1,U2,U3,S11,S22,S33,S12,S13,S23
 ZONE, T="0.8600D+00" F=FEPOINT, I=   12 J=    2 ET=BRICK
   0.0000000000E+00   0.0000000000E+00   0.0000000000E+00   0.0000000000E+00   0.0000000000E+00   0.0000000000E+00   0.0000000000E+00   0.0000000000E+00   0.0000000000E+00   0.4321335174E+01  -0.4378025925E-01  -0.6011201489E-01   0.3510227218E-01   0.7652390581E-01   0.5474059380E-01
   0.1004325676E+01   0.0000000000E+00   0.3818431811E-03   0.4867815558E-04   0.0000000000E+00   0.5525360325E-05   0.4276998020E-02   0.0000000000E+00   0.3763178208E-03   0.4277400878E+01  -0.4359791159E-01  -0.1359852796E-01   0.6984611380E-01   0.1651461420E-01   0.6872603114E-02
   0.1004614701E+01   0.9985851472E+00   0.4096421838E-03   0.3989236962E-04  -0.1554977754E-04   0.3916523809E-05   0.4574808762E-02  -0.1399303065E-02   0.4057256600E-03   0.4287878681E+01  -0.3312010867E-01  -0.3455413381E-01   0.6736208883E-01  -0.2027087310E-02  -0.1242611629E-02
   0.0000000000E+00   0.9986041543E+00   0.4088433898E-03   0.0000000000E+00  -0.2078978489E-04   0.4266375055E-05   0.0000000000E+00  -0.1375055949E-02   0.4045770148E-03   0.4394845043E+01  -0.4260052733E-01  -0.1348016157E+00   0.3403947400E-01   0.4187670684E-01   0.4146525810E-01
   0.0000000000E+00   0.0000000000E+00   0.9986740536E+00   0.0000000000E+00   0.0000000000E+00  -0.1925238713E-04   0.0000000000E+00   0.0000000000E+00  -0.1306694000E-02   0.4303163774E+01  -0.4796989484E-01  -0.3775097908E-01   0.3636772065E-01   0.7751388651E-01   0.1680592745E-01
   0.1004164379E+01   0.0000000000E+00   0.9989588094E+00   0.4371876094E-04   0.0000000000E+00  -0.2378407925E-04   0.4120660689E-02   0.0000000000E+00  -0.1017406511E-02   0.4282811021E+01  -0.5441819791E-01  -0.8188384799E-02   0.7357999680E-01   0.3514337885E-01  -0.8844101269E-02
   0.1004452121E+01   0.9985002619E+00   0.9988938646E+00   0.3984054398E-04  -0.1607175025E-04  -0.2802733826E-04   0.4412280762E-02  -0.1483666317E-02  -0.1078108042E-02   0.4293288824E+01  -0.4394039499E-01  -0.2914399064E-01   0.7493704767E-01   0.2566332042E-01  -0.1695931601E-01
   0.0000000000E+00   0.9984876911E+00   0.9986751909E+00   0.0000000000E+00  -0.2350796129E-04  -0.2444343987E-04   0.0000000000E+00  -0.1488800934E-02  -0.1300365635E-02   0.4376602181E+01  -0.4675443191E-01  -0.1124048488E+00   0.3662396739E-01   0.5602300594E-01   0.3530591755E-02
   0.2008600000E+01   0.0000000000E+00   0.3506648159E-03   0.1000000000E-03   0.0000000000E+00  -0.5513011207E-05   0.8500000000E-02   0.0000000000E+00   0.3561778271E-03   0.4211843172E+01  -0.7072388062E-01   0.8184668522E-01   0.3225981847E-01  -0.2962241386E-02  -0.3633137510E-02
   0.2008600000E+01   0.9985032057E+00   0.3206696041E-03   0.1000000000E-03  -0.4445963483E-05   0.6642224028E-05   0.8500000000E-02  -0.1492348386E-02   0.3140273801E-03   0.4164748476E+01  -0.4548843960E-01   0.1037059401E+00   0.2835456672E-01  -0.5291252403E-02  -0.1544169459E-02
   0.2008600000E+01   0.0000000000E+00   0.9991774097E+00   0.1000000000E-03   0.0000000000E+00  -0.2110938179E-04   0.8500000000E-02   0.0000000000E+00  -0.8014809315E-03   0.4237472150E+01  -0.8144940189E-01   0.6694322784E-01   0.3856932904E-01   0.3330530723E-01  -0.5321230571E-02
   0.2008600000E+01   0.9985706532E+00   0.9991735799E+00   0.1000000000E-03  -0.3343551104E-06  -0.2465263315E-04   0.8500000000E-02  -0.1429012432E-02  -0.8017674689E-03   0.4190448916E+01  -0.5624969188E-01   0.8876675173E-01   0.4102718405E-01   0.3594326396E-01  -0.3232262520E-02
     1     2     3     4     5     6     7     8
     2     9    10     3     6    11    12     7
 VARIABLES = X,Y,Z,DU1,DU2,DU3,U1,U2,U3,S11,S22,S33,S12,S13,S23
 ZONE, T="0.8700D+00" F=FEPOINT, I=   12 J=    2 ET=BRICK
   0.0000000000E+00   0.0000000000E+00   0.0000000000E+00   0.0000000000E+00   0.0000000000E+00   0.0000000000E+00   0.0000000000E+00   0.0000000000E+00   0.0000000000E+00   0.4353585670E+01  -0.5821665332E-01  -0.7757806084E-01   0.3426316921E-01   0.7602814449E-01   0.5401196233E-01
   0.1004375375E+01   0.0000000000E+00   0.3862631391E-03   0.4969909551E-04   0.0000000000E+00   0.4419958017E-05   0.4325676175E-02   0.0000000000E+00   0.3818431811E-03   0.4322993249E+01  -0.4588503742E-01  -0.2553361960E-01   0.6807015681E-01   0.1520267654E-01   0.6750367258E-02
   0.1004651466E+01   0.9985701702E+00   0.4122458179E-03   0.3676446913E-04  -0.1497692106E-04   0.2603634105E-05   0.4614701132E-02  -0.1414852843E-02   0.4096421838E-03   0.4333848936E+01  -0.3502935040E-01  -0.4724499364E-01   0.6661635774E-01  -0.2412835281E-02  -0.1336463092E-02
   0.0000000000E+00   0.9985858863E+00   0.4100858326E-03   0.0000000000E+00  -0.1826796355E-04   0.1242442737E-05   0.0000000000E+00  -0.1395845734E-02   0.4088433898E-03   0.4425578540E+01  -0.5574773736E-01  -0.1520398468E+00   0.3376435953E-01   0.4140440761E-01   0.4045490021E-01
   0.0000000000E+00   0.0000000000E+00   0.9986575229E+00   0.0000000000E+00   0.0000000000E+00  -0.1653071568E-04   0.0000000000E+00   0.0000000000E+00  -0.1325946387E-02   0.4334993400E+01  -0.6247758036E-01  -0.5472486363E-01   0.3589798386E-01   0.7570054536E-01   0.1554661136E-01
   0.1004208698E+01   0.0000000000E+00   0.9989346763E+00   0.4431814399E-04   0.0000000000E+00  -0.2413308282E-04   0.4164379450E-02   0.0000000000E+00  -0.1041190590E-02   0.4328384469E+01  -0.5666747789E-01  -0.2014239936E-01   0.7239815149E-01   0.3343407852E-01  -0.9533163271E-02
   0.1004488719E+01   0.9984854560E+00   0.9988666964E+00   0.3659738672E-04  -0.1480592628E-04  -0.2716819476E-04   0.4452121306E-02  -0.1499738067E-02  -0.1106135380E-02   0.4339240156E+01  -0.4581179086E-01  -0.4185377340E-01   0.7494396189E-01   0.2465509113E-01  -0.1761999362E-01
   0.0000000000E+00   0.9984659654E+00   0.9986541598E+00   0.0000000000E+00  -0.2172572636E-04  -0.2103117427E-04   0.0000000000E+00  -0.1512308896E-02  -0.1324809075E-02   0.4407205193E+01  -0.6011812606E-01  -0.1292961113E+00   0.3686979626E-01   0.5442210403E-01   0.1989549233E-02
   0.2008700000E+01   0.0000000000E+00   0.3468489184E-03   0.1000000000E-03   0.0000000000E+00  -0.3815897567E-05   0.8600000000E-02   0.0000000000E+00   0.3506648159E-03   0.4268928813E+01  -0.6084539469E-01   0.7727481044E-01   0.3235319033E-01  -0.4177324047E-02  -0.1765187634E-02
   0.2008700000E+01   0.9984988499E+00   0.3295192057E-03   0.1000000000E-03  -0.4355754850E-05   0.8849601615E-05   0.8600000000E-02  -0.1496794349E-02   0.3206696041E-03   0.4224659012E+01  -0.3559124179E-01   0.9629045870E-01   0.2994440188E-01  -0.5112995796E-02   0.6761885763E-03
   0.2008700000E+01   0.0000000000E+00   0.9991543141E+00   0.1000000000E-03   0.0000000000E+00  -0.2309562776E-04   0.8600000000E-02   0.0000000000E+00  -0.8225903133E-03   0.4294931540E+01  -0.7140538220E-01   0.6183207051E-01   0.3904598005E-01   0.3261307904E-01  -0.4884439952E-02
   0.2008700000E+01   0.9985704303E+00   0.9991466282E+00   0.1000000000E-03  -0.2229263876E-06  -0.2695171160E-04   0.8600000000E-02  -0.1429346787E-02  -0.8264201020E-03   0.4250442816E+01  -0.4604176763E-01   0.8095718043E-01   0.4316578847E-01   0.3600516060E-01  -0.2443063741E-02
     1     2     3     4     5     6     7     8
     2     9    10     3     6    11    12     7
 VARIABLES = X,Y,Z,DU1,DU2,DU3,U1,U2,U3,S11,S22,S33,S12,S13,S23
 ZONE, T="0.8800D+00" F=FEPOINT, I=   12 J=    2 ET=BRICK
   0.0000000000E+00   0.0000000000E+00   0.0000000000E+00   0.0000000000E+00   0.0000000000E+00   0.0000000000E+00   0.0000000000E+00   0.0000000000E+00   0.0000000000E+00   0.4388498127E+01  -0.6836901042E-01  -0.8964049272E-01   0.3272656855E-01   0.7506281641E-01   0.5280248801E-01
   0.1004426271E+01   0.0000000000E+00   0.3893542987E-03   0.5089618097E-04   0.0000000000E+00   0.3091159610E-05   0.4375375271E-02   0.0000000000E+00   0.3862631391E-03   0.4370287350E+01  -0.4575145796E-01  -0.3484970918E-01   0.6514731638E-01   0.1386529078E-01   0.6627289710E-02
   0.1004685420E+01   0.9985558012E+00   0.4133164813E-03   0.3395447501E-04  -0.1436900739E-04   0.1070663362E-05   0.4651465601E-02  -0.1429829764E-02   0.4122458179E-03   0.4381392513E+01  -0.3464629538E-01  -0.5706003433E-01   0.6456127773E-01  -0.2673901193E-02  -0.1387553093E-02
   0.0000000000E+00   0.9985703207E+00   0.4080248807E-03   0.0000000000E+00  -0.1556557377E-04  -0.2060951876E-05   0.0000000000E+00  -0.1414113697E-02   0.4100858326E-03   0.4458051794E+01  -0.6454869732E-01  -0.1630144722E+00   0.3258645869E-01   0.4075237514E-01   0.3893747122E-01
   0.0000000000E+00   0.0000000000E+00   0.9986439351E+00   0.0000000000E+00   0.0000000000E+00  -0.1358775939E-04   0.0000000000E+00   0.0000000000E+00  -0.1342477103E-02   0.4369460223E+01  -0.7271507498E-01  -0.6625652368E-01   0.3479785770E-01   0.7309093269E-01   0.1420534173E-01
   0.1004253881E+01   0.0000000000E+00   0.9989104159E+00   0.4518311208E-04   0.0000000000E+00  -0.2426042646E-04   0.4208697594E-02   0.0000000000E+00  -0.1065323673E-02   0.4375630579E+01  -0.5643791503E-01  -0.2950648064E-01   0.7010193975E-01   0.3119764058E-01  -0.1003045415E-01
   0.1004522412E+01   0.9984719612E+00   0.9988406486E+00   0.3369303074E-04  -0.1349476921E-04  -0.2604777905E-04   0.4488718693E-02  -0.1514543994E-02  -0.1133303575E-02   0.4386735741E+01  -0.4533275245E-01  -0.5171680579E-01   0.7368669863E-01   0.2317204937E-01  -0.1804529696E-01
   0.0000000000E+00   0.9984462765E+00   0.9986368169E+00   0.0000000000E+00  -0.1968891050E-04  -0.1734287302E-04   0.0000000000E+00  -0.1534034622E-02  -0.1345840249E-02   0.4439536439E+01  -0.6915603708E-01  -0.1398917784E+00   0.3633712408E-01   0.5220629262E-01   0.3403249287E-03
   0.2008800000E+01   0.0000000000E+00   0.3446904332E-03   0.1000000000E-03   0.0000000000E+00  -0.2158485147E-05   0.8700000000E-02   0.0000000000E+00   0.3468489184E-03   0.4326932167E+01  -0.5006202697E-01   0.7201360213E-01   0.3183471092E-01  -0.4910361345E-02   0.1936072371E-03
   0.2008800000E+01   0.9984944016E+00   0.3403628633E-03   0.1000000000E-03  -0.4448278574E-05   0.1084365759E-04   0.8700000000E-02  -0.1501150104E-02   0.3295192057E-03   0.4286138426E+01  -0.2512241434E-01   0.8786773016E-01   0.3080274348E-01  -0.4462129629E-02   0.3011781011E-02
   0.2008800000E+01   0.0000000000E+00   0.9991293728E+00   0.1000000000E-03   0.0000000000E+00  -0.2494125589E-04   0.8700000000E-02   0.0000000000E+00  -0.8456859411E-03   0.4353334633E+01  -0.6044508644E-01   0.5599419511E-01   0.3888884292E-01   0.3172622197E-01  -0.4349135059E-02
   0.2008800000E+01   0.9985700552E+00   0.9991175333E+00   0.1000000000E-03  -0.3751306382E-06  -0.2909486077E-04   0.8700000000E-02  -0.1429569714E-02  -0.8533718136E-03   0.4312018342E+01  -0.3524419861E-01   0.7210959834E-01   0.4451909430E-01   0.3577585402E-01  -0.1530961285E-02
     1     2     3     4     5     6     7     8
     2     9    10     3     6    11    12     7
 VARIABLES = X,Y,Z,DU1,DU2,DU3,U1,U2,U3,S11,S22,S33,S12,S13,S23
 ZONE, T="0.8900D+00" F=FEPOINT, I=   12 J=    2 ET=BRICK
   0.0000000000E+00   0.0000000000E+00   0.0000000000E+00   0.0000000000E+00   0.0000000000E+00   0.0000000000E+00   0.0000000000E+00   0.0000000000E+00   0.0000000000E+00   0.4426661939E+01  -0.7376769589E-01  -0.9571339485E-01   0.3050319489E-01   0.7362074147E-01   0.5110172675E-01
   0.1004478484E+01   0.0000000000E+00   0.3909614518E-03   0.5221247015E-04   0.0000000000E+00   0.1607153062E-05   0.4426271452E-02   0.0000000000E+00   0.3893542987E-03   0.4419470007E+01  -0.4302994597E-01  -0.4113791252E-01   0.6110534459E-01   0.1251645299E-01   0.6494284576E-02
   0.1004716892E+01   0.9985420292E+00   0.4127038288E-03   0.3147165544E-04  -0.1377197944E-04  -0.6126524876E-06   0.4685420076E-02  -0.1444198771E-02   0.4133164813E-03   0.4430689873E+01  -0.3181007920E-01  -0.6357764605E-01   0.6120641959E-01  -0.2804873625E-02  -0.1404705730E-02
   0.0000000000E+00   0.9985575152E+00   0.4025222843E-03   0.0000000000E+00  -0.1280554498E-04  -0.5502596395E-05   0.0000000000E+00  -0.1429679271E-02   0.4080248807E-03   0.4492874116E+01  -0.6855978604E-01  -0.1671334825E+00   0.3050425416E-01   0.3992136801E-01   0.3691006908E-01
   0.0000000000E+00   0.0000000000E+00   0.9986333760E+00   0.0000000000E+00   0.0000000000E+00  -0.1055914243E-04   0.0000000000E+00   0.0000000000E+00  -0.1356064862E-02   0.4407161444E+01  -0.7820910646E-01  -0.7177149010E-01   0.3307131706E-01   0.6970147545E-01   0.1278772801E-01
   0.1004300150E+01   0.0000000000E+00   0.9988862020E+00   0.4626881006E-04   0.0000000000E+00  -0.2421386752E-04   0.4253880706E-02   0.0000000000E+00  -0.1089584099E-02   0.4424736000E+01  -0.5356193304E-01  -0.3587191898E-01   0.6670929878E-01   0.2845671862E-01  -0.1033551557E-01
   0.1004553555E+01   0.9984597686E+00   0.9988159180E+00   0.3114328585E-04  -0.1219264548E-04  -0.2473062166E-04   0.4522411723E-02  -0.1528038763E-02  -0.1159351354E-02   0.4435955867E+01  -0.4234206627E-01  -0.5831165251E-01   0.7116138848E-01   0.2122865526E-01  -0.1823450587E-01
   0.0000000000E+00   0.9984287714E+00   0.9986232929E+00   0.0000000000E+00  -0.1750510329E-04  -0.1352398817E-04   0.0000000000E+00  -0.1553723533E-02  -0.1363183122E-02   0.4474208915E+01  -0.7341884303E-01  -0.1436092241E+00   0.3501402875E-01   0.4939303689E-01  -0.1403929647E-02
   0.2008900000E+01   0.0000000000E+00   0.3441301444E-03   0.1000000000E-03   0.0000000000E+00  -0.5602887908E-06   0.8800000000E-02   0.0000000000E+00   0.3446904332E-03   0.4385665345E+01  -0.3850486296E-01   0.6626296656E-01   0.3070322636E-01  -0.5145436573E-02   0.2208721680E-02
   0.2008900000E+01   0.9984896861E+00   0.3529586434E-03   0.1000000000E-03  -0.4715477015E-05   0.1259578009E-04   0.8800000000E-02  -0.1505598383E-02   0.3403628633E-03   0.4348956463E+01  -0.1420947708E-01   0.7867646275E-01   0.3090431709E-01  -0.3341655565E-02   0.5421123281E-02
   0.2008900000E+01   0.0000000000E+00   0.9991027443E+00   0.1000000000E-03   0.0000000000E+00  -0.2662850785E-04   0.8800000000E-02   0.0000000000E+00  -0.8706271970E-03   0.4412485343E+01  -0.4870246046E-01   0.4964056585E-01   0.3809007334E-01   0.3065436071E-01  -0.3732223165E-02
   0.2008900000E+01   0.9985692689E+00   0.9990864729E+00   0.1000000000E-03  -0.7862367218E-06  -0.3106044994E-04   0.8800000000E-02  -0.1429944844E-02  -0.8824666744E-03   0.4374941168E+01  -0.2398942818E-01   0.6247170844E-01   0.4505154105E-01   0.3525373333E-01  -0.5198215637E-03
     1     2     3     4     5     6     7     8
     2     9    10     3     6    11    12     7
 VARIABLES = X,Y,Z,DU1,DU2,DU3,U1,U2,U3,S11,S22,S33,S12,S13,S23
 ZONE, T="0.9000D+00" F=FEPOINT, I=   12 J=    2 ET=BRICK
   0.0000000000E+00   0.0000000000E+00   0.0000000000E+00   0.0000000000E+00   0.0000000000E+00   0.0000000000E+00   0.0000000000E+00   0.0000000000E+00   0.0000000000E+00   0.4468428347E+01  -0.7422729848E-01  -0.9555249825E-01   0.2762075193E-01   0.7171304954E-01   0.4892366094E-01
   0.1004532069E+01   0.0000000000E+00   0.3910037565E-03   0.5358535983E-04   0.0000000000E+00   0.4230475640E-07   0.4478483922E-02   0.0000000000E+00   0.3909614518E-03   0.4470604056E+01  -0.3771700110E-01  -0.4420127596E-01   0.5599601994E-01   0.1117392303E-01   0.6346576787E-02
   0.1004746209E+01   0.9985287954E+00   0.4103337032E-03   0.2931733630E-04  -0.1323387223E-04  -0.2370125595E-05   0.4716891731E-02  -0.1457970751E-02   0.4127038288E-03   0.4481800627E+01  -0.2652043075E-01  -0.6659441665E-01   0.5659376409E-01  -0.2803164608E-02  -0.1392858431E-02
   0.0000000000E+00   0.9985473986E+00   0.3935893929E-03   0.0000000000E+00  -0.1011655652E-04  -0.8932891422E-05   0.0000000000E+00  -0.1442484816E-02   0.4025222843E-03   0.4530436536E+01  -0.6761738333E-01  -0.1641706028E+00   0.2754236524E-01   0.3891764099E-01   0.3439507803E-01
   0.0000000000E+00   0.0000000000E+00   0.9986257880E+00   0.0000000000E+00   0.0000000000E+00  -0.7587953963E-05   0.0000000000E+00   0.0000000000E+00  -0.1366624005E-02   0.4448457078E+01  -0.7877024671E-01  -0.7103828066E-01   0.3073817796E-01   0.6557463130E-01   0.1130965109E-01
   0.1004347673E+01   0.0000000000E+00   0.9988621545E+00   0.4752333055E-04   0.0000000000E+00  -0.2404755573E-04   0.4300149516E-02   0.0000000000E+00  -0.1113797967E-02   0.4475763680E+01  -0.4803624805E-01  -0.3904165248E-01   0.6226147690E-01   0.2525216046E-01  -0.1044827873E-01
   0.1004582511E+01   0.9984488127E+00   0.9987926301E+00   0.2895563086E-04  -0.1095586207E-04  -0.2328793218E-04   0.4553555009E-02  -0.1540231408E-02  -0.1184081976E-02   0.4486960250E+01  -0.3683967771E-01  -0.6143479316E-01   0.6739552099E-01   0.1885453605E-01  -0.1818771395E-01
   0.0000000000E+00   0.9984134828E+00   0.9986135649E+00   0.0000000000E+00  -0.1528855699E-04  -0.9728005109E-05   0.0000000000E+00  -0.1571228636E-02  -0.1376707111E-02   0.4511618038E+01  -0.7273671714E-01  -0.1402327708E+00   0.3291263877E-01   0.4601891345E-01  -0.3218931818E-02
   0.2009000000E+01   0.0000000000E+00   0.3450918132E-03   0.1000000000E-03   0.0000000000E+00   0.9616687342E-06   0.8900000000E-02   0.0000000000E+00   0.3441301444E-03   0.4444922717E+01  -0.2635922902E-01   0.6015952030E-01   0.2897301369E-01  -0.4879716547E-02   0.4243882864E-02
   0.2009000000E+01   0.9984845393E+00   0.3670412929E-03   0.1000000000E-03  -0.5146869398E-05   0.1408264948E-04   0.8900000000E-02  -0.1510313860E-02   0.3529586434E-03   0.4412854638E+01  -0.3029033516E-02   0.6889740356E-01   0.3024688868E-01  -0.1767640002E-02   0.7860500226E-02
   0.2009000000E+01   0.0000000000E+00   0.9990746003E+00   0.1000000000E-03   0.0000000000E+00  -0.2814400734E-04   0.8900000000E-02   0.0000000000E+00  -0.8972557048E-03   0.4472168630E+01  -0.3636556818E-01   0.4291994642E-01   0.3665734485E-01   0.2941517654E-01  -0.3052273260E-02
   0.2009000000E+01   0.9985678215E+00   0.9990536419E+00   0.1000000000E-03  -0.1447411639E-05  -0.3283093330E-04   0.8900000000E-02  -0.1430731081E-02  -0.9135271243E-03   0.4438947780E+01  -0.1245898710E-01   0.5223421525E-01   0.4475097224E-01   0.3444648884E-01   0.5643441018E-03
     1     2     3     4     5     6     7     8
     2     9    10     3     6    11    12     7
 VARIABLES = X,Y,Z,DU1,DU2,DU3,U1,U2,U3,S11,S22,S33,S12,S13,S23
 ZONE, T="0.9100D+00" F=FEPOINT, I=   12 J=    2 ET=BRICK
   0.0000000000E+00   0.0000000000E+00   0.0000000000E+00   0.0000000000E+00   0.0000000000E+00   0.0000000000E+00   0.0000000000E+00   0.0000000000E+00   0.0000000000E+00   0.4513902515E+01  -0.6985086716E-01  -0.8926091741E-01   0.2412359822E-01   0.6936905895E-01   0.4630658033E-01
   0.1004587019E+01   0.0000000000E+00   0.3894762638E-03   0.5494986036E-04   0.0000000000E+00  -0.1527492733E-05   0.4532069282E-02   0.0000000000E+00   0.3910037565E-03   0.4523627098E+01  -0.2997294744E-01  -0.4405858853E-01   0.4989448509E-01   0.9858927839E-02   0.6183857157E-02
   0.1004773696E+01   0.9985159939E+00   0.4062097640E-03   0.2748666559E-04  -0.1280145587E-04  -0.4123939227E-05   0.4746209068E-02  -0.1471204623E-02   0.4103337032E-03   0.4534662337E+01  -0.1893770824E-01  -0.6612906691E-01   0.5079722485E-01  -0.2669077752E-02  -0.1352896340E-02
   0.0000000000E+00   0.9985397724E+00   0.3813875590E-03   0.0000000000E+00  -0.7626207401E-05  -0.1220183388E-04   0.0000000000E+00  -0.1452601373E-02   0.3935893929E-03   0.4570903365E+01  -0.6184176071E-01  -0.1542708743E+00   0.2375132316E-01   0.3775287513E-01   0.3143991152E-01
   0.0000000000E+00   0.0000000000E+00   0.9986209712E+00   0.0000000000E+00   0.0000000000E+00  -0.4816885877E-05   0.0000000000E+00   0.0000000000E+00  -0.1374211959E-02   0.4493461863E+01  -0.7449721034E-01  -0.6417392297E-01   0.2783390107E-01   0.6077829241E-01   0.9797048683E-02
   0.1004396563E+01   0.0000000000E+00   0.9988383367E+00   0.4889050878E-04   0.0000000000E+00  -0.2381780699E-04   0.4347672847E-02   0.0000000000E+00  -0.1137845522E-02   0.4528651600E+01  -0.4002195210E-01  -0.3903408620E-01   0.5682254637E-01   0.2164236307E-01  -0.1036900163E-01
   0.1004609641E+01   0.9984389734E+00   0.9987708370E+00   0.2713072792E-04  -0.9839343210E-05  -0.2179314059E-04   0.4582510640E-02  -0.1551187270E-02  -0.1207369908E-02   0.4539686839E+01  -0.2898671290E-01  -0.6110456458E-01   0.6244771471E-01   0.1609403496E-01  -0.1790575512E-01
   0.0000000000E+00   0.9984003287E+00   0.9986074562E+00   0.0000000000E+00  -0.1315415218E-04  -0.6108671628E-05   0.0000000000E+00  -0.1586517193E-02  -0.1386435116E-02   0.4551933135E+01  -0.6722331468E-01  -0.1299190906E+00   0.3006911248E-01   0.4213910360E-01  -0.5069620125E-02
   0.2009100000E+01   0.0000000000E+00   0.3474835450E-03   0.1000000000E-03   0.0000000000E+00   0.2391731880E-05   0.9000000000E-02   0.0000000000E+00   0.3450918132E-03   0.4504486059E+01  -0.1386059057E-01   0.5377492531E-01   0.2667362799E-01  -0.4123557591E-02   0.6261742555E-02
   0.2009100000E+01   0.9984788102E+00   0.3823265707E-03   0.1000000000E-03  -0.5729090881E-05   0.1528527785E-04   0.9000000000E-02  -0.1515460729E-02   0.3670412929E-03   0.4477552110E+01   0.8197204742E-02   0.5865107865E-01   0.2885138256E-01   0.2309826772E-03   0.1028478863E-01
   0.2009100000E+01   0.0000000000E+00   0.9990451227E+00   0.1000000000E-03   0.0000000000E+00  -0.2947761692E-04   0.9000000000E-02   0.0000000000E+00  -0.9253997121E-03   0.4532155792E+01  -0.2367241103E-01   0.3591701270E-01   0.3461381533E-01   0.2803407941E-01  -0.2329078430E-02
   0.2009100000E+01   0.9985654763E+00   0.9990192502E+00   0.1000000000E-03  -0.2345195381E-05  -0.3439176652E-04   0.9000000000E-02  -0.1432178493E-02  -0.9463580576E-03   0.4503751421E+01  -0.8794049319E-03   0.4152837683E-01   0.4362894062E-01   0.3337097962E-01   0.1693967642E-02
     1     2     3     4     5     6     7     8
     2     9    10     3     6    11    12     7
 VARIABLES = X,Y,Z,DU1,DU2,DU3,U1,U2,U3,S11,S22,S33,S12,S13,S23
 ZONE, T="0.9200D+00" F=FEPOINT, I=   12 J=    2 ET=BRICK
   0.0000000000E+00   0.0000000000E+00   0.0000000000E+00   0.0000000000E+00   0.0000000000E+00   0.0000000000E+00   0.0000000000E+00   0.0000000000E+00   0.0000000000E+00   0.4562950268E+01  -0.6101745364E-01  -0.7727483849E-01   0.2007184757E-01   0.6663516970E-01   0.4331157342E-01
   0.1004643261E+01   0.0000000000E+00   0.3864468660E-03   0.5624189916E-04   0.0000000000E+00  -0.3029397809E-05   0.4587019142E-02   0.0000000000E+00   0.3894762638E-03   0.4578358389E+01  -0.2011140337E-01  -0.4093403553E-01   0.4289785764E-01   0.8595556649E-02   0.6010083569E-02
   0.1004799666E+01   0.9985034769E+00   0.4004103685E-03   0.2597047073E-04  -0.1251698183E-04  -0.5799395453E-05   0.4773695733E-02  -0.1484006079E-02   0.4062097640E-03   0.4589097357E+01  -0.9372435950E-02  -0.6241197036E-01   0.4392106243E-01  -0.2405833783E-02  -0.1281858478E-02
   0.0000000000E+00   0.9985343181E+00   0.3662206744E-03   0.0000000000E+00  -0.5454309315E-05  -0.1516688459E-04   0.0000000000E+00  -0.1460227580E-02   0.3813875590E-03   0.4614217765E+01  -0.5162460828E-01  -0.1379351809E+00   0.1920636823E-01   0.3644378684E-01   0.2811530155E-01
   0.0000000000E+00   0.0000000000E+00   0.9986185907E+00   0.0000000000E+00   0.0000000000E+00  -0.2380500500E-05   0.0000000000E+00   0.0000000000E+00  -0.1379028844E-02   0.4542051845E+01  -0.6576451362E-01  -0.5162935472E-01   0.2440885859E-01   0.5540402172E-01   0.8284979553E-02
   0.1004446876E+01   0.0000000000E+00   0.9988147577E+00   0.5031278501E-04   0.0000000000E+00  -0.2357893882E-04   0.4396563355E-02   0.0000000000E+00  -0.1161663329E-02   0.4583219684E+01  -0.2983399276E-01  -0.3607274083E-01   0.5047822269E-01   0.1770180598E-01  -0.1009836755E-01
   0.1004635305E+01   0.9984300800E+00   0.9987505195E+00   0.2566404406E-04  -0.8893410199E-05  -0.2031750052E-04   0.4609641368E-02  -0.1561026614E-02  -0.1229163049E-02   0.4593958651E+01  -0.1909502535E-01  -0.5755067566E-01   0.5640642823E-01   0.1300512231E-01  -0.1739030960E-01
   0.0000000000E+00   0.9983891172E+00   0.9986046439E+00   0.0000000000E+00  -0.1121144404E-04  -0.2812337156E-05   0.0000000000E+00  -0.1599671345E-02  -0.1392543787E-02   0.4595102917E+01  -0.5726345625E-01  -0.1131814851E+00   0.2654270805E-01   0.3782607450E-01  -0.6911292320E-02
   0.2009200000E+01   0.0000000000E+00   0.3511980879E-03   0.1000000000E-03   0.0000000000E+00   0.3714542856E-05   0.9100000000E-02   0.0000000000E+00   0.3474835450E-03   0.4564131735E+01  -0.1285391799E-02   0.4712158138E-01   0.2384921605E-01  -0.2900148861E-02   0.8224558706E-02
   0.2009200000E+01   0.9984723646E+00   0.3985146247E-03   0.1000000000E-03  -0.6445539268E-05   0.1618805393E-04   0.9100000000E-02  -0.1521189820E-02   0.3823265707E-03   0.4542753811E+01   0.1921133617E-01   0.4800277712E-01   0.2676110497E-01   0.2613089174E-02   0.1264829038E-01
   0.2009200000E+01   0.0000000000E+00   0.9990145014E+00   0.1000000000E-03   0.0000000000E+00  -0.3062131267E-04   0.9100000000E-02   0.0000000000E+00  -0.9548773291E-03   0.4592211852E+01  -0.1090171875E-01   0.2865779109E-01   0.3199757116E-01   0.2654349777E-01  -0.1583207408E-02
   0.2009200000E+01   0.9985620152E+00   0.9989835198E+00   0.1000000000E-03  -0.3461118282E-05  -0.3573035347E-04   0.9100000000E-02  -0.1434523688E-02  -0.9807498241E-03   0.4569050352E+01   0.1048679720E-01   0.3043077481E-01   0.4172013279E-01   0.3205271370E-01   0.2840524265E-02
     1     2     3     4     5     6     7     8
     2     9    10     3     6    11    12     7
 VARIABLES = X,Y,Z,DU1,DU2,DU3,U1,U2,U3,S11,S22,S33,S12,S13,S23
 ZONE, T="0.9300D+00" F=FEPOINT, I=   12 J=    2 ET=BRICK
   0.0000000000E+00   0.0000000000E+00   0.0000000000E+00   0.0000000000E+00   0.0000000000E+00   0.0000000000E+00   0.0000000000E+00   0.0000000000E+00   0.0000000000E+00   0.4615218581E+01  -0.4835414578E-01  -0.6033058085E-01   0.1553992596E-01   0.6357285050E-01   0.4001973449E-01
   0.1004700663E+01   0.0000000000E+00   0.3820490318E-03   0.5740148997E-04   0.0000000000E+00  -0.4397834204E-05   0.4643261041E-02   0.0000000000E+00   0.3864468660E-03   0.4634513196E+01  -0.8579062965E-02  -0.3523388057E-01   0.3512315613E-01   0.7409884416E-02   0.5832954034E-02
   0.1004824423E+01   0.9984910617E+00   0.3930810820E-03   0.2475709575E-04  -0.1241524603E-04  -0.7329286561E-05   0.4799666204E-02  -0.1496523061E-02   0.4004103685E-03   0.4644826986E+01   0.1734726676E-02  -0.5586145984E-01   0.3609724880E-01  -0.2019546923E-02  -0.1173487900E-02
   0.0000000000E+00   0.9985306114E+00   0.3485203948E-03   0.0000000000E+00  -0.3706674502E-05  -0.1770027961E-04   0.0000000000E+00  -0.1465681889E-02   0.3662206744E-03   0.4660120427E+01  -0.3760136183E-01  -0.1159852112E+00   0.1400531984E-01   0.3501144668E-01   0.2451224711E-01
   0.0000000000E+00   0.0000000000E+00   0.9986181926E+00   0.0000000000E+00   0.0000000000E+00  -0.3980661030E-06   0.0000000000E+00   0.0000000000E+00  -0.1381409345E-02   0.4593884660E+01  -0.5319467259E-01  -0.3415613289E-01   0.2052709134E-01   0.4956420515E-01   0.6816027312E-02
   0.1004498610E+01   0.0000000000E+00   0.9987913783E+00   0.5173399583E-04   0.0000000000E+00  -0.2337944372E-04   0.4446876141E-02   0.0000000000E+00  -0.1185242268E-02   0.4639184158E+01  -0.1792098554E-01  -0.3056291928E-01   0.4333402691E-01   0.1351882477E-01  -0.9637730427E-02
   0.1004659853E+01   0.9984219191E+00   0.9987315934E+00   0.2454747851E-04  -0.8160866759E-05  -0.1892603240E-04   0.4635305412E-02  -0.1569920024E-02  -0.1249480549E-02   0.4649497947E+01  -0.7607195902E-02  -0.5119049855E-01   0.4938766309E-01   0.9657712802E-02  -0.1664417236E-01
   0.0000000000E+00   0.9983795581E+00   0.9986046731E+00   0.0000000000E+00  -0.9559114002E-05   0.2917699870E-07   0.0000000000E+00  -0.1610882789E-02  -0.1395356125E-02   0.4640874057E+01  -0.4348566427E-01  -0.9085453892E-01   0.2241398687E-01   0.3316750437E-01  -0.8691460070E-02
   0.2009300000E+01   0.0000000000E+00   0.3561122508E-03   0.1000000000E-03   0.0000000000E+00   0.4914162916E-05   0.9200000000E-02   0.0000000000E+00   0.3511980879E-03   0.4623639433E+01   0.1106243568E-01   0.4016478321E-01   0.2055732381E-01  -0.1244712553E-02   0.1009487552E-01
   0.2009300000E+01   0.9984650884E+00   0.4152925507E-03   0.1000000000E-03  -0.7276206775E-05   0.1677792605E-04   0.9200000000E-02  -0.1527635359E-02   0.3985146247E-03   0.4608160343E+01   0.2973240924E-01   0.3697389859E-01   0.2404011526E-01   0.5326501680E-02   0.1490556275E-01
   0.2009300000E+01   0.0000000000E+00   0.9989829331E+00   0.1000000000E-03   0.0000000000E+00  -0.3156821220E-04   0.9200000000E-02   0.0000000000E+00  -0.9854986417E-03   0.4652104554E+01   0.1640562288E-02   0.2112153535E-01   0.2886057308E-01   0.2498181350E-01  -0.8355535605E-03
   0.2009300000E+01   0.9985572437E+00   0.9989466847E+00   0.1000000000E-03  -0.4771538230E-05  -0.3683515735E-04   0.9200000000E-02  -0.1437984806E-02  -0.1016480178E-02   0.4634537913E+01   0.2135431148E-01   0.1897442637E-01   0.3908094991E-01   0.3052496344E-01   0.3975133670E-02
     1     2     3     4     5     6     7     8
     2     9    10     3     6    11    12     7
 VARIABLES = X,Y,Z,DU1,DU2,DU3,U1,U2,U3,S11,S22,S33,S12,S13,S23
 ZONE, T="0.9400D+00" F=FEPOINT, I=   12 J=    2 ET=BRICK
   0.0000000000E+00   0.0000000000E+00   0.0000000000E+00   0.0000000000E+00   0.0000000000E+00   0.0000000000E+00   0.0000000000E+00   0.0000000000E+00   0.0000000000E+00   0.4670168100E+01  -0.3269464910E-01  -0.3941550579E-01   0.1061463908E-01   0.6025585074E-01   0.3652826342E-01
   0.1004759038E+01   0.0000000000E+00   0.3764709435E-03   0.5837561619E-04   0.0000000000E+00  -0.5578088306E-05   0.4700662531E-02   0.0000000000E+00   0.3820490318E-03   0.4691723422E+01   0.4072667504E-02  -0.2751217320E-01   0.2670461034E-01   0.6328878532E-02   0.5663097625E-02
   0.1004848257E+01   0.9984785405E+00   0.3844234577E-03   0.2383411183E-04  -0.1252115599E-04  -0.8657624260E-05   0.4824423300E-02  -0.1508938307E-02   0.3930810820E-03   0.4701491808E+01   0.1384105344E-01  -0.4704894507E-01   0.2748188420E-01  -0.1519144256E-02  -0.1019076034E-02
   0.0000000000E+00   0.9985281417E+00   0.3288250060E-03   0.0000000000E+00  -0.2469733185E-05  -0.1969538881E-04   0.0000000000E+00  -0.1469388564E-02   0.3485203948E-03   0.4708179736E+01  -0.2061034847E-01  -0.8951144278E-01   0.8265609719E-02   0.3348035690E-01   0.2073781090E-01
   0.0000000000E+00   0.0000000000E+00   0.9986192252E+00   0.0000000000E+00   0.0000000000E+00   0.1032646647E-05   0.0000000000E+00   0.0000000000E+00  -0.1381807411E-02   0.4648431871E+01  -0.3761698746E-01  -0.1275693912E-01   0.1626460377E-01   0.4338825729E-01   0.5438144606E-02
   0.1004551712E+01   0.0000000000E+00   0.9987681195E+00   0.5310196339E-04   0.0000000000E+00  -0.2325874401E-04   0.4498610136E-02   0.0000000000E+00  -0.1208621712E-02   0.4696178204E+01  -0.4836897375E-02  -0.2305739076E-01   0.3551285262E-01   0.9192724352E-02  -0.8989481279E-02
   0.1004683624E+01   0.9984142445E+00   0.9987139194E+00   0.2377089945E-04  -0.7674567742E-05  -0.1767405241E-04   0.4659852891E-02  -0.1578080891E-02  -0.1268406582E-02   0.4705946590E+01   0.4931488561E-02  -0.4259416263E-01   0.4153174990E-01   0.6131460957E-02  -0.1567165494E-01
   0.0000000000E+00   0.9983712780E+00   0.9986069779E+00   0.0000000000E+00  -0.8280120151E-05   0.2304797778E-05   0.0000000000E+00  -0.1620441903E-02  -0.1395326948E-02   0.4688821253E+01  -0.2672155966E-01  -0.6404174894E-01   0.1778222955E-01   0.2826354371E-01  -0.1035230791E-01
   0.2009400000E+01   0.0000000000E+00   0.3620857469E-03   0.1000000000E-03   0.0000000000E+00   0.5973496048E-05   0.9300000000E-02   0.0000000000E+00   0.3561122508E-03   0.4682801754E+01   0.2286820701E-01   0.3283992647E-01   0.1686724586E-01   0.7967013004E-03   0.1183619216E-01
   0.2009400000E+01   0.9984568907E+00   0.4323363838E-03   0.1000000000E-03  -0.8197757102E-05   0.1704383313E-04   0.9300000000E-02  -0.1534911566E-02   0.4152925507E-03   0.4673478918E+01   0.3947270607E-01   0.2555826409E-01   0.2077082293E-01   0.8309531085E-02   0.1701223393E-01
   0.2009400000E+01   0.0000000000E+00   0.9989506213E+00   0.1000000000E-03   0.0000000000E+00  -0.3231186943E-04   0.9300000000E-02   0.0000000000E+00  -0.1017066854E-02   0.4711614256E+01   0.1363799770E-01   0.1325763364E-01   0.2526714725E-01   0.2339198638E-01  -0.1068885598E-03
   0.2009400000E+01   0.9985509959E+00   0.9989089896E+00   0.1000000000E-03  -0.6247757368E-05  -0.3769508689E-04   0.9300000000E-02  -0.1442756345E-02  -0.1053315335E-02   0.4699913674E+01   0.3143136958E-01   0.7164844083E-02   0.3578731604E-01   0.2882755470E-01   0.5069153202E-02
     1     2     3     4     5     6     7     8
     2     9    10     3     6    11    12     7
 VARIABLES = X,Y,Z,DU1,DU2,DU3,U1,U2,U3,S11,S22,S33,S12,S13,S23
 ZONE, T="0.9500D+00" F=FEPOINT, I=   12 J=    2 ET=BRICK
   0.0000000000E+00   0.0000000000E+00   0.0000000000E+00   0.0000000000E+00   0.0000000000E+00   0.0000000000E+00   0.0000000000E+00   0.0000000000E+00   0.0000000000E+00   0.4727115382E+01  -0.1502719713E-01  -0.1570611738E-01   0.5392824338E-02   0.5676681042E-01   0.3294569547E-01
   0.1004818159E+01   0.0000000000E+00   0.3699418593E-03   0.5912069373E-04   0.0000000000E+00  -0.6529084199E-05   0.4759038147E-02   0.0000000000E+00   0.3764709435E-03   0.4749562988E+01   0.1722214949E-01  -0.1842812906E-01   0.1779044876E-01   0.5379158836E-02   0.5513046173E-02
   0.1004871447E+01   0.9984656926E+00   0.3746809460E-03   0.2318980612E-04  -0.1284795193E-04  -0.9742511739E-05   0.4848257411E-02  -0.1521459463E-02   0.3844234577E-03   0.4758676686E+01   0.2633584755E-01  -0.3665552518E-01   0.1825080713E-01  -0.9162201256E-03  -0.8085332467E-03
   0.0000000000E+00   0.9985263354E+00   0.3077532144E-03   0.0000000000E+00  -0.1806259695E-05  -0.2107179162E-04   0.0000000000E+00  -0.1471858297E-02   0.3288250060E-03   0.4757831191E+01  -0.1641477507E-02  -0.5980764650E-01   0.2120603441E-02   0.3187735155E-01   0.1691001636E-01
   0.0000000000E+00   0.0000000000E+00   0.9986210655E+00   0.0000000000E+00   0.0000000000E+00   0.1840280094E-05   0.0000000000E+00   0.0000000000E+00  -0.1380774764E-02   0.4705020991E+01  -0.2001568115E-01   0.1137675681E-01   0.1170726256E-01   0.3701806418E-01   0.4202071097E-02
   0.1004606083E+01   0.0000000000E+00   0.9987448748E+00   0.5437076530E-04   0.0000000000E+00  -0.2324472419E-04   0.4551712100E-02   0.0000000000E+00  -0.1231880456E-02   0.4753777374E+01   0.8793376930E-02  -0.1421374278E-01   0.2715202159E-01   0.4830363457E-02  -0.8157500920E-02
   0.1004706947E+01   0.9984067889E+00   0.9986973149E+00   0.2332350401E-04  -0.7455613372E-05  -0.1660448519E-04   0.4683623790E-02  -0.1585755458E-02  -0.1286080634E-02   0.4762891072E+01   0.1790707499E-01  -0.3244113890E-01   0.3299934512E-01   0.2513130877E-02  -0.1447908034E-01
   0.0000000000E+00   0.9983638402E+00   0.9986109070E+00   0.0000000000E+00  -0.7437791537E-05   0.3929194738E-05   0.0000000000E+00  -0.1628722023E-02  -0.1393022150E-02   0.4738386539E+01  -0.7954830629E-02  -0.3404964140E-01   0.1276217591E-01   0.2322353600E-01  -0.1183360801E-01
   0.2009500000E+01   0.0000000000E+00   0.3689598408E-03   0.1000000000E-03   0.0000000000E+00   0.6874093932E-05   0.9400000000E-02   0.0000000000E+00   0.3620857469E-03   0.4741433888E+01   0.3382510636E-01   0.2507295585E-01   0.1285798329E-01   0.3168771611E-02   0.1341361135E-01
   0.2009500000E+01   0.9984477068E+00   0.4493128456E-03   0.1000000000E-03  -0.9183885145E-05   0.1697646173E-04   0.9400000000E-02  -0.1543109323E-02   0.4323363838E-03   0.4738434520E+01   0.4815582860E-01   0.1374160125E-01   0.1705092094E-01   0.1149286528E-01   0.1892579345E-01
   0.2009500000E+01   0.0000000000E+00   0.9989177754E+00   0.1000000000E-03   0.0000000000E+00  -0.3284591659E-04   0.9400000000E-02   0.0000000000E+00  -0.1049378723E-02   0.4770543942E+01   0.2478226104E-01   0.5005746329E-02   0.2129208345E-01   0.2181992709E-01   0.5825729317E-03
   0.2009500000E+01   0.9985431394E+00   0.9988706903E+00   0.1000000000E-03  -0.7856454499E-05  -0.3829923624E-04   0.9400000000E-02  -0.1449004102E-02  -0.1091010422E-02   0.4764894836E+01   0.4043785237E-01  -0.5000739171E-02   0.3193181717E-01   0.2700538283E-01   0.6094755030E-02
     1     2     3     4     5     6     7     8
     2     9    10     3     6    11    12     7
 VARIABLES = X,Y,Z,DU1,DU2,DU3,U1,U2,U3,S11,S22,S33,S12,S13,S23
 ZONE, T="0.9600D+00" F=FEPOINT, I=   12 J=    2 ET=BRICK
   0.0000000000E+00   0.0000000000E+00   0.0000000000E+00   0.0000000000E+00   0.0000000000E+00   0.0000000000E+00   0.0000000000E+00   0.0000000000E+00   0.0000000000E+00   0.4785282013E+01   0.3564893310E-02   0.9502656725E-02  -0.2132262583E-04   0.5319347196E-01   0.2938654268E-01
   0.1004877763E+01   0.0000000000E+00   0.3627166676E-03   0.5960450280E-04   0.0000000000E+00  -0.7225191706E-05   0.4818158841E-02   0.0000000000E+00   0.3699418593E-03   0.4807576165E+01   0.3021574306E-01  -0.8698282625E-02   0.8539275241E-02   0.4585690686E-02   0.5396061981E-02
   0.1004894262E+01   0.9984522964E+00   0.3641229390E-03   0.2281437002E-04  -0.1339618514E-04  -0.1055800691E-04   0.4871447218E-02  -0.1534307415E-02   0.3746809460E-03   0.4815938644E+01   0.3857822250E-01  -0.2542324152E-01   0.8594568944E-02  -0.2248187096E-03  -0.5316042766E-03
   0.0000000000E+00   0.9985245830E+00   0.2859743916E-03   0.0000000000E+00  -0.1752416612E-05  -0.2177882280E-04   0.0000000000E+00  -0.1473664557E-02   0.3077532144E-03   0.4808423374E+01   0.1822227281E-01  -0.2829608359E-01  -0.4284635904E-02   0.3023039268E-01   0.1315214375E-01
   0.0000000000E+00   0.0000000000E+00   0.9986230488E+00   0.0000000000E+00   0.0000000000E+00   0.1983272898E-05   0.0000000000E+00   0.0000000000E+00  -0.1378934484E-02   0.4762884387E+01  -0.1470692674E-02   0.3693586860E-01   0.6948379906E-02   0.3060288182E-01   0.3158482768E-02
   0.1004661585E+01   0.0000000000E+00   0.9987215226E+00   0.5550258645E-04   0.0000000000E+00  -0.2335217767E-04   0.4606082865E-02   0.0000000000E+00  -0.1255125180E-02   0.4811527942E+01   0.2231218805E-01  -0.4746505120E-02   0.1839993039E-01   0.5423669236E-03  -0.7147657189E-02
   0.1004730142E+01   0.9983992767E+00   0.9986815688E+00   0.2319492855E-04  -0.7512267459E-05  -0.1574610008E-04   0.4706947294E-02  -0.1593211072E-02  -0.1302685119E-02   0.4819890421E+01   0.3067466749E-01  -0.2147146401E-01   0.2396679582E-01  -0.1106344633E-02  -0.1307532345E-01
   0.0000000000E+00   0.9983567671E+00   0.9986157534E+00   0.0000000000E+00  -0.7073051881E-05   0.4846311491E-05   0.0000000000E+00  -0.1636159815E-02  -0.1389092955E-02   0.4788925137E+01   0.1173699249E-01  -0.2312566049E-02   0.7480227277E-02   0.1816234527E-01  -0.1307591616E-01
   0.2009600000E+01   0.0000000000E+00   0.3765562228E-03   0.1000000000E-03   0.0000000000E+00   0.7596381966E-05   0.9500000000E-02   0.0000000000E+00   0.3689598408E-03   0.4799382485E+01   0.4365318958E-01   0.1680201239E-01   0.8615891801E-02   0.5808747185E-02   0.1479446027E-01
   0.2009600000E+01   0.9984375008E+00   0.4658812146E-03   0.1000000000E-03  -0.1020597005E-04   0.1656836902E-04   0.9500000000E-02  -0.1552293208E-02   0.4493128456E-03   0.4802780409E+01   0.5553509549E-01   0.1522181878E-02   0.1298979249E-01   0.1480172466E-01   0.2060634884E-01
   0.2009600000E+01   0.0000000000E+00   0.9988846113E+00   0.1000000000E-03   0.0000000000E+00  -0.3316409618E-04   0.9500000000E-02   0.0000000000E+00  -0.1082224640E-02   0.4828728451E+01   0.3479209508E-01  -0.3682859247E-02   0.1701841656E-01   0.2031268980E-01   0.1213592060E-02
   0.2009600000E+01   0.9985335790E+00   0.9988320533E+00   0.1000000000E-03  -0.9560442353E-05  -0.3863701868E-04   0.9500000000E-02  -0.1456860556E-02  -0.1129309658E-02   0.4829226987E+01   0.4812369533E-01  -0.1751299542E-01   0.2762030005E-01   0.2510672022E-01   0.7025480629E-02
     1     2     3     4     5     6     7     8
     2     9    10     3     6    11    12     7
 VARIABLES = X,Y,Z,DU1,DU2,DU3,U1,U2,U3,S11,S22,S33,S12,S13,S23
 ZONE, T="0.9700D+00" F=FEPOINT, I=   12 J=    2 ET=BRICK
   0.0000000000E+00   0.0000000000E+00   0.0000000000E+00   0.0000000000E+00   0.0000000000E+00   0.0000000000E+00   0.0000000000E+00   0.0000000000E+00   0.0000000000E+00   0.4843847506E+01   0.2196638310E-01   0.3487263225E-01  -0.5519144758E-02   0.4962471468E-01   0.2596565557E-01
   0.1004937571E+01   0.0000000000E+00   0.3550596770E-03   0.5980750647E-04   0.0000000000E+00  -0.7656990540E-05   0.4877763344E-02   0.0000000000E+00   0.3627166676E-03   0.4865306928E+01   0.4240725136E-01   0.9532543565E-03  -0.8838383330E-03   0.3970494954E-02   0.5324904257E-02
   0.1004916962E+01   0.9984381429E+00   0.3530280430E-03   0.2270072750E-04  -0.1415350564E-04  -0.1109489606E-04   0.4894261588E-02  -0.1547703600E-02   0.3641229390E-03   0.4872835732E+01   0.4993605518E-01  -0.1410435328E-01  -0.1287031591E-02   0.5388596417E-03  -0.1791392839E-03
   0.0000000000E+00   0.9985222668E+00   0.2641769555E-03   0.0000000000E+00  -0.2316246582E-05  -0.2179743609E-04   0.0000000000E+00  -0.1475416973E-02   0.2859743916E-03   0.4859267483E+01   0.3786700564E-01   0.3552032208E-02  -0.1079796670E-01   0.2856734069E-01   0.9586752532E-02
   0.0000000000E+00   0.0000000000E+00   0.9986245004E+00   0.0000000000E+00   0.0000000000E+00   0.1451562089E-05   0.0000000000E+00   0.0000000000E+00  -0.1376951211E-02   0.4821211962E+01   0.1690525202E-01   0.6256930724E-01   0.2086073826E-02   0.2429393276E-01   0.2355044274E-02
   0.1004718055E+01   0.0000000000E+00   0.9986979404E+00   0.5646907711E-04   0.0000000000E+00  -0.2358223921E-04   0.4661585451E-02   0.0000000000E+00  -0.1278477358E-02   0.4868976290E+01   0.3506852664E-01   0.4622616717E-02   0.9412404507E-02  -0.3560861018E-02  -0.5968301470E-02
   0.1004753518E+01   0.9983914370E+00   0.9986664560E+00   0.2337605390E-04  -0.7839649299E-05  -0.1511274463E-04   0.4730142223E-02  -0.1600723339E-02  -0.1318431219E-02   0.4876505094E+01   0.4259733045E-01  -0.1043499092E-01   0.1462105273E-01  -0.4634987004E-02  -0.1147234501E-01
   0.0000000000E+00   0.9983495642E+00   0.9986207846E+00   0.0000000000E+00  -0.7202889011E-05   0.5031287092E-05   0.0000000000E+00  -0.1643232867E-02  -0.1384246644E-02   0.4839754873E+01   0.3124440758E-01   0.2968724022E-01   0.2070269594E-02   0.1319645488E-01  -0.1402385876E-01
   0.2009700000E+01   0.0000000000E+00   0.3846765270E-03   0.1000000000E-03   0.0000000000E+00   0.8120304287E-05   0.9600000000E-02   0.0000000000E+00   0.3765562228E-03   0.4856532944E+01   0.5211722818E-01   0.7998174084E-02   0.4232113132E-02   0.8648494124E-02   0.1594887695E-01
   0.2009700000E+01   0.9984262668E+00   0.4816956854E-03   0.1000000000E-03  -0.1123400415E-04   0.1581447083E-04   0.9600000000E-02  -0.1562499178E-02   0.4658812146E-03   0.4866307089E+01   0.6141072898E-01  -0.1106947257E-01   0.8704548556E-02   0.1815819655E-01   0.2201734044E-01
   0.2009700000E+01   0.0000000000E+00   0.9988513506E+00   0.1000000000E-03   0.0000000000E+00  -0.3326068381E-04   0.9600000000E-02   0.0000000000E+00  -0.1115388736E-02   0.4886042114E+01   0.4343110654E-01  -0.1282487454E-01   0.1253497930E-01   0.1891656410E-01   0.1768303217E-02
   0.2009700000E+01   0.9985222593E+00   0.9987933546E+00   0.1000000000E-03  -0.1131973041E-04  -0.3869869288E-04   0.9600000000E-02  -0.1466420999E-02  -0.1167946677E-02   0.4892693326E+01   0.5428607432E-01  -0.3033105422E-01   0.2296807997E-01   0.2318138907E-01   0.7836766711E-02
     1     2     3     4     5     6     7     8
     2     9    10     3     6    11    12     7
 VARIABLES = X,Y,Z,DU1,DU2,DU3,U1,U2,U3,S11,S22,S33,S12,S13,S23
 ZONE, T="0.9800D+00" F=FEPOINT, I=   12 J=    2 ET=BRICK
   0.0000000000E+00   0.0000000000E+00   0.0000000000E+00   0.0000000000E+00   0.0000000000E+00   0.0000000000E+00   0.0000000000E+00   0.0000000000E+00   0.0000000000E+00   0.4902002723E+01   0.3909325223E-01   0.5909749933E-01  -0.1099053429E-01   0.4614663613E-01   0.2279262225E-01
   0.1004997294E+01   0.0000000000E+00   0.3472286930E-03   0.5972350557E-04   0.0000000000E+00  -0.7830984033E-05   0.4937570850E-02   0.0000000000E+00   0.3550596770E-03   0.4922327406E+01   0.5319604023E-01   0.9843090553E-02  -0.1031140787E-01   0.3551457137E-02   0.5310619034E-02
   0.1004939807E+01   0.9984230476E+00   0.3416676723E-03   0.2284496630E-04  -0.1509525745E-04  -0.1136037071E-04   0.4916962315E-02  -0.1561857105E-02   0.3530280430E-03   0.4928954964E+01   0.5982359856E-01  -0.3412026113E-02  -0.1119064385E-01   0.1356829150E-02   0.2556708374E-03
   0.0000000000E+00   0.9985187891E+00   0.2430366211E-03   0.0000000000E+00  -0.3477656746E-05  -0.2114033440E-04   0.0000000000E+00  -0.1477733220E-02   0.2641769555E-03   0.4909687330E+01   0.5621003111E-01   0.3429611316E-01  -0.1726498219E-01   0.2691477589E-01   0.6329765416E-02
   0.0000000000E+00   0.0000000000E+00   0.9986247669E+00   0.0000000000E+00   0.0000000000E+00   0.2665551906E-06   0.0000000000E+00   0.0000000000E+00  -0.1375499649E-02   0.4879204369E+01   0.3402957213E-01   0.8695953289E-01  -0.2779494626E-02   0.1823895312E-01   0.1833539725E-02
   0.1004775307E+01   0.0000000000E+00   0.9986740176E+00   0.5725216753E-04   0.0000000000E+00  -0.2392280558E-04   0.4718054529E-02   0.0000000000E+00  -0.1302059597E-02   0.4925697371E+01   0.4645610930E-01   0.1321305602E-01   0.3488852573E-03  -0.7373141576E-02  -0.4630718465E-02
   0.1004777378E+01   0.9983830168E+00   0.9986517525E+00   0.2385946953E-04  -0.8420198460E-05  -0.1470358106E-04   0.4753518277E-02  -0.1608562988E-02  -0.1333543964E-02   0.4932324929E+01   0.5308366763E-01  -0.4206064837E-04   0.5154326245E-02  -0.7982941500E-02  -0.9685666661E-02
   0.0000000000E+00   0.9983417441E+00   0.9986252754E+00   0.0000000000E+00  -0.7820113351E-05   0.4490715754E-05   0.0000000000E+00  -0.1650435756E-02  -0.1379215356E-02   0.4890206054E+01   0.4948781244E-01   0.6049960815E-01  -0.3330711167E-02   0.8440009752E-02  -0.1462931711E-01
   0.2009800000E+01   0.0000000000E+00   0.3931028715E-03   0.1000000000E-03   0.0000000000E+00   0.8426344426E-05   0.9700000000E-02   0.0000000000E+00   0.3846765270E-03   0.4912814360E+01   0.5904194762E-01  -0.1316709317E-02  -0.2001098660E-03   0.1161666518E-01   0.1685035583E-01
   0.2009800000E+01   0.9984140291E+00   0.4964085388E-03   0.1000000000E-03  -0.1223775336E-04   0.1471285338E-04   0.9700000000E-02  -0.1573733182E-02   0.4816956854E-03   0.4928848988E+01   0.6564440382E-01  -0.2395379332E-01   0.4315866073E-02   0.2148365373E-01   0.2312620748E-01
   0.2009800000E+01   0.0000000000E+00   0.9988182193E+00   0.1000000000E-03   0.0000000000E+00  -0.3313126233E-04   0.9700000000E-02   0.0000000000E+00  -0.1148649420E-02   0.4942404050E+01   0.5052295415E-01  -0.2238740610E-01   0.7933821010E-02   0.1767515076E-01   0.2230585723E-02
   0.2009800000E+01   0.9985091664E+00   0.9987548784E+00   0.1000000000E-03  -0.1309284654E-04  -0.3847623995E-04   0.9700000000E-02  -0.1477740729E-02  -0.1206645370E-02   0.4955121601E+01   0.5878394892E-01  -0.4336595153E-01   0.1809591953E-01   0.2127887856E-01   0.8506437380E-02
     1     2     3     4     5     6     7     8
     2     9    10     3     6    11    12     7
 VARIABLES = X,Y,Z,DU1,DU2,DU3,U1,U2,U3,S11,S22,S33,S12,S13,S23
 ZONE, T="0.9900D+00" F=FEPOINT, I=   12 J=    2 ET=BRICK
   0.0000000000E+00   0.0000000000E+00   0.0000000000E+00   0.0000000000E+00   0.0000000000E+00   0.0000000000E+00   0.0000000000E+00   0.0000000000E+00   0.0000000000E+00   0.4959000703E+01   0.5395221157E-01   0.8097359231E-01  -0.1632694522E-01   0.4283889411E-01   0.1996651185E-01
   0.1005056654E+01   0.0000000000E+00   0.3394603689E-03   0.5935961323E-04   0.0000000000E+00  -0.7768324128E-05   0.4997294356E-02   0.0000000000E+00   0.3472286930E-03   0.4978263612E+01   0.6206145844E-01   0.1737228584E-01  -0.1957760245E-01   0.3341310651E-02   0.5361434153E-02
   0.1004963054E+01   0.9984068618E+00   0.3302910004E-03   0.2324635858E-04  -0.1618582787E-04  -0.1137667192E-04   0.4939807281E-02  -0.1576952363E-02   0.3416676723E-03   0.4983937559E+01   0.6773540498E-01   0.6024392749E-02  -0.2091507608E-01   0.2209762801E-02   0.7761825591E-03
   0.0000000000E+00   0.9985135993E+00   0.2231862060E-03   0.0000000000E+00  -0.5189856270E-05  -0.1985041509E-04   0.0000000000E+00  -0.1481210877E-02   0.2430366211E-03   0.4959066792E+01   0.7225842851E-01   0.6260128669E-01  -0.2353382543E-01   0.2529694209E-01   0.3484938491E-02
   0.0000000000E+00   0.0000000000E+00   0.9986232463E+00   0.0000000000E+00   0.0000000000E+00  -0.1520576273E-05   0.0000000000E+00   0.0000000000E+00  -0.1375233094E-02   0.4936123634E+01   0.4890917258E-01   0.1088937000E+00  -0.7548904596E-02   0.1257693972E-01   0.1627250566E-02
   0.1004833151E+01   0.0000000000E+00   0.9986496677E+00   0.5784431709E-04   0.0000000000E+00  -0.2434988116E-04   0.4775306696E-02   0.0000000000E+00  -0.1325982403E-02   0.4981320446E+01   0.5594778964E-01   0.2042912024E-01  -0.8631421097E-02  -0.1079636478E-01  -0.3149485666E-02
   0.1004802017E+01   0.9983737920E+00   0.9986372482E+00   0.2463958133E-04  -0.9224862905E-05  -0.1450426557E-04   0.4777377746E-02  -0.1616983187E-02  -0.1348247545E-02   0.4986994393E+01   0.6162173619E-01   0.9081227144E-02  -0.4241313554E-02  -0.1106555761E-01  -0.7734737259E-02
   0.0000000000E+00   0.9983328498E+00   0.9986285366E+00   0.0000000000E+00  -0.8894375667E-05   0.3261288389E-05   0.0000000000E+00  -0.1658255869E-02  -0.1374724641E-02   0.4939668789E+01   0.6547585627E-01   0.8878186117E-01  -0.8587044523E-02   0.4000974100E-02  -0.1485432279E-01
   0.2009900000E+01   0.0000000000E+00   0.4015997124E-03   0.1000000000E-03   0.0000000000E+00   0.8496840901E-05   0.9800000000E-02   0.0000000000E+00   0.3931028715E-03   0.4968201607E+01   0.6432341757E-01  -0.1105681882E-01  -0.4588131427E-02   0.1464090365E-01   0.1747624679E-01
   0.2009900000E+01   0.9984008410E+00   0.5096743699E-03   0.1000000000E-03  -0.1318808053E-04   0.1326583107E-04   0.9800000000E-02  -0.1585970936E-02   0.4964085388E-03   0.4990288253E+01   0.6816993556E-01  -0.3698998308E-01  -0.5619847518E-04   0.2470116023E-01   0.2390499874E-01
   0.2009900000E+01   0.0000000000E+00   0.9987854455E+00   0.1000000000E-03   0.0000000000E+00  -0.3277377063E-04   0.9800000000E-02   0.0000000000E+00  -0.1181780682E-02   0.4997780557E+01   0.5596269467E-01  -0.3227504561E-01   0.3307590928E-02   0.1662750719E-01   0.2586405664E-02
   0.2009900000E+01   0.9984943281E+00   0.9987169139E+00   0.1000000000E-03  -0.1483834655E-04  -0.3796451264E-04   0.9800000000E-02  -0.1490833576E-02  -0.1245121610E-02   0.5016388136E+01   0.6154874591E-01  -0.5646867662E-01   0.1312594594E-01   0.1944648740E-01   0.9015157611E-02
     1     2     3     4     5     6     7     8
     2     9    10     3     6    11    12     7
 VARIABLES = X,Y,Z,DU1,DU2,DU3,U1,U2,U3,S11,S22,S33,S12,S13,S23
 ZONE, T="0.1000D+01" F=FEPOINT, I=   12 J=    2 ET=BRICK
   0.0000000000E+00   0.0000000000E+00   0.0000000000E+00   0.0000000000E+00   0.0000000000E+00   0.0000000000E+00   0.0000000000E+00   0.0000000000E+00   0.0000000000E+00   0.5014201986E+01   0.6569330850E-01   0.9946238262E-01  -0.2142429792E-01   0.3977150017E-01   0.1757124175E-01
   0.1005115390E+01   0.0000000000E+00   0.3319576979E-03   0.5873556592E-04   0.0000000000E+00  -0.7502670971E-05   0.5056653969E-02   0.0000000000E+00   0.3394603689E-03   0.5032816900E+01   0.6859149727E-01   0.2306280566E-01  -0.2852218316E-01   0.3346857312E-02   0.5481832750E-02
   0.1004986961E+01   0.9983894812E+00   0.3191121692E-03   0.2390698120E-04  -0.1738065081E-04  -0.1117883111E-04   0.4963053640E-02  -0.1593138191E-02   0.3302910004E-03   0.5037499925E+01   0.7327452189E-01   0.1369675641E-01  -0.3026681029E-01   0.3077501267E-02   0.1381389844E-02
   0.0000000000E+00   0.9985062171E+00   0.2051885328E-03   0.0000000000E+00  -0.7382127934E-05  -0.1799767319E-04   0.0000000000E+00  -0.1486400733E-02   0.2231862060E-03   0.5006891955E+01   0.8516083289E-01   0.8730488907E-01  -0.2945981707E-01   0.2373487245E-01   0.1139012540E-02
   0.0000000000E+00   0.0000000000E+00   0.9986194142E+00   0.0000000000E+00   0.0000000000E+00  -0.3832136889E-05   0.0000000000E+00   0.0000000000E+00  -0.1376753670E-02   0.4991338285E+01   0.6069292985E-01   0.1273264624E+00  -0.1212617788E-01   0.7433331281E-02   0.1758732774E-02
   0.1004891399E+01   0.0000000000E+00   0.9986248380E+00   0.5824820435E-04   0.0000000000E+00  -0.2482972541E-04   0.4833151013E-02   0.0000000000E+00  -0.1350332284E-02   0.5035550529E+01   0.6312424006E-01   0.2579643427E-01  -0.1737330465E-01  -0.1374400212E-01  -0.1542704189E-02
   0.1004827730E+01   0.9983635770E+00   0.9986227592E+00   0.2571236955E-04  -0.1021491686E-04  -0.1448895053E-04   0.4802017327E-02  -0.1626208050E-02  -0.1362751811E-02   0.5040233553E+01   0.6780726468E-01   0.1643038501E-01  -0.1337919479E-01  -0.1380625044E-01  -0.5643147094E-02
   0.0000000000E+00   0.9983224754E+00   0.9986299436E+00   0.0000000000E+00  -0.1037434547E-04   0.1406948702E-05   0.0000000000E+00  -0.1667150245E-02  -0.1371463352E-02   0.4987635014E+01   0.7835707388E-01   0.1133655885E+00  -0.1356864803E-01  -0.2243213120E-04  -0.1467349643E-01
   0.2010000000E+01   0.0000000000E+00   0.4099171991E-03   0.1000000000E-03   0.0000000000E+00   0.8317486776E-05   0.9900000000E-02   0.0000000000E+00   0.4015997124E-03   0.5022714213E+01   0.6793565218E-01  -0.2106513547E-01  -0.8842513188E-02   0.1764999533E-01   0.1780820190E-01
   0.2010000000E+01   0.9983867826E+00   0.5211555130E-03   0.1000000000E-03  -0.1405834480E-04   0.1148114316E-04   0.9900000000E-02  -0.1599159016E-02   0.5096743699E-03   0.5050555301E+01   0.6899918581E-01  -0.4996975795E-01  -0.4296248289E-02   0.2773776988E-01   0.2433092126E-01
   0.2010000000E+01   0.0000000000E+00   0.9987532558E+00   0.1000000000E-03   0.0000000000E+00  -0.3218972076E-04   0.9900000000E-02   0.0000000000E+00  -0.1214554453E-02   0.5052184254E+01   0.5972335103E-01  -0.4232287533E-01  -0.1253017273E-02   0.1580644535E-01   0.2824123834E-02
   0.2010000000E+01   0.9984778117E+00   0.9986797513E+00   0.1000000000E-03  -0.1651642187E-04  -0.3716254824E-04   0.9900000000E-02  -0.1505671922E-02  -0.1283086122E-02   0.5076418581E+01   0.6259026502E-01  -0.6942411746E-01   0.8177672596E-02   0.1772757104E-01   0.9346843196E-02
     1     2     3     4     5     6     7     8
     2     9    10     3     6    11    12     7
 VARIABLES = X,Y,Z,DU1,DU2,DU3,U1,U2,U3,S11,S22,S33,S12,S13,S23
 ZONE, T="0.1010D+01" F=FEPOINT, I=   12 J=    2 ET=BRICK
   0.0000000000E+00   0.0000000000E+00   0.0000000000E+00   0.0000000000E+00   0.0000000000E+00   0.0000000000E+00   0.0000000000E+00   0.0000000000E+00   0.0000000000E+00   0.5067111978E+01   0.7365286454E-01   0.1137414050E+00  -0.2618567308E-01   0.3700222190E-01   0.1567180554E-01
   0.1005173272E+01   0.0000000000E+00   0.3248803361E-03   0.5788242036E-04   0.0000000000E+00  -0.7077361767E-05   0.5115389535E-02   0.0000000000E+00   0.3319576979E-03   0.5085779900E+01   0.7250406433E-01   0.2658456689E-01  -0.3699418739E-01   0.3568472090E-02   0.5671866228E-02
   0.1005011792E+01   0.9983708524E+00   0.3083004793E-03   0.2483096886E-04  -0.1862872496E-04  -0.1081168997E-04   0.4986960621E-02  -0.1610518842E-02   0.3191121692E-03   0.5089449191E+01   0.7617335542E-01   0.1924598471E-01  -0.3906512359E-01   0.3939612667E-02   0.2065281172E-02
   0.0000000000E+00   0.9984962534E+00   0.1895137454E-03   0.0000000000E+00  -0.9963744793E-05  -0.1567478743E-04   0.0000000000E+00  -0.1493782861E-02   0.2051885328E-03   0.5052785601E+01   0.9424973785E-01   0.1074709085E+00  -0.3490971968E-01   0.2224574293E-01  -0.6422050107E-03
   0.0000000000E+00   0.0000000000E+00   0.9986128457E+00   0.0000000000E+00   0.0000000000E+00  -0.6568454070E-05   0.0000000000E+00   0.0000000000E+00  -0.1380585807E-02   0.5044360541E+01   0.6871457200E-01   0.1414311335E+00  -0.1642130510E-01   0.2915830825E-02   0.2238120632E-02
   0.1004949875E+01   0.0000000000E+00   0.9985995164E+00   0.5847589176E-04   0.0000000000E+00  -0.2532162976E-04   0.4891399218E-02   0.0000000000E+00  -0.1375162009E-02   0.5088184290E+01   0.6769528426E-01   0.2898895693E-01  -0.2572910268E-01  -0.1614413762E-01   0.1679295916E-03
   0.1004854805E+01   0.9983522328E+00   0.9986081363E+00   0.2707482336E-04  -0.1134427836E-04  -0.1462294042E-04   0.4827729697E-02  -0.1636422967E-02  -0.1377240761E-02   0.5091853581E+01   0.7136457534E-01   0.2165037475E-01  -0.2208297231E-01  -0.1613902541E-01  -0.3438655465E-02
   0.0000000000E+00   0.9983102845E+00   0.9986289584E+00   0.0000000000E+00  -0.1219089082E-04  -0.9852251894E-06   0.0000000000E+00  -0.1677524590E-02  -0.1370056404E-02   0.5033732843E+01   0.8746210608E-01   0.1333112978E+00  -0.1815499309E-01  -0.3544871493E-02  -0.1407588992E-01
   0.2010100000E+01   0.0000000000E+00   0.4177960803E-03   0.1000000000E-03   0.0000000000E+00   0.7878881148E-05   0.1000000000E-01   0.0000000000E+00   0.4099171991E-03   0.5076411966E+01   0.6993185003E-01  -0.3111300140E-01  -0.1287945157E-01   0.2057588685E-01   0.1783256413E-01
   0.2010100000E+01   0.9983719569E+00   0.5305286751E-03   0.1000000000E-03  -0.1482577811E-04   0.9373162068E-05   0.1000000000E-01  -0.1613217361E-02   0.5211555130E-03   0.5109625999E+01   0.6822263224E-01  -0.6261781596E-01  -0.8297277387E-02   0.3052662929E-01   0.2438682050E-01
   0.2010100000E+01   0.0000000000E+00   0.9987218704E+00   0.1000000000E-03   0.0000000000E+00  -0.3138545611E-04   0.1000000000E-01   0.0000000000E+00  -0.1246744174E-02   0.5105669905E+01   0.6185713699E-01  -0.5229622716E-01  -0.5661667802E-02   0.1523705849E-01   0.2934765738E-02
   0.2010100000E+01   0.9984597212E+00   0.9986436764E+00   0.1000000000E-03  -0.1809050352E-04  -0.3607491650E-04   0.1000000000E-01  -0.1522188344E-02  -0.1320248670E-02   0.5135185259E+01   0.6199725844E-01  -0.8195170250E-01   0.3364280925E-02   0.1615996756E-01   0.9489022106E-02
     1     2     3     4     5     6     7     8
     2     9    10     3     6    11    12     7
 VARIABLES = X,Y,Z,DU1,DU2,DU3,U1,U2,U3,S11,S22,S33,S12,S13,S23
 ZONE, T="0.1020D+01" F=FEPOINT, I=   12 J=    2 ET=BRICK
   0.0000000000E+00   0.0000000000E+00   0.0000000000E+00   0.0000000000E+00   0.0000000000E+00   0.0000000000E+00   0.0000000000E+00   0.0000000000E+00   0.0000000000E+00   0.5117408439E+01   0.7738463990E-01   0.1232411254E+00  -0.3052370370E-01   0.3457470988E-01   0.1431154383E-01
   0.1005230113E+01   0.0000000000E+00   0.3183382346E-03   0.5684071460E-04   0.0000000000E+00  -0.6542101513E-05   0.5173271955E-02   0.0000000000E+00   0.3248803361E-03   0.5137046109E+01   0.7365977336E-01   0.2777164077E-01  -0.4485524397E-01   0.3999920529E-02   0.5926751861E-02
   0.1005037815E+01   0.9983509770E+00   0.2979740567E-03   0.2602345420E-04  -0.1987547920E-04  -0.1032642258E-04   0.5011791590E-02  -0.1629147567E-02   0.3083004793E-03   0.5139692455E+01   0.7630611956E-01   0.2247894835E-01  -0.4714663976E-01   0.4775984282E-02   0.2816510850E-02
   0.0000000000E+00   0.9984834246E+00   0.1765220650E-03   0.0000000000E+00  -0.1282878603E-04  -0.1299168040E-04   0.0000000000E+00  -0.1503746606E-02   0.1895137454E-03   0.5096532201E+01   0.9907224968E-01   0.1224297527E+00  -0.3976548231E-01   0.2084248207E-01  -0.1816636316E-02
   0.0000000000E+00   0.0000000000E+00   0.9986032323E+00   0.0000000000E+00   0.0000000000E+00  -0.9613438313E-05   0.0000000000E+00   0.0000000000E+00  -0.1387154261E-02   0.5094873648E+01   0.7252385493E-01   0.1506367007E+00  -0.2035250995E-01  -0.8889603923E-03   0.3062052610E-02
   0.1005008423E+01   0.0000000000E+00   0.9985737352E+00   0.5854752404E-04   0.0000000000E+00  -0.2578111521E-04   0.4949875109E-02   0.0000000000E+00  -0.1400483639E-02   0.5139119602E+01   0.6951278534E-01   0.2984513477E-01  -0.3356193070E-01  -0.1794189157E-01   0.1957232549E-02
   0.1004883529E+01   0.9983396706E+00   0.9985932705E+00   0.2872409823E-04  -0.1256216940E-04  -0.1486579590E-04   0.4854804520E-02  -0.1647767245E-02  -0.1391863702E-02   0.5141765948E+01   0.7215913155E-01   0.2455244235E-01  -0.3019105848E-01  -0.1801056575E-01  -0.1153008462E-02
   0.0000000000E+00   0.9982960235E+00   0.9986251482E+00   0.0000000000E+00  -0.1426105099E-04  -0.3810139500E-05   0.0000000000E+00  -0.1689715481E-02  -0.1371041629E-02   0.5077751441E+01   0.9233444978E-01   0.1479483131E+00  -0.2223861774E-01  -0.6496478320E-02  -0.1306612753E-01
   0.2010200000E+01   0.0000000000E+00   0.4249740708E-03   0.1000000000E-03   0.0000000000E+00   0.7177990557E-05   0.1010000000E-01   0.0000000000E+00   0.4177960803E-03   0.5129387457E+01   0.7044011676E-01  -0.4090673249E-01  -0.1662293733E-01   0.2335549686E-01   0.1754069245E-01
   0.2010200000E+01   0.9983564841E+00   0.5374926519E-03   0.1000000000E-03  -0.1547273602E-04   0.6963976836E-05   0.1010000000E-01  -0.1628043139E-02   0.5305286751E-03   0.5167515650E+01   0.6600446313E-01  -0.7459927214E-01  -0.1196395030E-01   0.3300880738E-01   0.2406158498E-01
   0.2010200000E+01   0.0000000000E+00   0.9986914971E+00   0.1000000000E-03   0.0000000000E+00  -0.3037331377E-04   0.1010000000E-01   0.0000000000E+00  -0.1278129630E-02   0.5158327106E+01   0.6249118491E-01  -0.6189744939E-01  -0.9838549345E-02   0.1493554292E-01   0.2912249432E-02
   0.2010200000E+01   0.9984401924E+00   0.9986089634E+00   0.1000000000E-03  -0.1952875619E-04  -0.3471296389E-04   0.1010000000E-01  -0.1540278848E-02  -0.1356323587E-02   0.5192701269E+01   0.5993254621E-01  -0.9371297412E-01  -0.1210697103E-02   0.1477466771E-01   0.9433141961E-02
     1     2     3     4     5     6     7     8
     2     9    10     3     6    11    12     7
 VARIABLES = X,Y,Z,DU1,DU2,DU3,U1,U2,U3,S11,S22,S33,S12,S13,S23
 ZONE, T="0.1030D+01" F=FEPOINT, I=   12 J=    2 ET=BRICK
   0.0000000000E+00   0.0000000000E+00   0.0000000000E+00   0.0000000000E+00   0.0000000000E+00   0.0000000000E+00   0.0000000000E+00   0.0000000000E+00   0.0000000000E+00   0.5164957814E+01   0.7667787662E-01   0.1276661745E+00  -0.3436258857E-01   0.3251741772E-01   0.1351057652E-01
   0.1005285771E+01   0.0000000000E+00   0.3123888238E-03   0.5565819674E-04   0.0000000000E+00  -0.5949410815E-05   0.5230112670E-02   0.0000000000E+00   0.3183382346E-03   0.5186612747E+01   0.7206573164E-01   0.2662694557E-01  -0.5198242220E-01   0.4628497137E-02   0.6236781891E-02
   0.1005065304E+01   0.9983299112E+00   0.2881972504E-03   0.2748926645E-04  -0.2106580032E-04  -0.9776806270E-05   0.5037815044E-02  -0.1649023046E-02   0.2979740567E-03   0.5188239379E+01   0.7369236397E-01   0.2337368090E-01  -0.5436916302E-01   0.5567423250E-02   0.3618411982E-02
   0.0000000000E+00   0.9984675630E+00   0.1664526739E-03   0.0000000000E+00  -0.1586156535E-04  -0.1006939106E-04   0.0000000000E+00  -0.1516575392E-02   0.1765220650E-03   0.5138092226E+01   0.9940796868E-01   0.1318016703E+00  -0.4392733533E-01   0.1953364718E-01  -0.2367483756E-02
   0.0000000000E+00   0.0000000000E+00   0.9985903915E+00   0.0000000000E+00   0.0000000000E+00  -0.1284081724E-04   0.0000000000E+00   0.0000000000E+00  -0.1396767700E-02   0.5142748067E+01   0.7190469006E-01   0.1546491085E+00  -0.2384817871E-01  -0.3917971160E-02   0.4213278391E-02
   0.1005066912E+01   0.0000000000E+00   0.9985475719E+00   0.5848964140E-04   0.0000000000E+00  -0.2616332082E-04   0.5008422633E-02   0.0000000000E+00  -0.1426264754E-02   0.5188358327E+01   0.6857457176E-01   0.2837252551E-01  -0.4074850025E-01  -0.1910114239E-01   0.3796833388E-02
   0.1004914185E+01   0.9983258546E+00   0.9985780958E+00   0.3065645795E-04  -0.1381594582E-04  -0.1517465896E-04   0.4883528619E-02  -0.1660329414E-02  -0.1406729497E-02   0.5189984959E+01   0.7020120409E-01   0.2511926084E-01  -0.3756041340E-01  -0.1938180428E-01   0.1178463480E-02
   0.0000000000E+00   0.9982795309E+00   0.9986181977E+00   0.0000000000E+00  -0.1649255773E-04  -0.6950484852E-05   0.0000000000E+00  -0.1703976532E-02  -0.1374851768E-02   0.5119655208E+01   0.9274841751E-01   0.1568982397E+00  -0.2572806308E-01  -0.8824804007E-02  -0.1166478188E-01
   0.2010300000E+01   0.0000000000E+00   0.4311934509E-03   0.1000000000E-03   0.0000000000E+00   0.6219380004E-05   0.1020000000E-01   0.0000000000E+00   0.4249740708E-03   0.5181756006E+01   0.6965393668E-01  -0.5010095966E-01  -0.2000657592E-01   0.2593225797E-01   0.1692921712E-01
   0.2010300000E+01   0.9983404964E+00   0.5417768695E-03   0.1000000000E-03  -0.1598772415E-04   0.4284217607E-05   0.1020000000E-01  -0.1643515875E-02   0.5374926519E-03   0.5224270226E+01   0.6257247689E-01  -0.8553372000E-01  -0.1521531080E-01   0.3513478693E-01   0.2335046815E-01
   0.2010300000E+01   0.0000000000E+00   0.9986623245E+00   0.1000000000E-03   0.0000000000E+00  -0.2917255612E-04   0.1020000000E-01   0.0000000000E+00  -0.1308502944E-02   0.5210270293E+01   0.6181804426E-01  -0.7077935415E-01  -0.1371223570E-01   0.1490836780E-01   0.2753566836E-02
   0.2010300000E+01   0.9984193870E+00   0.9985758676E+00   0.1000000000E-03  -0.2080536021E-04  -0.3309581804E-04   0.1020000000E-01  -0.1559807604E-02  -0.1391036551E-02   0.5249011784E+01   0.5662294907E-01  -0.1043257499E+00  -0.5456177616E-02   0.1359478305E-01   0.9174817874E-02
     1     2     3     4     5     6     7     8
     2     9    10     3     6    11    12     7
 VARIABLES = X,Y,Z,DU1,DU2,DU3,U1,U2,U3,S11,S22,S33,S12,S13,S23
 ZONE, T="0.1040D+01" F=FEPOINT, I=   12 J=    2 ET=BRICK
   0.0000000000E+00   0.0000000000E+00   0.0000000000E+00   0.0000000000E+00   0.0000000000E+00   0.0000000000E+00   0.0000000000E+00   0.0000000000E+00   0.0000000000E+00   0.5209819822E+01   0.7156167823E-01   0.1270003421E+00  -0.3763966850E-01   0.3084333511E-01   0.1326544736E-01
   0.1005340158E+01   0.0000000000E+00   0.3070377515E-03   0.5438724390E-04   0.0000000000E+00  -0.5351072363E-05   0.5285770867E-02   0.0000000000E+00   0.3123888238E-03   0.5234576941E+01   0.6787039969E-01   0.2331554572E-01  -0.5827053892E-01   0.5435472962E-02   0.6587551566E-02
   0.1005094536E+01   0.9983077641E+00   0.2789817552E-03   0.2923147423E-04  -0.2214703396E-04  -0.9215495222E-05   0.5065304311E-02  -0.1670088846E-02   0.2881972504E-03   0.5235198202E+01   0.6849166096E-01   0.2207302318E-01  -0.6061468063E-01   0.6296240188E-02   0.4449357081E-02
   0.0000000000E+00   0.9984486207E+00   0.1594190503E-03   0.0000000000E+00  -0.1894236196E-04  -0.7033623602E-05   0.0000000000E+00  -0.1532436957E-02   0.1664526739E-03   0.5177605212E+01   0.9527346360E-01   0.1355031669E+00  -0.4731613718E-01   0.1832355865E-01  -0.2303483572E-02
   0.0000000000E+00   0.0000000000E+00   0.9985742708E+00   0.0000000000E+00   0.0000000000E+00  -0.1612067826E-04   0.0000000000E+00   0.0000000000E+00  -0.1409608517E-02   0.5188045956E+01   0.6687968037E-01   0.1534562061E+00  -0.2684839845E-01  -0.6133073632E-02   0.5660967073E-02
   0.1005125245E+01   0.0000000000E+00   0.9985211456E+00   0.5833320618E-04   0.0000000000E+00  -0.2642634811E-04   0.5066912275E-02   0.0000000000E+00  -0.1452428075E-02   0.5236002403E+01   0.6501947370E-01   0.2474100871E-01  -0.4718144860E-01  -0.1960548641E-01   0.5655659657E-02
   0.1004947051E+01   0.9983108007E+00   0.9985625883E+00   0.3286607654E-04  -0.1505391981E-04  -0.1550756639E-04   0.4914185076E-02  -0.1674145360E-02  -0.1421904156E-02   0.5236623664E+01   0.6564073497E-01   0.2349848616E-01  -0.4406958256E-01  -0.2022892542E-01   0.3517465172E-02
   0.0000000000E+00   0.9982607423E+00   0.9986079149E+00   0.0000000000E+00  -0.1878864076E-04  -0.1028287394E-04   0.0000000000E+00  -0.1720469090E-02  -0.1381802253E-02   0.5159586734E+01   0.8871377171E-01   0.1600813369E+00  -0.2855013872E-01  -0.1049605539E-01  -0.9907963860E-02
   0.2010400000E+01   0.0000000000E+00   0.4362095374E-03   0.1000000000E-03   0.0000000000E+00   0.5016086524E-05   0.1030000000E-01   0.0000000000E+00   0.4311934509E-03   0.5233643690E+01   0.6781806057E-01  -0.5831782167E-01  -0.2297501377E-01   0.2825734099E-01   0.1600021942E-01
   0.2010400000E+01   0.9983241303E+00   0.5431503705E-03   0.1000000000E-03  -0.1636611399E-04   0.1373500969E-05   0.1030000000E-01  -0.1659503599E-02   0.5417768695E-03   0.5279955491E+01   0.5820346564E-01  -0.9501502737E-01  -0.1798682852E-01   0.3686556977E-01   0.2225532007E-01
   0.2010400000E+01   0.0000000000E+00   0.9986345146E+00   0.1000000000E-03   0.0000000000E+00  -0.2780994992E-04   0.1030000000E-01   0.0000000000E+00  -0.1337675500E-02   0.5261626776E+01   0.6008161805E-01  -0.7856446549E-01  -0.1722118530E-01   0.1515183098E-01   0.2458914036E-02
   0.2010400000E+01   0.9983974855E+00   0.9985446166E+00   0.1000000000E-03  -0.2190149136E-04  -0.3125102925E-04   0.1030000000E-01  -0.1580612964E-02  -0.1424132369E-02   0.5304183189E+01   0.5234471716E-01  -0.1133839771E+00  -0.9295712958E-02   0.1263485260E-01   0.8714014689E-02
     1     2     3     4     5     6     7     8
     2     9    10     3     6    11    12     7
 VARIABLES = X,Y,Z,DU1,DU2,DU3,U1,U2,U3,S11,S22,S33,S12,S13,S23
 ZONE, T="0.1050D+01" F=FEPOINT, I=   12 J=    2 ET=BRICK
   0.0000000000E+00   0.0000000000E+00   0.0000000000E+00   0.0000000000E+00   0.0000000000E+00   0.0000000000E+00   0.0000000000E+00   0.0000000000E+00   0.0000000000E+00   0.5252240406E+01   0.6229599062E-01   0.1214956993E+00  -0.4030652657E-01   0.2955050503E-01   0.1354996288E-01
   0.1005393240E+01   0.0000000000E+00   0.3022429436E-03   0.5308210721E-04   0.0000000000E+00  -0.4794807855E-05   0.5340158111E-02   0.0000000000E+00   0.3070377515E-03   0.5281125722E+01   0.6135016455E-01   0.1814742129E-01  -0.6363387142E-01   0.6396821800E-02   0.6960494057E-02
   0.1005125786E+01   0.9982846923E+00   0.2702912147E-03   0.3124986723E-04  -0.2307177693E-04  -0.8690540483E-05   0.5094535785E-02  -0.1692235880E-02   0.2789817552E-03   0.5280765651E+01   0.6099009391E-01   0.1886756257E-01  -0.6579145843E-01   0.6946788229E-02   0.5283451020E-02
   0.0000000000E+00   0.9984266675E+00   0.1554107101E-03   0.0000000000E+00  -0.2195313978E-04  -0.4008340191E-05   0.0000000000E+00  -0.1551379319E-02   0.1594190503E-03   0.5215381728E+01   0.8691359510E-01   0.1337367730E+00  -0.4987490966E-01   0.1721266718E-01  -0.1657883916E-02
   0.0000000000E+00   0.0000000000E+00   0.9985549449E+00   0.0000000000E+00   0.0000000000E+00  -0.1932595127E-04   0.0000000000E+00   0.0000000000E+00  -0.1425729195E-02   0.5231014044E+01   0.5770132492E-01   0.1473167272E+00  -0.2930606479E-01  -0.7521455704E-02   0.7361697474E-02
   0.1005183357E+01   0.0000000000E+00   0.9984946112E+00   0.5811145434E-04   0.0000000000E+00  -0.2653433681E-04   0.5125245481E-02   0.0000000000E+00  -0.1478854423E-02   0.5282243750E+01   0.5911410717E-01   0.1926544998E-01  -0.5277112736E-01  -0.1945841227E-01   0.7500600016E-02
   0.1004982395E+01   0.9982945727E+00   0.9985467617E+00   0.3534378390E-04  -0.1622800506E-04  -0.1582652902E-04   0.4947051153E-02  -0.1689199280E-02  -0.1437411723E-02   0.5281883679E+01   0.5875403653E-01   0.1998559126E-01  -0.4962090497E-01  -0.2054377040E-01   0.5823556979E-02
   0.0000000000E+00   0.9982396894E+00   0.9985942309E+00   0.0000000000E+00  -0.2105284853E-04  -0.1368396902E-04   0.0000000000E+00  -0.1739257730E-02  -0.1392085127E-02   0.5197858655E+01   0.8046728466E-01   0.1577061561E+00  -0.3065145380E-01  -0.1149559754E-01  -0.7846149325E-02
   0.2010500000E+01   0.0000000000E+00   0.4397995694E-03   0.1000000000E-03   0.0000000000E+00   0.3590032074E-05   0.1040000000E-01   0.0000000000E+00   0.4362095374E-03   0.5285174340E+01   0.6521082580E-01  -0.6517064706E-01  -0.2548493363E-01   0.3029052868E-01   0.1476132990E-01
   0.2010500000E+01   0.9983075198E+00   0.5414307708E-03   0.1000000000E-03  -0.1661048071E-04  -0.1719599748E-05   0.1040000000E-01  -0.1675869713E-02   0.5431503705E-03   0.5334644905E+01   0.5320510746E-01  -0.1026354930E+00  -0.2023172456E-01   0.3817336517E-01   0.2078472126E-01
   0.2010500000E+01   0.0000000000E+00   0.9986081947E+00   0.1000000000E-03   0.0000000000E+00  -0.2631989515E-04   0.1040000000E-01   0.0000000000E+00  -0.1365485450E-02   0.5312523673E+01   0.5755955091E-01  -0.8486870467E-01  -0.2031484152E-01   0.1565202128E-01   0.2031766079E-02
   0.2010500000E+01   0.9983746796E+00   0.9985154019E+00   0.1000000000E-03  -0.2280592702E-04  -0.2921475039E-04   0.1040000000E-01  -0.1602514455E-02  -0.1455383398E-02   0.5358290947E+01   0.4740547732E-01  -0.1204819059E+00  -0.1266900774E-01   0.1190051264E-01   0.8055157445E-02
     1     2     3     4     5     6     7     8
     2     9    10     3     6    11    12     7
 VARIABLES = X,Y,Z,DU1,DU2,DU3,U1,U2,U3,S11,S22,S33,S12,S13,S23
 ZONE, T="0.1060D+01" F=FEPOINT, I=   12 J=    2 ET=BRICK
   0.0000000000E+00   0.0000000000E+00   0.0000000000E+00   0.0000000000E+00   0.0000000000E+00   0.0000000000E+00   0.0000000000E+00   0.0000000000E+00   0.0000000000E+00   0.5292633836E+01   0.4935020857E-01   0.1116471242E+00  -0.4232959433E-01   0.2862325270E-01   0.1431714274E-01
   0.1005445036E+01   0.0000000000E+00   0.2979215510E-03   0.5179612471E-04   0.0000000000E+00  -0.4321392600E-05   0.5393240218E-02   0.0000000000E+00   0.3022429436E-03   0.5326520735E+01   0.5288877321E-01   0.1155123605E-01  -0.6800724900E-01   0.7484178263E-02   0.7333691863E-02
   0.1005159325E+01   0.9982608920E+00   0.2620488398E-03   0.3353947560E-04  -0.2380029826E-04  -0.8242374941E-05   0.5125785652E-02  -0.1715307657E-02   0.2702912147E-03   0.5325211651E+01   0.5157968919E-01   0.1416940410E-01  -0.6983519404E-01   0.7505930180E-02   0.6091520946E-02
   0.0000000000E+00   0.9984018846E+00   0.1543009626E-03   0.0000000000E+00  -0.2478295316E-04  -0.1109747509E-05   0.0000000000E+00  -0.1573332459E-02   0.1554107101E-03   0.5251885013E+01   0.7478068818E-01   0.1269654671E+00  -0.5156953534E-01   0.1619811388E-01  -0.4862379213E-03
   0.0000000000E+00   0.0000000000E+00   0.9985326064E+00   0.0000000000E+00   0.0000000000E+00  -0.2233848076E-04   0.0000000000E+00   0.0000000000E+00  -0.1445055146E-02   0.5272065677E+01   0.4483090741E-01   0.1367345844E+00  -0.3118753934E-01  -0.8094977128E-02   0.9261074358E-02
   0.1005241215E+01   0.0000000000E+00   0.9984681512E+00   0.5785769000E-04   0.0000000000E+00  -0.2646007274E-04   0.5183356935E-02   0.0000000000E+00  -0.1505388760E-02   0.5327348849E+01   0.5123254532E-01   0.1237934999E-01  -0.5744681962E-01  -0.1868270306E-01   0.9297317900E-02
   0.1005020471E+01   0.9982772767E+00   0.9985306616E+00   0.3807584362E-04  -0.1729603262E-04  -0.1610017840E-04   0.4982394937E-02  -0.1705427285E-02  -0.1453238252E-02   0.5326039765E+01   0.4992346130E-01   0.1499751804E-01  -0.5414185162E-01  -0.2033364587E-01   0.8055146983E-02
   0.0000000000E+00   0.9982164958E+00   0.9985771946E+00   0.0000000000E+00  -0.2319362621E-04  -0.1703626782E-04   0.0000000000E+00  -0.1760310579E-02  -0.1405769096E-02   0.5234935198E+01   0.6845221505E-01   0.1502437553E+00  -0.3199918392E-01  -0.1182772672E-01  -0.5542306305E-02
   0.2010600000E+01   0.0000000000E+00   0.4417714744E-03   0.1000000000E-03   0.0000000000E+00   0.1971904954E-05   0.1050000000E-01   0.0000000000E+00   0.4397995694E-03   0.5336456508E+01   0.6212419578E-01  -0.7029038408E-01  -0.2750560159E-01   0.3200072302E-01   0.1322573942E-01
   0.2010600000E+01   0.9982907893E+00   0.5364926485E-03   0.1000000000E-03  -0.1673052099E-04  -0.4938122237E-05   0.1050000000E-01  -0.1692480194E-02   0.5414307708E-03   0.5388407274E+01   0.4789566006E-01  -0.1080126147E+00  -0.2192155066E-01   0.3904184976E-01   0.1895401146E-01
   0.2010600000E+01   0.0000000000E+00   0.9985834506E+00   0.1000000000E-03   0.0000000000E+00  -0.2474403833E-04   0.1050000000E-01   0.0000000000E+00  -0.1391805345E-02   0.5363074739E+01   0.5454335211E-01  -0.8932777184E-01  -0.2295431374E-01   0.1638519019E-01   0.1478891962E-02
   0.2010600000E+01   0.9983511644E+00   0.9984883705E+00   0.1000000000E-03  -0.2351523234E-04  -0.2703138869E-04   0.1050000000E-01  -0.1625320382E-02  -0.1484598149E-02   0.5411407161E+01   0.4212398836E-01  -0.1252408305E+00  -0.1553273316E-01   0.1138853826E-01   0.7207164006E-02
     1     2     3     4     5     6     7     8
     2     9    10     3     6    11    12     7
 VARIABLES = X,Y,Z,DU1,DU2,DU3,U1,U2,U3,S11,S22,S33,S12,S13,S23
 ZONE, T="0.1070D+01" F=FEPOINT, I=   12 J=    2 ET=BRICK
   0.0000000000E+00   0.0000000000E+00   0.0000000000E+00   0.0000000000E+00   0.0000000000E+00   0.0000000000E+00   0.0000000000E+00   0.0000000000E+00   0.0000000000E+00   0.5331555329E+01   0.3337110090E-01   0.9815430393E-01  -0.4369026675E-01   0.2803401525E-01   0.1550214048E-01
   0.1005495615E+01   0.0000000000E+00   0.2939591732E-03   0.5057904301E-04   0.0000000000E+00  -0.3962377762E-05   0.5445036343E-02   0.0000000000E+00   0.2979215510E-03   0.5371078828E+01   0.4295118410E-01   0.4041170349E-02  -0.7134652093E-01   0.8665968267E-02   0.7682918178E-02
   0.1005195414E+01   0.9982365896E+00   0.2541473970E-03   0.3608922474E-04  -0.2430245508E-04  -0.7901442796E-05   0.5159325128E-02  -0.1739107955E-02   0.2620488398E-03   0.5368859984E+01   0.4073234065E-01   0.8478857241E-02  -0.7270923271E-01   0.7963408611E-02   0.6842350191E-02
   0.0000000000E+00   0.9983745518E+00   0.1558599727E-03   0.0000000000E+00  -0.2733276771E-04   0.1559010112E-05   0.0000000000E+00  -0.1598115412E-02   0.1543009626E-03   0.5287703630E+01   0.5950320928E-01   0.1158738944E+00  -0.5238862754E-01   0.1527443200E-01   0.1136835915E-02
   0.0000000000E+00   0.0000000000E+00   0.9985075520E+00   0.0000000000E+00   0.0000000000E+00  -0.2505437390E-04   0.0000000000E+00   0.0000000000E+00  -0.1467393627E-02   0.5311753421E+01   0.2890674990E-01   0.1224205621E+00  -0.3247285588E-01  -0.7888581520E-02   0.1129588151E-01
   0.1005298818E+01   0.0000000000E+00   0.9984419642E+00   0.5760314204E-04   0.0000000000E+00  -0.2618696586E-04   0.5241214625E-02   0.0000000000E+00  -0.1531848833E-02   0.5371639206E+01   0.4183042678E-01   0.4601549007E-02  -0.6115737837E-01  -0.1731911461E-01   0.1101118335E-01
   0.1005061514E+01   0.9982590531E+00   0.9985143558E+00   0.4104285071E-04  -0.1822361245E-04  -0.1630581923E-04   0.5020470781E-02  -0.1722723318E-02  -0.1469338430E-02   0.5369420363E+01   0.3961158334E-01   0.9039235899E-02  -0.5758549206E-01  -0.1962056257E-01   0.1017061536E-01
   0.0000000000E+00   0.9981913674E+00   0.9985569614E+00   0.0000000000E+00  -0.2512841801E-04  -0.2023325075E-04   0.0000000000E+00  -0.1783504205E-02  -0.1422805364E-02   0.5271404752E+01   0.5328734359E-01   0.1383886378E+00  -0.3258107844E-01  -0.1151475223E-01  -0.3069423060E-02
   0.2010700000E+01   0.0000000000E+00   0.4419719520E-03   0.1000000000E-03   0.0000000000E+00   0.2004776457E-06   0.1060000000E-01   0.0000000000E+00   0.4417714744E-03   0.5387571443E+01   0.5884297950E-01  -0.7335279155E-01  -0.2901896792E-01   0.3336608657E-01   0.1141211830E-01
   0.2010700000E+01   0.9982740467E+00   0.5282748034E-03   0.1000000000E-03  -0.1674253759E-04  -0.8217845134E-05   0.1060000000E-01  -0.1709210715E-02   0.5364926485E-03   0.5441295190E+01   0.4258291868E-01  -0.1108164771E+00  -0.2304603068E-01   0.3946600643E-01   0.1678520660E-01
   0.2010700000E+01   0.0000000000E+00   0.9985603203E+00   0.1000000000E-03   0.0000000000E+00  -0.2313034335E-04   0.1060000000E-01   0.0000000000E+00  -0.1416549383E-02   0.5413368161E+01   0.5131770881E-01  -0.9162423883E-01  -0.2511263774E-01   0.1731851758E-01   0.8103059257E-03
   0.2010700000E+01   0.9983271309E+00   0.9984636178E+00   0.1000000000E-03  -0.2403350860E-04  -0.2475270162E-04   0.1060000000E-01  -0.1648835615E-02  -0.1511629537E-02   0.5463588878E+01   0.3680916268E-01  -0.1273364097E+00  -0.1786064256E-01   0.1108724830E-01   0.6183394225E-02
     1     2     3     4     5     6     7     8
     2     9    10     3     6    11    12     7
 VARIABLES = X,Y,Z,DU1,DU2,DU3,U1,U2,U3,S11,S22,S33,S12,S13,S23
 ZONE, T="0.1080D+01" F=FEPOINT, I=   12 J=    2 ET=BRICK
   0.0000000000E+00   0.0000000000E+00   0.0000000000E+00   0.0000000000E+00   0.0000000000E+00   0.0000000000E+00   0.0000000000E+00   0.0000000000E+00   0.0000000000E+00   0.5369666060E+01   0.1514229024E-01   0.8187392683E-01  -0.4438454909E-01   0.2774563255E-01   0.1702594570E-01
   0.1005545090E+01   0.0000000000E+00   0.2902206300E-03   0.4947458085E-04   0.0000000000E+00  -0.3738543222E-05   0.5495615386E-02   0.0000000000E+00   0.2939591732E-03   0.5415149948E+01   0.3205369060E-01  -0.3820732133E-02  -0.7362842290E-01   0.9908644097E-02   0.7982848617E-02
   0.1005234295E+01   0.9982120306E+00   0.2464607929E-03   0.3888081710E-04  -0.2455900547E-04  -0.7686604034E-05   0.5195414353E-02  -0.1763410410E-02   0.2541473970E-03   0.5412066325E+01   0.2897006807E-01   0.2346512934E-02  -0.7440388946E-01   0.8312097596E-02   0.7504088995E-02
   0.0000000000E+00   0.9983450324E+00   0.1597721645E-03   0.0000000000E+00  -0.2951946773E-04   0.3912191782E-05   0.0000000000E+00  -0.1625448180E-02   0.1558599727E-03   0.5323516950E+01   0.4184613513E-01   0.1013191914E+00  -0.5234261862E-01   0.1443433183E-01   0.3121722786E-02
   0.0000000000E+00   0.0000000000E+00   0.9984801636E+00   0.0000000000E+00   0.0000000000E+00  -0.2738836518E-04   0.0000000000E+00   0.0000000000E+00  -0.1492448001E-02   0.5350734088E+01   0.1070405292E-01   0.1052441353E+00  -0.3315549304E-01  -0.6957878337E-02   0.1339665553E-01
   0.1005356193E+01   0.0000000000E+00   0.9984162539E+00   0.5737499711E-04   0.0000000000E+00  -0.2571028342E-04   0.5298817767E-02   0.0000000000E+00  -0.1558035798E-02   0.5415469121E+01   0.3141534444E-01  -0.3501559052E-02  -0.6387130165E-01  -0.1542440946E-01   0.1260828242E-01
   0.1005105732E+01   0.9982400676E+00   0.9984979250E+00   0.4421883240E-04  -0.1898544943E-04  -0.1643077199E-04   0.5061513631E-02  -0.1740946930E-02  -0.1485644249E-02   0.5412385498E+01   0.2833172191E-01   0.2665686015E-02  -0.5993012287E-01  -0.1843995526E-01   0.1212952280E-01
   0.0000000000E+00   0.9981645803E+00   0.9985337777E+00   0.0000000000E+00  -0.2678709823E-04  -0.2318364286E-04   0.0000000000E+00  -0.1808632623E-02  -0.1443038615E-02   0.5307945296E+01   0.3572773931E-01   0.1230092414E+00  -0.3240474488E-01  -0.1059545571E-01  -0.5075673894E-03
   0.2010800000E+01   0.0000000000E+00   0.4402933230E-03   0.1000000000E-03   0.0000000000E+00  -0.1678629087E-05   0.1070000000E-01   0.0000000000E+00   0.4419719520E-03   0.5438563089E+01   0.5562475577E-01  -0.7410430883E-01  -0.3001934238E-01   0.3437383537E-01   0.9344439356E-02
   0.2010800000E+01   0.9982573782E+00   0.5167858413E-03   0.1000000000E-03  -0.1666850794E-04  -0.1148896212E-04   0.1070000000E-01  -0.1725953253E-02   0.5282748034E-03   0.5493335250E+01   0.3754396266E-01  -0.1107956769E+00  -0.2361220599E-01   0.3945156759E-01   0.1430679834E-01
   0.2010800000E+01   0.0000000000E+00   0.9985387886E+00   0.1000000000E-03   0.0000000000E+00  -0.2153163489E-04   0.1070000000E-01   0.0000000000E+00  -0.1439679726E-02   0.5463456303E+01   0.4814050784E-01  -0.9151327473E-01  -0.2677463145E-01   0.1841123914E-01   0.3915184763E-04
   0.2010800000E+01   0.9983027592E+00   0.9984411814E+00   0.1000000000E-03  -0.2437171615E-04  -0.2243635093E-04   0.1070000000E-01  -0.1672869123E-02  -0.1536382239E-02   0.5514868147E+01   0.3173987323E-01  -0.1265244843E+00  -0.1964302205E-01   0.1097724942E-01   0.5001510832E-02
     1     2     3     4     5     6     7     8
     2     9    10     3     6    11    12     7
 VARIABLES = X,Y,Z,DU1,DU2,DU3,U1,U2,U3,S11,S22,S33,S12,S13,S23
 ZONE, T="0.1090D+01" F=FEPOINT, I=   12 J=    2 ET=BRICK
   0.0000000000E+00   0.0000000000E+00   0.0000000000E+00   0.0000000000E+00   0.0000000000E+00   0.0000000000E+00   0.0000000000E+00   0.0000000000E+00   0.0000000000E+00   0.5407692807E+01  -0.4462087452E-02   0.6376523339E-01  -0.4442227669E-01   0.2771393989E-01   0.1879964314E-01
   0.1005593608E+01   0.0000000000E+00   0.2865614792E-03   0.4851835317E-04   0.0000000000E+00  -0.3659150779E-05   0.5545089966E-02   0.0000000000E+00   0.2902206300E-03   0.5459093874E+01   0.2073233435E-01  -0.1146404827E-01  -0.7484988589E-01   0.1117795253E-01   0.8208374375E-02
   0.1005276183E+01   0.9981874683E+00   0.2388564044E-03   0.4188792138E-04  -0.2456226167E-04  -0.7604388574E-05   0.5234295170E-02  -0.1787969416E-02   0.2464607929E-03   0.5455195151E+01   0.1683361159E-01  -0.3666602760E-02  -0.7493495662E-01   0.8548120420E-02   0.8045764849E-02
   0.0000000000E+00   0.9983137535E+00   0.1656568069E-03   0.0000000000E+00  -0.3127887722E-04   0.5884642373E-05   0.0000000000E+00  -0.1654967647E-02   0.1597721645E-03   0.5360055664E+01   0.2266558271E-01   0.8427470619E-01  -0.5146214442E-01   0.1366950720E-01   0.5368469131E-02
   0.0000000000E+00   0.0000000000E+00   0.9984508866E+00   0.0000000000E+00   0.0000000000E+00  -0.2927700422E-04   0.0000000000E+00   0.0000000000E+00  -0.1519836366E-02   0.5389728422E+01  -0.8911069388E-02   0.8617859947E-01  -0.3324174821E-01  -0.5376043380E-02   0.1549054446E-01
   0.1005413387E+01   0.0000000000E+00   0.9983912163E+00   0.5719471227E-04   0.0000000000E+00  -0.2503757610E-04   0.5356192764E-02   0.0000000000E+00  -0.1583746082E-02   0.5459202280E+01   0.2051552165E-01  -0.1135564192E-01  -0.6557628065E-01  -0.1306885311E-01   0.1405645851E-01
   0.1005153303E+01   0.9982205016E+00   0.9984814520E+00   0.4757062519E-04  -0.1956606106E-04  -0.1647294202E-04   0.5105732464E-02  -0.1759932380E-02  -0.1502075021E-02   0.5455303557E+01   0.1661679889E-01  -0.3558196409E-02  -0.6117812552E-01  -0.1683895645E-01   0.1389384898E-01
   0.0000000000E+00   0.9981364657E+00   0.9985079631E+00   0.0000000000E+00  -0.2811458191E-04  -0.2581460559E-04   0.0000000000E+00  -0.1835419721E-02  -0.1466222258E-02   0.5345284865E+01   0.1661980777E-01   0.1050912793E+00  -0.3149627756E-01  -0.9123021957E-02   0.2059370450E-02
   0.2010900000E+01   0.0000000000E+00   0.4366786390E-03   0.1000000000E-03   0.0000000000E+00  -0.3614684008E-05   0.1080000000E-01   0.0000000000E+00   0.4402933230E-03   0.5489430975E+01   0.5268197795E-01  -0.7238458556E-01  -0.3051268196E-01   0.3501971539E-01   0.7051702293E-02
   0.2010900000E+01   0.9982408435E+00   0.5021076010E-03   0.1000000000E-03  -0.1653478408E-04  -0.1467824028E-04   0.1080000000E-01  -0.1742621761E-02   0.5167858413E-03   0.5544520973E+01   0.3300716274E-01  -0.1077997683E+00  -0.2364295571E-01   0.3901410486E-01   0.1155343222E-01
   0.2010900000E+01   0.0000000000E+00   0.9985187850E+00   0.1000000000E-03   0.0000000000E+00  -0.2000367091E-04   0.1080000000E-01   0.0000000000E+00  -0.1461211361E-02   0.5513348322E+01   0.4522503444E-01  -0.8884498892E-01  -0.2793637896E-01   0.1961608739E-01  -0.8184814651E-03
   0.2010900000E+01   0.9982782125E+00   0.9984210374E+00   0.1000000000E-03  -0.2454661448E-04  -0.2014397065E-04   0.1080000000E-01  -0.1697240840E-02  -0.1558818590E-02   0.5565244734E+01   0.2714701224E-01  -0.1226633786E+00  -0.2088553936E-01   0.1103248027E-01   0.3683248465E-02
     1     2     3     4     5     6     7     8
     2     9    10     3     6    11    12     7
 VARIABLES = X,Y,Z,DU1,DU2,DU3,U1,U2,U3,S11,S22,S33,S12,S13,S23
 ZONE, T="0.1100D+01" F=FEPOINT, I=   12 J=    2 ET=BRICK
   0.0000000000E+00   0.0000000000E+00   0.0000000000E+00   0.0000000000E+00   0.0000000000E+00   0.0000000000E+00   0.0000000000E+00   0.0000000000E+00   0.0000000000E+00   0.5446384692E+01  -0.2452669846E-01   0.4483234088E-01  -0.4382596456E-01   0.2789049446E-01   0.2072898268E-01
   0.1005641345E+01   0.0000000000E+00   0.2828394676E-03   0.4773625444E-04   0.0000000000E+00  -0.3722011657E-05   0.5593608320E-02   0.0000000000E+00   0.2865614792E-03   0.5503257336E+01   0.9511653322E-02  -0.1834861089E-01  -0.7502685102E-01   0.1244016553E-01   0.8335942820E-02
   0.1005321259E+01   0.9981631523E+00   0.2312072882E-03   0.4507573427E-04  -0.2431607015E-04  -0.7649116170E-05   0.5276183091E-02  -0.1812531677E-02   0.2388564044E-03   0.5498597072E+01   0.4851390222E-02  -0.9028084693E-02  -0.7434150622E-01   0.8670824493E-02   0.8438809829E-02
   0.0000000000E+00   0.9982811858E+00   0.1730905044E-03   0.0000000000E+00  -0.3256768256E-04   0.7433697523E-05   0.0000000000E+00  -0.1686246525E-02   0.1656568069E-03   0.5398059682E+01   0.2860485577E-02   0.6577016662E-01  -0.4979582984E-01   0.1297140387E-01   0.7771764941E-02
   0.0000000000E+00   0.0000000000E+00   0.9984202061E+00   0.0000000000E+00   0.0000000000E+00  -0.3068054831E-04   0.0000000000E+00   0.0000000000E+00  -0.1549113371E-02   0.5429477922E+01  -0.2903053164E-01   0.6624294317E-01  -0.3274976208E-01  -0.3230211873E-02   0.1750430354E-01
   0.1005470464E+01   0.0000000000E+00   0.9983670281E+00   0.5707669515E-04   0.0000000000E+00  -0.2418829024E-04   0.5413387477E-02   0.0000000000E+00  -0.1608783658E-02   0.5503188757E+01   0.9648809333E-02  -0.1841718890E-01  -0.6627827503E-01  -0.1033329913E-01   0.1532633747E-01
   0.1005204361E+01   0.9982005417E+00   0.9984650114E+00   0.5105758822E-04  -0.1995988422E-04  -0.1644060561E-04   0.5153303089E-02  -0.1779498441E-02  -0.1518547963E-02   0.5498528494E+01   0.4988546234E-02  -0.9096662699E-02  -0.6135414992E-01  -0.1487431371E-01   0.1542920448E-01
   0.0000000000E+00   0.9981073932E+00   0.9984798894E+00   0.0000000000E+00  -0.2907251878E-04  -0.2807374362E-04   0.0000000000E+00  -0.1863534303E-02  -0.1492036863E-02   0.5384159443E+01  -0.3146612716E-02   0.8567750380E-01  -0.2989832316E-01  -0.7162555076E-02   0.4547085797E-02
   0.2011000000E+01   0.0000000000E+00   0.4311246446E-03   0.1000000000E-03   0.0000000000E+00  -0.5553994308E-05   0.1090000000E-01   0.0000000000E+00   0.4366786390E-03   0.5540126710E+01   0.5016757645E-01  -0.6814386499E-01  -0.3051554366E-01   0.3530720800E-01   0.4567558425E-02
   0.2011000000E+01   0.9982244730E+00   0.4843960370E-03   0.1000000000E-03  -0.1637049861E-04  -0.1771156396E-04   0.1090000000E-01  -0.1759156545E-02   0.5021076010E-03   0.5594809088E+01   0.2913776078E-01  -0.1017964275E+00  -0.2317498876E-01   0.3817782118E-01   0.8565462371E-02
   0.2011000000E+01   0.0000000000E+00   0.9985001821E+00   0.1000000000E-03   0.0000000000E+00  -0.1860283957E-04   0.1090000000E-01   0.0000000000E+00  -0.1481215032E-02   0.5563006355E+01   0.4272565791E-01  -0.8358159142E-01  -0.2860438949E-01   0.2088098501E-01  -0.1743814990E-02
   0.2011000000E+01   0.9982536332E+00   0.9984030986E+00   0.1000000000E-03  -0.2457938892E-04  -0.1793884334E-04   0.1090000000E-01  -0.1721787454E-02  -0.1578962560E-02   0.5614682203E+01   0.2319910736E-01  -0.1157308888E+00  -0.2160757819E-01   0.1122150372E-01   0.2254088956E-02
     1     2     3     4     5     6     7     8
     2     9    10     3     6    11    12     7
 VARIABLES = X,Y,Z,DU1,DU2,DU3,U1,U2,U3,S11,S22,S33,S12,S13,S23
 ZONE, T="0.1110D+01" F=FEPOINT, I=   12 J=    2 ET=BRICK
   0.0000000000E+00   0.0000000000E+00   0.0000000000E+00   0.0000000000E+00   0.0000000000E+00   0.0000000000E+00   0.0000000000E+00   0.0000000000E+00   0.0000000000E+00   0.5486469564E+01  -0.4414441250E-01   0.2606679267E-01  -0.4262935599E-01   0.2822527015E-01   0.2271900743E-01
   0.1005688488E+01   0.0000000000E+00   0.2789251398E-03   0.4714337528E-04   0.0000000000E+00  -0.3914327784E-05   0.5641344574E-02   0.0000000000E+00   0.2828394676E-03   0.5547952982E+01  -0.1124297010E-02  -0.2399977105E-01  -0.7419266885E-01   0.1366320875E-01   0.8344850695E-02
   0.1005369660E+01   0.9981393171E+00   0.2234034475E-03   0.4840096103E-04  -0.2383514726E-04  -0.7803840708E-05   0.5321258825E-02  -0.1836847748E-02   0.2312072882E-03   0.5542588023E+01  -0.6489255535E-02  -0.1326985400E-01  -0.7268312088E-01   0.8682612608E-02   0.8658521720E-02
   0.0000000000E+00   0.9982478216E+00   0.1816302751E-03   0.0000000000E+00  -0.3336421120E-04   0.8539770651E-05   0.0000000000E+00  -0.1718814207E-02   0.1730905044E-03   0.5438235907E+01  -0.1667585404E-01   0.4683189062E-01  -0.4740760224E-01   0.1233189581E-01   0.1022597979E-01
   0.0000000000E+00   0.0000000000E+00   0.9983886226E+00   0.0000000000E+00   0.0000000000E+00  -0.3158351898E-04   0.0000000000E+00   0.0000000000E+00  -0.1579793919E-02   0.5470701333E+01  -0.4875332502E-01   0.4644393541E-01  -0.3170825545E-01  -0.6175537293E-03   0.1936727718E-01
   0.1005527492E+01   0.0000000000E+00   0.9983438354E+00   0.5702741908E-04   0.0000000000E+00  -0.2319261281E-04   0.5470464172E-02   0.0000000000E+00  -0.1632971948E-02   0.5547743868E+01  -0.7060689761E-03  -0.2420888506E-01  -0.6600018516E-01  -0.7306004034E-02   0.1639228848E-01
   0.1005258992E+01   0.9981803709E+00   0.9984486600E+00   0.5463169572E-04  -0.2017079762E-04  -0.1635145662E-04   0.5204360677E-02  -0.1799458325E-02  -0.1534988569E-02   0.5542378909E+01  -0.6071027501E-02  -0.1347896801E-01  -0.6050274373E-01  -0.1261005270E-01   0.1670595951E-01
   0.0000000000E+00   0.9980777531E+00   0.9984499595E+00   0.0000000000E+00  -0.2964003031E-04  -0.2992988484E-04   0.0000000000E+00  -0.1892606822E-02  -0.1520110607E-02   0.5425270737E+01  -0.2268629653E-01   0.6580750339E-01  -0.2766769670E-01  -0.4788307491E-02   0.6874249542E-02
   0.2011100000E+01   0.0000000000E+00   0.4236823028E-03   0.1000000000E-03   0.0000000000E+00  -0.7442341819E-05   0.1100000000E-01   0.0000000000E+00   0.4311246446E-03   0.5590554526E+01   0.4816512164E-01  -0.6145376416E-01  -0.3005376685E-01   0.3524652032E-01   0.1929836830E-02
   0.2011100000E+01   0.9982082672E+00   0.4638793042E-03   0.1000000000E-03  -0.1620577357E-04  -0.2051673280E-04   0.1100000000E-01  -0.1775527043E-02   0.4843960370E-03   0.5644119696E+01   0.2602807694E-01  -0.9288188963E-01  -0.2225642464E-01   0.3697411246E-01   0.5388383428E-02
   0.2011100000E+01   0.0000000000E+00   0.9984827985E+00   0.1000000000E-03   0.0000000000E+00  -0.1738360809E-04   0.1100000000E-01   0.0000000000E+00  -0.1499817872E-02   0.5612345744E+01   0.4072805945E-01  -0.7580791955E-01  -0.2879448991E-01   0.2215091862E-01  -0.2715703554E-02
   0.2011100000E+01   0.9982291391E+00   0.9983872153E+00   0.1000000000E-03  -0.2449405617E-04  -0.1588331152E-04   0.1100000000E-01  -0.1746366843E-02  -0.1596901404E-02   0.5663107854E+01   0.1999254472E-01  -0.1058345150E+00  -0.2184016580E-01   0.1150898513E-01   0.7428430449E-03
     1     2     3     4     5     6     7     8
     2     9    10     3     6    11    12     7
 VARIABLES = X,Y,Z,DU1,DU2,DU3,U1,U2,U3,S11,S22,S33,S12,S13,S23
 ZONE, T="0.1120D+01" F=FEPOINT, I=   12 J=    2 ET=BRICK
   0.0000000000E+00   0.0000000000E+00   0.0000000000E+00   0.0000000000E+00   0.0000000000E+00   0.0000000000E+00   0.0000000000E+00   0.0000000000E+00   0.0000000000E+00   0.5528612496E+01  -0.6246302532E-01   0.8393612775E-02  -0.4087574805E-01   0.2866916681E-01   0.2467849453E-01
   0.1005735231E+01   0.0000000000E+00   0.2747109232E-03   0.4674349873E-04   0.0000000000E+00  -0.4214216619E-05   0.5688487949E-02   0.0000000000E+00   0.2789251398E-03   0.5593441489E+01  -0.1075693931E-01  -0.2803807831E-01  -0.7239617311E-01   0.1481763253E-01   0.8218418694E-02
   0.1005421472E+01   0.9981161733E+00   0.2153614225E-03   0.5181223988E-04  -0.2314383814E-04  -0.8042024961E-05   0.5369659786E-02  -0.1860682895E-02   0.2234034475E-03   0.5587431584E+01  -0.1676684393E-01  -0.1601826907E-01  -0.7003670396E-01   0.8588638002E-02   0.8685379855E-02
   0.0000000000E+00   0.9982141535E+00   0.1908359331E-03   0.0000000000E+00  -0.3366808498E-04   0.9205658042E-05   0.0000000000E+00  -0.1752178418E-02   0.1816302751E-03   0.5481218251E+01  -0.3510162975E-01   0.2842646201E-01  -0.4437367371E-01   0.1174382451E-01   0.1262998970E-01
   0.0000000000E+00   0.0000000000E+00   0.9983566286E+00   0.0000000000E+00   0.0000000000E+00  -0.3199395889E-04   0.0000000000E+00   0.0000000000E+00  -0.1611377438E-02   0.5514053282E+01  -0.6723192330E-01   0.2772172446E-01  -0.3015504812E-01   0.2358774076E-02   0.2101422137E-01
   0.1005584537E+01   0.0000000000E+00   0.9983217458E+00   0.5704501761E-04   0.0000000000E+00  -0.2208964485E-04   0.5527491591E-02   0.0000000000E+00  -0.1656164561E-02   0.5593130182E+01  -0.1013432443E-01  -0.2834938575E-01  -0.6478020145E-01  -0.4079318639E-02   0.1723327562E-01
   0.1005317230E+01   0.9981601598E+00   0.9984324290E+00   0.5823803245E-04  -0.2021112230E-04  -0.1623100494E-04   0.5258992373E-02  -0.1819629122E-02  -0.1551340026E-02   0.5587120277E+01  -0.1614422905E-01  -0.1632957651E-01  -0.5868556421E-01  -0.1011499540E-01   0.1770023678E-01
   0.0000000000E+00   0.9980479396E+00   0.9984185868E+00   0.0000000000E+00  -0.2981350475E-04  -0.3137266396E-04   0.0000000000E+00  -0.1922246852E-02  -0.1550040492E-02   0.5469246239E+01  -0.4116412882E-01   0.4646097261E-01  -0.2487267607E-01  -0.2080755915E-02   0.8965716534E-02
   0.2011200000E+01   0.0000000000E+00   0.4144547446E-03   0.1000000000E-03   0.0000000000E+00  -0.9227558254E-05   0.1110000000E-01   0.0000000000E+00   0.4236823028E-03   0.5640576034E+01   0.4668427744E-01  -0.5251045164E-01  -0.2916095779E-01   0.3485342366E-01  -0.8200246908E-03
   0.2011200000E+01   0.9981921973E+00   0.4408529455E-03   0.1000000000E-03  -0.1606984524E-04  -0.2302635872E-04   0.1110000000E-01  -0.1791732817E-02   0.4638793042E-03   0.5692340462E+01   0.2369306535E-01  -0.8128366785E-01  -0.2094409383E-01   0.3543997362E-01   0.2072143197E-02
   0.2011200000E+01   0.0000000000E+00   0.9984664026E+00   0.1000000000E-03   0.0000000000E+00  -0.1639587524E-04   0.1110000000E-01   0.0000000000E+00  -0.1517201480E-02   0.5661239472E+01   0.3924472616E-01  -0.6573433870E-01  -0.2853051767E-01   0.2336991405E-01  -0.3711026753E-02
   0.2011200000E+01   0.9982048233E+00   0.9983731792E+00   0.1000000000E-03  -0.2431575667E-04  -0.1403607534E-04   0.1110000000E-01  -0.1770860899E-02  -0.1612784715E-02   0.5710416698E+01   0.1754711516E-01  -0.9321395381E-01  -0.2162361526E-01   0.1185728724E-01  -0.8188588647E-03
     1     2     3     4     5     6     7     8
     2     9    10     3     6    11    12     7
 VARIABLES = X,Y,Z,DU1,DU2,DU3,U1,U2,U3,S11,S22,S33,S12,S13,S23
 ZONE, T="0.1130D+01" F=FEPOINT, I=   12 J=    2 ET=BRICK
   0.0000000000E+00   0.0000000000E+00   0.0000000000E+00   0.0000000000E+00   0.0000000000E+00   0.0000000000E+00   0.0000000000E+00   0.0000000000E+00   0.0000000000E+00   0.5573378658E+01  -0.7872681946E-01  -0.7376209368E-02  -0.3861617666E-01   0.2917620154E-01   0.2652398434E-01
   0.1005781761E+01   0.0000000000E+00   0.2701181356E-03   0.4652919220E-04   0.0000000000E+00  -0.4592787581E-05   0.5735231448E-02   0.0000000000E+00   0.2747109232E-03   0.5639917829E+01  -0.1905280681E-01  -0.3020162029E-01  -0.6969952525E-01   0.1587738300E-01   0.7944983591E-02
   0.1005476723E+01   0.9980938989E+00   0.2070316150E-03   0.5525101224E-04  -0.2227439950E-04  -0.8329807497E-05   0.5421472026E-02  -0.1883826733E-02   0.2153614225E-03   0.5633325445E+01  -0.2564519113E-01  -0.1701685166E-01  -0.6649302875E-01   0.8396378923E-02   0.8506145085E-02
   0.0000000000E+00   0.9981806547E+00   0.2002906022E-03   0.0000000000E+00  -0.3349882799E-04   0.9454669083E-05   0.0000000000E+00  -0.1785846503E-02   0.1908359331E-03   0.5527532079E+01  -0.5166737879E-01   0.1141092925E-01  -0.4077934125E-01   0.1120136933E-01   0.1489155419E-01
   0.0000000000E+00   0.0000000000E+00   0.9983246871E+00   0.0000000000E+00   0.0000000000E+00  -0.3194149662E-04   0.0000000000E+00   0.0000000000E+00  -0.1643371397E-02   0.5560087316E+01  -0.8371357863E-01   0.1090189175E-01  -0.2813543526E-01   0.5593607927E-02   0.2238783332E-01
   0.1005641656E+01   0.0000000000E+00   0.9983008208E+00   0.5711937732E-04   0.0000000000E+00  -0.2092503999E-04   0.5584536609E-02   0.0000000000E+00  -0.1678254206E-02   0.5639543721E+01  -0.1830459149E-01  -0.3057572795E-01  -0.6266991837E-01  -0.7464022090E-03   0.1783356007E-01
   0.1005379046E+01   0.9981400596E+00   0.9984163185E+00   0.6181569454E-04  -0.2010019307E-04  -0.1611045863E-04   0.5317230405E-02  -0.1839840245E-02  -0.1567571031E-02   0.5632951337E+01  -0.2489697580E-01  -0.1739095932E-01  -0.5597831926E-01  -0.7460244641E-02   0.1839472156E-01
   0.0000000000E+00   0.9980183341E+00   0.9983861758E+00   0.0000000000E+00  -0.2960551706E-04  -0.3241100650E-04   0.0000000000E+00  -0.1952060357E-02  -0.1581413156E-02   0.5516603739E+01  -0.5783563929E-01   0.2850752904E-01  -0.2159011101E-01   0.8763415321E-03   0.1075540317E-01
   0.2011300000E+01   0.0000000000E+00   0.4035926676E-03   0.1000000000E-03   0.0000000000E+00  -0.1086207701E-04   0.1120000000E-01   0.0000000000E+00   0.4144547446E-03   0.5690019040E+01   0.4566189087E-01  -0.4162975691E-01  -0.2787685389E-01   0.3414800752E-01  -0.3637637885E-02
   0.2011300000E+01   0.9981762081E+00   0.4156722527E-03   0.1000000000E-03  -0.1598922593E-04  -0.2518069282E-04   0.1120000000E-01  -0.1807802662E-02   0.4408529455E-03   0.5739334723E+01   0.2207155380E-01  -0.6735510274E-01  -0.1930069630E-01   0.3361632760E-01  -0.1329657207E-02
   0.2011300000E+01   0.0000000000E+00   0.9984507203E+00   0.1000000000E-03   0.0000000000E+00  -0.1568239251E-04   0.1120000000E-01   0.0000000000E+00  -0.1533597355E-02   0.5709526682E+01   0.3821605075E-01  -0.5369155839E-01  -0.2784288551E-01   0.2448303072E-01  -0.4705142264E-02
   0.2011300000E+01   0.9981807543E+00   0.9983607297E+00   0.1000000000E-03  -0.2406905038E-04  -0.1244954086E-04   0.1120000000E-01  -0.1795176656E-02  -0.1626820791E-02   0.5756479362E+01   0.1580721501E-01  -0.7823540288E-01  -0.2100501154E-01   0.1222810827E-01  -0.2397161586E-02
     1     2     3     4     5     6     7     8
     2     9    10     3     6    11    12     7
 VARIABLES = X,Y,Z,DU1,DU2,DU3,U1,U2,U3,S11,S22,S33,S12,S13,S23
 ZONE, T="0.1140D+01" F=FEPOINT, I=   12 J=    2 ET=BRICK
   0.0000000000E+00   0.0000000000E+00   0.0000000000E+00   0.0000000000E+00   0.0000000000E+00   0.0000000000E+00   0.0000000000E+00   0.0000000000E+00   0.0000000000E+00   0.5621202505E+01  -0.9231089143E-01  -0.2058439060E-01  -0.3590754425E-01   0.2970527747E-01   0.2818320603E-01
   0.1005828243E+01   0.0000000000E+00   0.2651015289E-03   0.4648248151E-04   0.0000000000E+00  -0.5016606742E-05   0.5781760640E-02   0.0000000000E+00   0.2701181356E-03   0.5687502419E+01  -0.2577683865E-01  -0.3035981250E-01  -0.6617592787E-01   0.1682034593E-01   0.7518654986E-02
   0.1005535376E+01   0.9980726339E+00   0.1984029253E-03   0.5865281785E-04  -0.2126493176E-04  -0.8628689742E-05   0.5476723038E-02  -0.1906101133E-02   0.2070316150E-03   0.5680392709E+01  -0.3288654886E-01  -0.1614039206E-01  -0.6215318810E-01   0.8115115960E-02   0.8114685518E-02
   0.0000000000E+00   0.9981477611E+00   0.2096183524E-03   0.0000000000E+00  -0.3289356201E-04   0.9327750224E-05   0.0000000000E+00  -0.1819345331E-02   0.2002906022E-03   0.5577564948E+01  -0.6574978201E-01  -0.3507943479E-02  -0.3671575358E-01   0.1070023045E-01   0.1693103769E-01
   0.0000000000E+00   0.0000000000E+00   0.9982932127E+00   0.0000000000E+00   0.0000000000E+00  -0.3147438832E-04   0.0000000000E+00   0.0000000000E+00  -0.1675312893E-02   0.5609225281E+01  -0.9757444822E-01  -0.3343610731E-02  -0.2570049713E-01   0.8983514912E-02   0.2344087487E-01
   0.1005698889E+01   0.0000000000E+00   0.9982810725E+00   0.5723272150E-04   0.0000000000E+00  -0.1974827478E-04   0.5641655986E-02   0.0000000000E+00  -0.1699179246E-02   0.5687105065E+01  -0.2498213127E-01  -0.3075716618E-01  -0.5973230275E-01   0.2601902567E-02   0.1818322031E-01
   0.1005444345E+01   0.9981201969E+00   0.9984002943E+00   0.6529907726E-04  -0.1986261605E-04  -0.1602425107E-04   0.5379046100E-02  -0.1859940438E-02  -0.1583681489E-02   0.5679995355E+01  -0.3209184149E-01  -0.1653774575E-01  -0.5246758662E-01  -0.4716742652E-02   0.1877925084E-01
   0.0000000000E+00   0.9979892911E+00   0.9983531052E+00   0.0000000000E+00  -0.2904298572E-04  -0.3307066800E-04   0.0000000000E+00  -0.1981665874E-02  -0.1613824162E-02   0.5567722157E+01  -0.7208055496E-01   0.1266562022E-01  -0.1790248414E-01   0.3998779544E-02   0.1218870654E-01
   0.2011400000E+01   0.0000000000E+00   0.3912873713E-03   0.1000000000E-03   0.0000000000E+00  -0.1230529629E-04   0.1130000000E-01   0.0000000000E+00   0.4035926676E-03   0.5738689976E+01   0.4496865282E-01  -0.2923431534E-01  -0.2624564552E-01   0.3315341732E-01  -0.6476402935E-02
   0.2011400000E+01   0.9981602221E+00   0.3887420410E-03   0.1000000000E-03  -0.1598602359E-04  -0.2693021163E-04   0.1130000000E-01  -0.1823791888E-02   0.4156722527E-03   0.5784953081E+01   0.2103309217E-01  -0.5156186001E-01  -0.1739195664E-01   0.3154635592E-01  -0.4760665466E-02
   0.2011400000E+01   0.0000000000E+00   0.9984354438E+00   0.1000000000E-03   0.0000000000E+00  -0.1527642113E-04   0.1130000000E-01   0.0000000000E+00  -0.1549279748E-02   0.5757024819E+01   0.3751696846E-01  -0.4011747463E-01  -0.2676709090E-01   0.2543829316E-01  -0.5672394944E-02
   0.2011400000E+01   0.9981569780E+00   0.9983495623E+00   0.1000000000E-03  -0.2377633299E-04  -0.1116738590E-04   0.1130000000E-01  -0.1819245706E-02  -0.1639270331E-02   0.5801153492E+01   0.1464862397E-01  -0.6137780313E-01  -0.2003567163E-01   0.1258408960E-01  -0.3956657476E-02
     1     2     3     4     5     6     7     8
     2     9    10     3     6    11    12     7
 VARIABLES = X,Y,Z,DU1,DU2,DU3,U1,U2,U3,S11,S22,S33,S12,S13,S23
 ZONE, T="0.1150D+01" F=FEPOINT, I=   12 J=    2 ET=BRICK
   0.0000000000E+00   0.0000000000E+00   0.0000000000E+00   0.0000000000E+00   0.0000000000E+00   0.0000000000E+00   0.0000000000E+00   0.0000000000E+00   0.0000000000E+00   0.5672364776E+01  -0.1027466868E+00  -0.3075339866E-01  -0.3281077005E-01   0.3022145870E-01   0.2959774944E-01
   0.1005874819E+01   0.0000000000E+00   0.2596511617E-03   0.4657606379E-04   0.0000000000E+00  -0.5450367149E-05   0.5828243122E-02   0.0000000000E+00   0.2651015289E-03   0.5736237516E+01  -0.3079881726E-01  -0.2851803891E-01  -0.6190730223E-01   0.1762865210E-01   0.6939797251E-02
   0.1005597325E+01   0.9980524768E+00   0.1895044752E-03   0.6194897143E-04  -0.2015710250E-04  -0.8898450128E-05   0.5535375856E-02  -0.1927366064E-02   0.1984029253E-03   0.5728678403E+01  -0.3835793011E-01  -0.1339981320E-01  -0.5712509919E-01   0.7755341768E-02   0.7512484875E-02
   0.0000000000E+00   0.9981158571E+00   0.2184981724E-03   0.0000000000E+00  -0.3190396567E-04   0.8879820030E-05   0.0000000000E+00  -0.1852238893E-02   0.2096183524E-03   0.5631545072E+01  -0.7687688651E-01  -0.1580349552E-01  -0.3227678648E-01   0.1023762152E-01   0.1868431379E-01
   0.0000000000E+00   0.0000000000E+00   0.9982625570E+00   0.0000000000E+00   0.0000000000E+00  -0.3065575440E-04   0.0000000000E+00   0.0000000000E+00  -0.1706787282E-02   0.5661734536E+01  -0.1083450025E+00  -0.1452484307E-01  -0.2290541631E-01   0.1243013363E-01   0.2413780087E-01
   0.1005756249E+01   0.0000000000E+00   0.9982624627E+00   0.5736065178E-04   0.0000000000E+00  -0.1860973662E-04   0.5698888707E-02   0.0000000000E+00  -0.1718927521E-02   0.5735855724E+01  -0.3003523375E-01  -0.2889983066E-01  -0.5603960435E-01   0.5879909761E-02   0.1827846653E-01
   0.1005512965E+01   0.9981006706E+00   0.9983842869E+00   0.6861951006E-04  -0.1952634232E-04  -0.1600739290E-04   0.5444345177E-02  -0.1879803054E-02  -0.1599705740E-02   0.5728296611E+01  -0.3759434661E-01  -0.1378160495E-01  -0.4824765550E-01  -0.1953002572E-02   0.1885115416E-01
   0.0000000000E+00   0.9979611264E+00   0.9983197141E+00   0.0000000000E+00  -0.2816471540E-04  -0.3339102873E-04   0.0000000000E+00  -0.2010708860E-02  -0.1646894830E-02   0.5622820133E+01  -0.8342785283E-01  -0.5275905412E-03  -0.1389505543E-01   0.7204516208E-02   0.1322436522E-01
   0.2011500000E+01   0.0000000000E+00   0.3777617741E-03   0.1000000000E-03   0.0000000000E+00  -0.1352559714E-04   0.1140000000E-01   0.0000000000E+00   0.3912873713E-03   0.5786389187E+01   0.4442086056E-01  -0.1583341784E-01  -0.2431433067E-01   0.3189464096E-01  -0.9288316641E-02
   0.2011500000E+01   0.9981441456E+00   0.3605042395E-03   0.1000000000E-03  -0.1607653161E-04  -0.2823780159E-04   0.1140000000E-01  -0.1839777912E-02   0.3887420410E-03   0.5829047760E+01   0.2038993023E-01  -0.3446106091E-01  -0.1528390818E-01   0.2927390565E-01  -0.8162768722E-02
   0.2011500000E+01   0.0000000000E+00   0.9984202440E+00   0.1000000000E-03   0.0000000000E+00  -0.1519978220E-04   0.1140000000E-01   0.0000000000E+00  -0.1564556169E-02   0.5803544685E+01   0.3696865930E-01  -0.2553671494E-01  -0.2534224050E-01   0.2618848135E-01  -0.6586673012E-02
   0.2011500000E+01   0.9981335215E+00   0.9983393398E+00   0.1000000000E-03  -0.2345648092E-04  -0.1022250050E-04   0.1140000000E-01  -0.1843022039E-02  -0.1650437717E-02   0.5844297957E+01   0.1389037958E-01  -0.4321170740E-01  -0.1876870368E-01   0.1289032228E-01  -0.5461125094E-02
     1     2     3     4     5     6     7     8
     2     9    10     3     6    11    12     7
 VARIABLES = X,Y,Z,DU1,DU2,DU3,U1,U2,U3,S11,S22,S33,S12,S13,S23
 ZONE, T="0.1160D+01" F=FEPOINT, I=   12 J=    2 ET=BRICK
   0.0000000000E+00   0.0000000000E+00   0.0000000000E+00   0.0000000000E+00   0.0000000000E+00   0.0000000000E+00   0.0000000000E+00   0.0000000000E+00   0.0000000000E+00   0.5726978342E+01  -0.1097377630E+00  -0.3760279127E-01  -0.2938903553E-01   0.3069671561E-01   0.3072488120E-01
   0.1005921594E+01   0.0000000000E+00   0.2537915860E-03   0.4677498963E-04   0.0000000000E+00  -0.5859575735E-05   0.5874819186E-02   0.0000000000E+00   0.2596511617E-03   0.5786088858E+01  -0.3409289445E-01  -0.2481317008E-01  -0.5698201781E-01   0.1828874892E-01   0.6215212612E-02
   0.1005662393E+01   0.9980334830E+00   0.1804043906E-03   0.6506855706E-04  -0.1899380913E-04  -0.9100084606E-05   0.5597324828E-02  -0.1947523167E-02   0.1895044752E-03   0.5778151176E+01  -0.4203057622E-01  -0.8937806524E-02  -0.5152020489E-01   0.7328137498E-02   0.6708807475E-02
   0.0000000000E+00   0.9980852644E+00   0.2266737390E-03   0.0000000000E+00  -0.3059270464E-04   0.8175566526E-05   0.0000000000E+00  -0.1884142859E-02   0.2184981724E-03   0.5689528488E+01  -0.8474378722E-01  -0.2514691342E-01  -0.2755615481E-01   0.9812083598E-02   0.2010474238E-01
   0.0000000000E+00   0.0000000000E+00   0.9982329977E+00   0.0000000000E+00   0.0000000000E+00  -0.2955926329E-04   0.0000000000E+00   0.0000000000E+00  -0.1737443036E-02   0.5717714020E+01  -0.1157257410E+00  -0.2235049161E-01  -0.1980786999E-01   0.1584299412E-01   0.2445583225E-01
   0.1005813723E+01   0.0000000000E+00   0.9982449049E+00   0.5747359085E-04   0.0000000000E+00  -0.1755782019E-04   0.5756249359E-02   0.0000000000E+00  -0.1737537257E-02   0.5785759795E+01  -0.3343476796E-01  -0.2514223332E-01  -0.5167129049E-01   0.9009541181E-02   0.1812173528E-01
   0.1005584672E+01   0.9980815499E+00   0.9983681940E+00   0.7170718015E-04  -0.1912069217E-04  -0.1609283373E-04   0.5512964687E-02  -0.1899329396E-02  -0.1615713133E-02   0.5777822113E+01  -0.4137244974E-01  -0.9266869766E-02  -0.4341752286E-01   0.7669007885E-03   0.1861533014E-01
   0.0000000000E+00   0.9979341079E+00   0.9982862928E+00   0.0000000000E+00  -0.2701849996E-04  -0.3342137639E-04   0.0000000000E+00  -0.2038873575E-02  -0.1680285859E-02   0.5681943347E+01  -0.9157135600E-01  -0.1073420456E-01  -0.9653210443E-02   0.1041596255E-01   0.1383569343E-01
   0.2011600000E+01   0.0000000000E+00   0.3632598939E-03   0.1000000000E-03   0.0000000000E+00  -0.1450188022E-04   0.1150000000E-01   0.0000000000E+00   0.3777617741E-03   0.5832928113E+01   0.4379644159E-01  -0.1996755127E-02  -0.2213117075E-01   0.3039740353E-01  -0.1202483601E-01
   0.2011600000E+01   0.9981278754E+00   0.3314238374E-03   0.1000000000E-03  -0.1627018424E-04  -0.2908040203E-04   0.1150000000E-01  -0.1855854443E-02   0.3605042395E-03   0.5871488776E+01   0.1991327484E-01  -0.1667425098E-01  -0.1304042563E-01   0.2684204032E-01  -0.1147715570E-01
   0.2011600000E+01   0.0000000000E+00   0.9984047826E+00   0.1000000000E-03   0.0000000000E+00  -0.1546143642E-04   0.1150000000E-01   0.0000000000E+00  -0.1579755951E-02   0.5848907407E+01   0.3635447490E-01  -0.1053408244E-01  -0.2360965404E-01   0.2669270956E-01  -0.7422000563E-02
   0.2011600000E+01   0.9981103977E+00   0.9983297043E+00   0.1000000000E-03  -0.2312381826E-04  -0.9635438917E-05   0.1150000000E-01  -0.1866478520E-02  -0.1660660218E-02   0.5885788888E+01   0.1331089895E-01  -0.2437198750E-01  -0.1725677833E-01   0.1311568795E-01  -0.6874320250E-02
     1     2     3     4     5     6     7     8
     2     9    10     3     6    11    12     7
 VARIABLES = X,Y,Z,DU1,DU2,DU3,U1,U2,U3,S11,S22,S33,S12,S13,S23
 ZONE, T="0.1170D+01" F=FEPOINT, I=   12 J=    2 ET=BRICK
   0.0000000000E+00   0.0000000000E+00   0.0000000000E+00   0.0000000000E+00   0.0000000000E+00   0.0000000000E+00   0.0000000000E+00   0.0000000000E+00   0.0000000000E+00   0.5784983369E+01  -0.1131654065E+00  -0.4105350535E-01  -0.2570618772E-01   0.3111014100E-01   0.3153845436E-01
   0.1005968633E+01   0.0000000000E+00   0.2475785118E-03   0.4703872221E-04   0.0000000000E+00  -0.6213074140E-05   0.5921594175E-02   0.0000000000E+00   0.2537915860E-03   0.5836952223E+01  -0.3573060413E-01  -0.1950058667E-01  -0.5149275098E-01   0.1879125826E-01   0.5358017557E-02
   0.1005730334E+01   0.9980156661E+00   0.1712058119E-03   0.6794065939E-04  -0.1781692539E-04  -0.9198578620E-05   0.5662393385E-02  -0.1966516976E-02   0.1804043906E-03   0.5828709860E+01  -0.4397296652E-01  -0.3015861883E-02  -0.4545049289E-01   0.6844552925E-02   0.5720512055E-02
   0.0000000000E+00   0.9980562349E+00   0.2339587147E-03   0.0000000000E+00  -0.2902955785E-04   0.7284975684E-05   0.0000000000E+00  -0.1914735564E-02   0.2266737390E-03   0.5751395370E+01  -0.8921839725E-01  -0.3141251601E-01  -0.2264487013E-01   0.9423145660E-02   0.2116416467E-01
   0.0000000000E+00   0.0000000000E+00   0.9982047332E+00   0.0000000000E+00   0.0000000000E+00  -0.2826453239E-04   0.0000000000E+00   0.0000000000E+00  -0.1767002299E-02   0.5777089665E+01  -0.1195928444E+00  -0.2673236386E-01  -0.1646655658E-01   0.1914172633E-01   0.2438544440E-01
   0.1005871261E+01   0.0000000000E+00   0.9982282687E+00   0.5753854839E-04   0.0000000000E+00  -0.1663621662E-04   0.5813722950E-02   0.0000000000E+00  -0.1755095077E-02   0.5836710559E+01  -0.3524727814E-01  -0.1974224966E-01  -0.4671207737E-01   0.1192230746E-01   0.1772156114E-01
   0.1005659165E+01   0.9980628755E+00   0.9983518850E+00   0.7449326946E-04  -0.1867446095E-04  -0.1630901170E-04   0.5584671867E-02  -0.1918450088E-02  -0.1631805967E-02   0.5828468197E+01  -0.4348964052E-01  -0.3257524882E-02  -0.3807815920E-01   0.3385011312E-02   0.1808405564E-01
   0.0000000000E+00   0.9979084499E+00   0.9982530758E+00   0.0000000000E+00  -0.2565797574E-04  -0.3321692515E-04   0.0000000000E+00  -0.2065892075E-02  -0.1713707235E-02   0.5744961008E+01  -0.9637550624E-01  -0.1782104564E-01  -0.5260115025E-02   0.1356187516E-01   0.1401115471E-01
   0.2011700000E+01   0.0000000000E+00   0.3480353793E-03   0.1000000000E-03   0.0000000000E+00  -0.1522451459E-04   0.1160000000E-01   0.0000000000E+00   0.3632598939E-03   0.5878147204E+01   0.4285408774E-01   0.1167631499E-01  -0.1974430640E-01   0.2868722062E-01  -0.1463778096E-01
   0.2011700000E+01   0.9981113064E+00   0.3019738397E-03   0.1000000000E-03  -0.1656895006E-04  -0.2944999771E-04   0.1160000000E-01  -0.1872124628E-02   0.3314238374E-03   0.5912180791E+01   0.1935266701E-01   0.1144148609E-02  -0.1072110782E-01   0.2429179194E-01  -0.1464543006E-01
   0.2011700000E+01   0.0000000000E+00   0.9983887259E+00   0.1000000000E-03   0.0000000000E+00  -0.1605669914E-04   0.1160000000E-01   0.0000000000E+00  -0.1595217387E-02   0.5892962200E+01   0.3543894057E-01   0.4276466026E-02  -0.2161160365E-01   0.2691773367E-01  -0.8153153785E-02
   0.2011700000E+01   0.9980876102E+00   0.9983202909E+00   0.1000000000E-03  -0.2278747564E-04  -0.9413489018E-05   0.1160000000E-01  -0.1889602338E-02  -0.1670295657E-02   0.5925536444E+01   0.1266719096E-01  -0.5526029241E-02  -0.1555020888E-01   0.1323397921E-01  -0.8160802885E-02
     1     2     3     4     5     6     7     8
     2     9    10     3     6    11    12     7
 VARIABLES = X,Y,Z,DU1,DU2,DU3,U1,U2,U3,S11,S22,S33,S12,S13,S23
 ZONE, T="0.1180D+01" F=FEPOINT, I=   12 J=    2 ET=BRICK
   0.0000000000E+00   0.0000000000E+00   0.0000000000E+00   0.0000000000E+00   0.0000000000E+00   0.0000000000E+00   0.0000000000E+00   0.0000000000E+00   0.0000000000E+00   0.5846151766E+01  -0.1130843305E+00  -0.4122047055E-01  -0.2182535010E-01   0.3144767083E-01   0.3202891292E-01
   0.1006015956E+01   0.0000000000E+00   0.2410932828E-03   0.4732346309E-04   0.0000000000E+00  -0.6485229069E-05   0.5968632897E-02   0.0000000000E+00   0.2475785118E-03   0.5888664242E+01  -0.3586816532E-01  -0.1293387334E-01  -0.4553453568E-01   0.1913065320E-01   0.4387220957E-02
   0.1005800831E+01   0.9979990008E+00   0.1620404780E-03   0.7049673699E-04  -0.1666526357E-04  -0.9165333973E-05   0.5730334044E-02  -0.1984333901E-02   0.1712058119E-03   0.5880194234E+01  -0.4433817303E-01   0.4006142089E-02  -0.3902592932E-01   0.6315027631E-02   0.4571524777E-02
   0.0000000000E+00   0.9980289474E+00   0.2402375758E-03   0.0000000000E+00  -0.2728746848E-04   0.6278861099E-05   0.0000000000E+00  -0.1943765121E-02   0.2339587147E-03   0.5816855433E+01  -0.9033752267E-01  -0.3467094523E-01  -0.1762912852E-01   0.9070868045E-02   0.2185291652E-01
   0.0000000000E+00   0.0000000000E+00   0.9981778807E+00   0.0000000000E+00   0.0000000000E+00  -0.2685251734E-04   0.0000000000E+00   0.0000000000E+00  -0.1795266832E-02   0.5839619088E+01  -0.1199939879E+00  -0.2777813510E-01  -0.1293990382E-01   0.2225760350E-01   0.2393027166E-01
   0.1005928783E+01   0.0000000000E+00   0.9982123871E+00   0.5752111576E-04   0.0000000000E+00  -0.1588156063E-04   0.5871261498E-02   0.0000000000E+00  -0.1771731294E-02   0.5888541373E+01  -0.3562242689E-01  -0.1305674255E-01  -0.4125011770E-01   0.1456076506E-01   0.1709223253E-01
   0.1005736077E+01   0.9980446612E+00   0.9983352073E+00   0.7691221651E-04  -0.1821422466E-04  -0.1667775028E-04   0.5659165137E-02  -0.1937124549E-02  -0.1648114979E-02   0.5880071365E+01  -0.4409243461E-01   0.3883272876E-02  -0.3233013588E-01   0.5850792499E-02   0.1727653635E-01
   0.0000000000E+00   0.9978843105E+00   0.9982202410E+00   0.0000000000E+00  -0.2413941724E-04  -0.3283482116E-04   0.0000000000E+00  -0.2091550051E-02  -0.1746924160E-02   0.5811571449E+01  -0.9787152748E-01  -0.2185295724E-01  -0.7947576058E-03   0.1657880033E-01   0.1375427525E-01
   0.2011800000E+01   0.0000000000E+00   0.3323397496E-03   0.1000000000E-03   0.0000000000E+00  -0.1569562970E-04   0.1170000000E-01   0.0000000000E+00   0.3480353793E-03   0.5921933299E+01   0.4135412040E-01   0.2459002197E-01  -0.1720058027E-01   0.2678864909E-01  -0.1708025787E-01
   0.2011800000E+01   0.9980943392E+00   0.2726199489E-03   0.1000000000E-03  -0.1696720695E-04  -0.2935389076E-04   0.1170000000E-01  -0.1888693578E-02   0.3019738397E-03   0.5951079412E+01   0.1845709260E-01   0.1834093658E-01  -0.8379589116E-02   0.2166115840E-01  -0.1761075218E-01
   0.2011800000E+01   0.0000000000E+00   0.9983717588E+00   0.1000000000E-03   0.0000000000E+00  -0.1696715792E-04   0.1170000000E-01   0.0000000000E+00  -0.1611274087E-02   0.5935603638E+01   0.3398845681E-01   0.1828534700E-01  -0.1939023294E-01   0.2683894014E-01  -0.8756286663E-02
   0.2011800000E+01   0.9980651590E+00   0.9983107404E+00   0.1000000000E-03  -0.2245118383E-04  -0.9550427636E-05   0.1170000000E-01  -0.1912389814E-02  -0.1679709146E-02   0.5963501056E+01   0.1171577646E-01   0.1266060906E-01  -0.1369541550E-01   0.1322475585E-01  -0.9286780974E-02
     1     2     3     4     5     6     7     8
     2     9    10     3     6    11    12     7
 VARIABLES = X,Y,Z,DU1,DU2,DU3,U1,U2,U3,S11,S22,S33,S12,S13,S23
 ZONE, T="0.1190D+01" F=FEPOINT, I=   12 J=    2 ET=BRICK
   0.0000000000E+00   0.0000000000E+00   0.0000000000E+00   0.0000000000E+00   0.0000000000E+00   0.0000000000E+00   0.0000000000E+00   0.0000000000E+00   0.0000000000E+00   0.5910100356E+01  -0.1097092317E+00  -0.3839458152E-01  -0.1780777632E-01   0.3170137379E-01   0.3220244169E-01
   0.1006063541E+01   0.0000000000E+00   0.2344356264E-03   0.4758462243E-04   0.0000000000E+00  -0.6657656312E-05   0.6015956360E-02   0.0000000000E+00   0.2410932828E-03   0.5941016584E+01  -0.3472921416E-01  -0.5538787862E-02  -0.3920305300E-01   0.1930479624E-01   0.3327027585E-02
   0.1005873504E+01   0.9979834280E+00   0.1530603747E-03   0.7267303448E-04  -0.1557286399E-04  -0.8980103229E-05   0.5800830781E-02  -0.2000999165E-02   0.1620404780E-03   0.5932399103E+01  -0.4334669474E-01   0.1169617329E-01  -0.3235237471E-01   0.5748888615E-02   0.3291998860E-02
   0.0000000000E+00   0.9980035087E+00   0.2454622262E-03   0.0000000000E+00  -0.2543873961E-04   0.5224650404E-05   0.0000000000E+00  -0.1971052590E-02   0.2402375758E-03   0.5885461857E+01  -0.8829399955E-01  -0.3517131537E-01  -0.1258868648E-01   0.8755313685E-02   0.2217891310E-01
   0.0000000000E+00   0.0000000000E+00   0.9981524795E+00   0.0000000000E+00   0.0000000000E+00  -0.2540114704E-04   0.0000000000E+00   0.0000000000E+00  -0.1822119349E-02   0.5904905013E+01  -0.1171350888E+00  -0.2577338145E-01  -0.9284992875E-02   0.2513440387E-01   0.2310645870E-01
   0.1005986170E+01   0.0000000000E+00   0.9981970656E+00   0.5738758299E-04   0.0000000000E+00  -0.1532157211E-04   0.5928782614E-02   0.0000000000E+00  -0.1787612855E-02   0.5941039936E+01  -0.3477591913E-01  -0.5515435378E-02  -0.3537539020E-01   0.1687942286E-01   0.1625324845E-01
   0.1005814981E+01   0.9980268983E+00   0.9983179946E+00   0.7890400611E-04  -0.1776294380E-04  -0.1721263307E-04   0.5736077353E-02  -0.1955338774E-02  -0.1664792729E-02   0.5932422455E+01  -0.4339339970E-01   0.1171952577E-01  -0.2627167986E-01   0.8122019181E-02   0.1621821972E-01
   0.0000000000E+00   0.9978617919E+00   0.9981879106E+00   0.0000000000E+00  -0.2251865987E-04  -0.3233037059E-04   0.0000000000E+00  -0.2115689468E-02  -0.1779758981E-02   0.5881316268E+01  -0.9624473352E-01  -0.2307499216E-01   0.3669564661E-02   0.1941204341E-01   0.1308293011E-01
   0.2011900000E+01   0.0000000000E+00   0.3164110257E-03   0.1000000000E-03   0.0000000000E+00  -0.1592872394E-04   0.1180000000E-01   0.0000000000E+00   0.3323397496E-03   0.5964235232E+01   0.3907957713E-01   0.3618581199E-01  -0.1454459926E-01   0.2472476173E-01  -0.1930758403E-01
   0.2011900000E+01   0.9980768871E+00   0.2438057232E-03   0.1000000000E-03  -0.1745211057E-04  -0.2881422571E-04   0.1180000000E-01  -0.1905660785E-02   0.2726199489E-03   0.5988205696E+01   0.1699631146E-01   0.3429861293E-01  -0.6062332540E-02   0.1898437599E-01  -0.2031898417E-01
   0.2011900000E+01   0.0000000000E+00   0.9983535974E+00   0.1000000000E-03   0.0000000000E+00  -0.1816131616E-04   0.1180000000E-01   0.0000000000E+00  -0.1628241244E-02   0.5976787193E+01   0.3179219593E-01   0.3092123108E-01  -0.1698668769E-01   0.2644098489E-01  -0.9209550724E-02
   0.2011900000E+01   0.9980430455E+00   0.9983007134E+00   0.1000000000E-03  -0.2211351371E-04  -0.1002698667E-04   0.1180000000E-01  -0.1934840998E-02  -0.1689259573E-02   0.5999707904E+01   0.1023380712E-01   0.2955890888E-01  -0.1173382456E-01   0.1307390739E-01  -0.1022095087E-01
     1     2     3     4     5     6     7     8
     2     9    10     3     6    11    12     7
 VARIABLES = X,Y,Z,DU1,DU2,DU3,U1,U2,U3,S11,S22,S33,S12,S13,S23
 ZONE, T="0.1200D+01" F=FEPOINT, I=   12 J=    2 ET=BRICK
   0.0000000000E+00   0.0000000000E+00   0.0000000000E+00   0.0000000000E+00   0.0000000000E+00   0.0000000000E+00   0.0000000000E+00   0.0000000000E+00   0.0000000000E+00   0.5976311763E+01  -0.1033934674E+00  -0.3301562943E-01  -0.1371196627E-01   0.3186839717E-01   0.3207935544E-01
   0.1006111320E+01   0.0000000000E+00   0.2277152475E-03   0.4777930566E-04   0.0000000000E+00  -0.6720378985E-05   0.6063540983E-02   0.0000000000E+00   0.2344356264E-03   0.5993772401E+01  -0.3258434942E-01   0.2216572907E-02  -0.3259318895E-01   0.1931438831E-01   0.2205904237E-02
   0.1005947917E+01   0.9979688603E+00   0.1444280527E-03   0.7441292595E-04  -0.1456769646E-04  -0.8632322003E-05   0.5873503816E-02  -0.2016572029E-02   0.1530603747E-03   0.5985090602E+01  -0.4126614801E-01   0.1958017010E-01  -0.2553002009E-01   0.5153955434E-02   0.1917203439E-02
   0.0000000000E+00   0.9979799571E+00   0.2496448816E-03   0.0000000000E+00  -0.2355157315E-04   0.4182655444E-05   0.0000000000E+00  -0.1996491330E-02   0.2454622262E-03   0.5956632752E+01  -0.8341612160E-01  -0.3331396390E-01  -0.7595753244E-02   0.8475996654E-02   0.2216590510E-01
   0.0000000000E+00   0.0000000000E+00   0.9981284981E+00   0.0000000000E+00   0.0000000000E+00  -0.2398143299E-04   0.0000000000E+00   0.0000000000E+00  -0.1847520496E-02   0.5972416411E+01  -0.1113592418E+00  -0.2115450316E-01  -0.5556718328E-02   0.2772861039E-01   0.2194151530E-01
   0.1006043277E+01   0.0000000000E+00   0.9981820918E+00   0.5710706503E-04   0.0000000000E+00  -0.1497379163E-04   0.5986170197E-02   0.0000000000E+00  -0.1802934427E-02   0.5993964868E+01  -0.3296928381E-01   0.2409040106E-02  -0.2917831989E-01   0.1884509955E-01   0.1522860214E-01
   0.1005895398E+01   0.9980095593E+00   0.9983000767E+00   0.8041638548E-04  -0.1733893885E-04  -0.1791795148E-04   0.5814981359E-02  -0.1973101718E-02  -0.1682005362E-02   0.5985283069E+01  -0.4165108241E-01   0.1977263730E-01  -0.1999719344E-01   0.1016525144E-01   0.1493990134E-01
   0.0000000000E+00   0.9978409436E+00   0.9981561569E+00   0.0000000000E+00  -0.2084831529E-04  -0.3175369970E-04   0.0000000000E+00  -0.2138208128E-02  -0.1812089352E-02   0.5953602007E+01  -0.9181419980E-01  -0.2188514141E-01   0.8066286539E-02   0.2201616285E-01   0.1202806496E-01
   0.2012000000E+01   0.0000000000E+00   0.3004634172E-03   0.1000000000E-03   0.0000000000E+00  -0.1594760843E-04   0.1190000000E-01   0.0000000000E+00   0.3164110257E-03   0.6005076434E+01   0.3585598675E-01   0.4597416217E-01  -0.1181805451E-01   0.2251685754E-01  -0.2127819209E-01
   0.2012000000E+01   0.9980588827E+00   0.2159389358E-03   0.1000000000E-03  -0.1800443498E-04  -0.2786678742E-04   0.1190000000E-01  -0.1923112895E-02   0.2438057232E-03   0.6023657672E+01   0.1478086803E-01   0.4846804249E-01  -0.3807929828E-02   0.1629148098E-01  -0.2271981184E-01
   0.2012000000E+01   0.0000000000E+00   0.9983340015E+00   0.1000000000E-03   0.0000000000E+00  -0.1959594075E-04   0.1190000000E-01   0.0000000000E+00  -0.1646402561E-02   0.6016541832E+01   0.2868166772E-01   0.4168308264E-01  -0.1444047565E-01   0.2571806679E-01  -0.9493692572E-02
   0.2012000000E+01   0.9980212769E+00   0.9982899014E+00   0.1000000000E-03  -0.2176854265E-04  -0.1081200983E-04   0.1190000000E-01  -0.1956954511E-02  -0.1699286560E-02   0.6034258463E+01   0.8038852778E-02   0.4460926673E-01  -0.9701227625E-02   0.1277390679E-01  -0.1093531232E-01
     1     2     3     4     5     6     7     8
     2     9    10     3     6    11    12     7
 VARIABLES = X,Y,Z,DU1,DU2,DU3,U1,U2,U3,S11,S22,S33,S12,S13,S23
 ZONE, T="0.1210D+01" F=FEPOINT, I=   12 J=    2 ET=BRICK
   0.0000000000E+00   0.0000000000E+00   0.0000000000E+00   0.0000000000E+00   0.0000000000E+00   0.0000000000E+00   0.0000000000E+00   0.0000000000E+00   0.0000000000E+00   0.6044161641E+01  -0.9460149522E-01  -0.2563823528E-01  -0.9593048435E-02   0.3194967374E-01   0.3169185811E-01
   0.1006159189E+01   0.0000000000E+00   0.2210428852E-03   0.4786868935E-04   0.0000000000E+00  -0.6672362225E-05   0.6111320289E-02   0.0000000000E+00   0.2277152475E-03   0.6046683870E+01  -0.2972901882E-01   0.9853310570E-02  -0.2579787201E-01   0.1916238015E-01   0.1055456797E-02
   0.1006023586E+01   0.9979551894E+00   0.1363062798E-03   0.7566908375E-04  -0.1367082748E-04  -0.8121772917E-05   0.5947916742E-02  -0.2031139725E-02   0.1444280527E-03   0.6038023558E+01  -0.3838933051E-01   0.2717393396E-01  -0.1865234947E-01   0.4536277599E-02   0.4861967413E-03
   0.0000000000E+00   0.9979582700E+00   0.2528478947E-03   0.0000000000E+00  -0.2168711923E-04   0.3203013061E-05   0.0000000000E+00  -0.2020042903E-02   0.2496448816E-03   0.6029678781E+01  -0.7614096059E-01  -0.2961591049E-01  -0.2714399327E-02   0.8231358713E-02   0.2185104553E-01
   0.0000000000E+00   0.0000000000E+00   0.9981058438E+00   0.0000000000E+00   0.0000000000E+00  -0.2265424201E-04   0.0000000000E+00   0.0000000000E+00  -0.1871501929E-02   0.6041515970E+01  -0.1031194722E+00  -0.1447458713E-01  -0.1807189259E-02   0.3000900132E-01   0.2047275319E-01
   0.1006099931E+01   0.0000000000E+00   0.9981672468E+00   0.5665352412E-04   0.0000000000E+00  -0.1484496779E-04   0.6043277262E-02   0.0000000000E+00  -0.1817908218E-02   0.6047063377E+01  -0.3048803223E-01   0.1023281727E-01  -0.2274864235E-01   0.2043675926E-01   0.1404592434E-01
   0.1005976805E+01   0.9979926041E+00   0.9982812884E+00   0.8140690601E-04  -0.1695528120E-04  -0.1878827846E-04   0.5895397745E-02  -0.1990440657E-02  -0.1699923313E-02   0.6038403065E+01  -0.3914834392E-01   0.2755344066E-01  -0.1359624752E-01   0.1195590288E-01   0.1347666428E-01
   0.0000000000E+00   0.9978217681E+00   0.9981250099E+00   0.0000000000E+00  -0.1917541825E-04  -0.3114701894E-04   0.0000000000E+00  -0.2159056443E-02  -0.1843843052E-02   0.6027728015E+01  -0.8500639001E-01  -0.1879971475E-01   0.1233613998E-01   0.2435501225E-01   0.1063194061E-01
   0.2012100000E+01   0.0000000000E+00   0.2846786692E-03   0.1000000000E-03   0.0000000000E+00  -0.1578474808E-04   0.1200000000E-01   0.0000000000E+00   0.3004634172E-03   0.6044563533E+01   0.3156838470E-01   0.5356249593E-01  -0.9059301535E-02   0.2018440585E-01  -0.2295449309E-01
   0.2012100000E+01   0.9980402828E+00   0.1893797989E-03   0.1000000000E-03  -0.1859983263E-04  -0.2655913687E-04   0.1200000000E-01  -0.1941117330E-02   0.2159389358E-03   0.6057617875E+01   0.1167933308E-01   0.6039720512E-01  -0.1646905556E-02   0.1360815852E-01  -0.2476781632E-01
   0.2012100000E+01   0.0000000000E+00   0.9983127835E+00   0.1000000000E-03   0.0000000000E+00  -0.2121804670E-04   0.1200000000E-01   0.0000000000E+00  -0.1665998501E-02   0.6054978628E+01   0.2454751396E-01   0.5016827165E-01  -0.1178905863E-01   0.2467383649E-01  -0.9592612681E-02
   0.2012100000E+01   0.9979998700E+00   0.9982780372E+00   0.1000000000E-03  -0.2140689657E-04  -0.1186423546E-04   0.1200000000E-01  -0.1978723054E-02  -0.1710098570E-02   0.6067338065E+01   0.5005914757E-02   0.5735043326E-01  -0.7627598213E-02   0.1232375554E-01  -0.1140593591E-01
     1     2     3     4     5     6     7     8
     2     9    10     3     6    11    12     7
 VARIABLES = X,Y,Z,DU1,DU2,DU3,U1,U2,U3,S11,S22,S33,S12,S13,S23
 ZONE, T="0.1220D+01" F=FEPOINT, I=   12 J=    2 ET=BRICK
   0.0000000000E+00   0.0000000000E+00   0.0000000000E+00   0.0000000000E+00   0.0000000000E+00   0.0000000000E+00   0.0000000000E+00   0.0000000000E+00   0.0000000000E+00   0.6112950557E+01  -0.8387698239E-01  -0.1689312690E-01  -0.5502417332E-02   0.3194850339E-01   0.3108132958E-01
   0.1006207009E+01   0.0000000000E+00   0.2145214748E-03   0.4782016618E-04   0.0000000000E+00  -0.6521410428E-05   0.6159188978E-02   0.0000000000E+00   0.2210428852E-03   0.6099509597E+01  -0.2646130966E-01   0.1691283456E-01  -0.1890718491E-01   0.1885339687E-01  -0.9082522587E-04
   0.1006099991E+01   0.9979422934E+00   0.1288477188E-03   0.7640537277E-04  -0.1289607405E-04  -0.7458561024E-05   0.6023585825E-02  -0.2044810553E-02   0.1363062798E-03   0.6090958697E+01  -0.3501220960E-01   0.3401463442E-01  -0.1180560588E-01   0.3900020879E-02  -0.9596521098E-03
   0.0000000000E+00   0.9979383728E+00   0.2551713291E-03   0.0000000000E+00  -0.1989716440E-04   0.2323434453E-05   0.0000000000E+00  -0.2041730022E-02   0.2528478947E-03   0.6103835334E+01  -0.6698344166E-01  -0.2467144473E-01   0.1999547445E-02   0.8018321831E-02   0.2128193592E-01
   0.0000000000E+00   0.0000000000E+00   0.9980843760E+00   0.0000000000E+00   0.0000000000E+00  -0.2146787259E-04   0.0000000000E+00   0.0000000000E+00  -0.1894156171E-02   0.6111492208E+01  -0.9294720145E-01  -0.6364558617E-02   0.1914637175E-02   0.3195571225E-01   0.1874540030E-01
   0.1006155938E+01   0.0000000000E+00   0.9981523157E+00   0.5600757974E-04   0.0000000000E+00  -0.1493111009E-04   0.6099930786E-02   0.0000000000E+00  -0.1832753186E-02   0.6100088815E+01  -0.2761974551E-01   0.1749205248E-01  -0.1617450858E-01   0.2164487640E-01   0.1273552467E-01
   0.1006058649E+01   0.9979759844E+00   0.9982614797E+00   0.8184469573E-04  -0.1661961328E-04  -0.1980867893E-04   0.5976804651E-02  -0.2007395938E-02  -0.1718711592E-02   0.6091537915E+01  -0.3617064544E-01   0.3459385234E-01  -0.7153029101E-02   0.1347793445E-01   0.1186669779E-01
   0.0000000000E+00   0.9978042285E+00   0.9980944673E+00   0.0000000000E+00  -0.1753961030E-04  -0.3054261715E-04   0.0000000000E+00  -0.2178231862E-02  -0.1874990071E-02   0.6102918835E+01  -0.7632458597E-01  -0.1441380170E-01   0.1642726818E-01   0.2640137547E-01   0.8946006634E-02
   0.2012200000E+01   0.0000000000E+00   0.2691995669E-03   0.1000000000E-03   0.0000000000E+00  -0.1547910231E-04   0.1210000000E-01   0.0000000000E+00   0.2846786692E-03   0.6082890124E+01   0.2617430686E-01   0.5867736543E-01  -0.6303188870E-02   0.1774520786E-01  -0.2430367678E-01
   0.2012200000E+01   0.9980210724E+00   0.1644316081E-03   0.1000000000E-03  -0.1921043235E-04  -0.2494819087E-04   0.1210000000E-01  -0.1959717163E-02   0.1893797989E-03   0.6090356094E+01   0.7631513891E-02   0.6975418774E-01   0.3980044104E-03   0.1095586167E-01  -0.2642346843E-01
   0.2012200000E+01   0.0000000000E+00   0.9982898160E+00   0.1000000000E-03   0.0000000000E+00  -0.2296741092E-04   0.1210000000E-01   0.0000000000E+00  -0.1687216548E-02   0.6092294597E+01   0.1935227882E-01   0.5609492069E-01  -0.9067666468E-02   0.2332095805E-01  -0.9493869136E-02
   0.2012200000E+01   0.9979788530E+00   0.9982649026E+00   0.1000000000E-03  -0.2101708991E-04  -0.1313460058E-04   0.1210000000E-01  -0.2000129951E-02  -0.1721962805E-02   0.6099218717E+01   0.1080411101E-02   0.6744266826E-01  -0.5537338514E-02   0.1172863518E-01  -0.1161366079E-01
     1     2     3     4     5     6     7     8
     2     9    10     3     6    11    12     7
 VARIABLES = X,Y,Z,DU1,DU2,DU3,U1,U2,U3,S11,S22,S33,S12,S13,S23
 ZONE, T="0.1230D+01" F=FEPOINT, I=   12 J=    2 ET=BRICK
   0.0000000000E+00   0.0000000000E+00   0.0000000000E+00   0.0000000000E+00   0.0000000000E+00   0.0000000000E+00   0.0000000000E+00   0.0000000000E+00   0.0000000000E+00   0.6181938701E+01  -0.7180863361E-01  -0.7446245962E-02  -0.1487601170E-02   0.3186912422E-01   0.3029531457E-01
   0.1006254618E+01   0.0000000000E+00   0.2082380185E-03   0.4760915212E-04   0.0000000000E+00  -0.6283456283E-05   0.6207009144E-02   0.0000000000E+00   0.2145214748E-03   0.6152030739E+01  -0.2306113704E-01   0.2298552174E-01  -0.1200772957E-01   0.1839322134E-01  -0.1198895187E-02
   0.1006176590E+01   0.9979300432E+00   0.1221852927E-03   0.7659838233E-04  -0.1225013224E-04  -0.6662426069E-05   0.6099991198E-02  -0.2057706627E-02   0.1288477188E-03   0.6143678560E+01  -0.3141331567E-01   0.3968987901E-01  -0.5068710947E-02   0.3247509871E-02  -0.2378222732E-02
   0.0000000000E+00   0.9979201503E+00   0.2567391759E-03   0.0000000000E+00  -0.1822254294E-04   0.1567846828E-05   0.0000000000E+00  -0.2061627186E-02   0.2551713291E-03   0.6178297413E+01  -0.5650317350E-01  -0.1911041810E-01   0.6498171771E-02   0.7831958514E-02   0.2051333868E-01
   0.0000000000E+00   0.0000000000E+00   0.9980639194E+00   0.0000000000E+00   0.0000000000E+00  -0.2045652102E-04   0.0000000000E+00   0.0000000000E+00  -0.1915624044E-02   0.6181594398E+01  -0.8141845849E-01   0.2507880938E-02   0.5563111424E-02   0.3355887309E-01   0.1681049845E-01
   0.1006211096E+01   0.0000000000E+00   0.9981370975E+00   0.5515800895E-04   0.0000000000E+00  -0.1521817785E-04   0.6155938366E-02   0.0000000000E+00  -0.1847684296E-02   0.6152816957E+01  -0.2463357376E-01   0.2377174011E-01  -0.9541812904E-02   0.2247039975E-01   0.1132937276E-01
   0.1006140361E+01   0.9979596501E+00   0.9982405242E+00   0.8171187775E-04  -0.1633438109E-04  -0.2095552457E-04   0.6058649347E-02  -0.2024015551E-02  -0.1738520271E-02   0.6144464778E+01  -0.3298575239E-01   0.4047609737E-01  -0.7461980731E-03   0.1472322167E-01   0.1015004522E-01
   0.0000000000E+00   0.9977882566E+00   0.9980645057E+00   0.0000000000E+00  -0.1597192768E-04  -0.2996166173E-04   0.0000000000E+00  -0.2195771472E-02  -0.1905532688E-02   0.6178359324E+01  -0.6631610517E-01  -0.9359397986E-02   0.2029493641E-01   0.2813625768E-01   0.7028522558E-02
   0.2012300000E+01   0.0000000000E+00   0.2541259658E-03   0.1000000000E-03   0.0000000000E+00  -0.1507360108E-04   0.1220000000E-01   0.0000000000E+00   0.2691995669E-03   0.6120335210E+01   0.1971177530E-01   0.6117944065E-01  -0.3581109913E-02   0.1521574738E-01  -0.2529842902E-01
   0.2012300000E+01   0.9980012657E+00   0.1413342219E-03   0.1000000000E-03  -0.1980667120E-04  -0.2309738619E-04   0.1220000000E-01  -0.1978927595E-02   0.1644316081E-03   0.6122226830E+01   0.2656647149E-02   0.7634294889E-01   0.2311154397E-02   0.8352169798E-02  -0.2765401989E-01
   0.2012300000E+01   0.0000000000E+00   0.9982650366E+00   0.1000000000E-03   0.0000000000E+00  -0.2477947338E-04   0.1220000000E-01   0.0000000000E+00  -0.1710183959E-02   0.6128771223E+01   0.1313817784E-01   0.5931702492E-01  -0.6309309517E-02   0.2168035533E-01  -0.9189110819E-02
   0.2012300000E+01   0.9979582659E+00   0.9982503337E+00   0.1000000000E-03  -0.2058706345E-04  -0.1456892787E-04   0.1220000000E-01  -0.2021147041E-02  -0.1735097406E-02   0.6130256630E+01  -0.3713843536E-02   0.7468363995E-01  -0.3449904838E-02   0.1099929423E-01  -0.1154470169E-01
     1     2     3     4     5     6     7     8
     2     9    10     3     6    11    12     7
 VARIABLES = X,Y,Z,DU1,DU2,DU3,U1,U2,U3,S11,S22,S33,S12,S13,S23
 ZONE, T="0.1240D+01" F=FEPOINT, I=   12 J=    2 ET=BRICK
   0.0000000000E+00   0.0000000000E+00   0.0000000000E+00   0.0000000000E+00   0.0000000000E+00   0.0000000000E+00   0.0000000000E+00   0.0000000000E+00   0.0000000000E+00   0.6250381493E+01  -0.5899579839E-01   0.2041837281E-02   0.2407676558E-02   0.3171538143E-01   0.2938439445E-01
   0.1006301839E+01   0.0000000000E+00   0.2022567082E-03   0.4722046734E-04   0.0000000000E+00  -0.5981310347E-05   0.6254618296E-02   0.0000000000E+00   0.2082380185E-03   0.6204064831E+01  -0.1977215716E-01   0.2773514440E-01  -0.5182210966E-02   0.1778837429E-01  -0.2235483757E-02
   0.1006252828E+01   0.9979183101E+00   0.1164238337E-03   0.7623852264E-04  -0.1173313849E-04  -0.5761459005E-05   0.6176589580E-02  -0.2069956759E-02   0.1221852927E-03   0.6196001133E+01  -0.2783585429E-01   0.4386253866E-01   0.1486434964E-02   0.2579424234E-02  -0.3728212795E-02
   0.0000000000E+00   0.9979034580E+00   0.2576851309E-03   0.0000000000E+00  -0.1669230877E-04   0.9459549252E-06   0.0000000000E+00  -0.2079849729E-02   0.2567391759E-03   0.6252255388E+01  -0.4527104642E-01  -0.1355680971E-01   0.1074078145E-01   0.7665312660E-02   0.1960375012E-01
   0.0000000000E+00   0.0000000000E+00   0.9980442798E+00   0.0000000000E+00   0.0000000000E+00  -0.1963966754E-04   0.0000000000E+00   0.0000000000E+00  -0.1936080565E-02   0.6251068373E+01  -0.6911988286E-01   0.1147904146E-01   0.9095869125E-02   0.3481693821E-01   0.1472269497E-01
   0.1006265199E+01   0.0000000000E+00   0.9981214142E+00   0.5410285536E-04   0.0000000000E+00  -0.1568333618E-04   0.6211096375E-02   0.0000000000E+00  -0.1862902474E-02   0.6205059983E+01  -0.2176246254E-01   0.2873029709E-01  -0.2933713620E-02   0.2292340135E-01   0.9860061943E-02
   0.1006221366E+01   0.9979435526E+00   0.9982183264E+00   0.8100456450E-04  -0.1609743484E-04  -0.2219784269E-04   0.6140361224E-02  -0.2040349932E-02  -0.1759475795E-02   0.6196996286E+01  -0.2982615967E-01   0.4485769135E-01   0.5550913377E-02   0.1569065631E-01   0.8367332904E-02
   0.0000000000E+00   0.9977737624E+00   0.9980350918E+00   0.0000000000E+00  -0.1449422169E-04  -0.2941382799E-04   0.0000000000E+00  -0.2211743400E-02  -0.1935494350E-02   0.6253230612E+01  -0.5553930295E-01  -0.4263777589E-02   0.2390090814E-01   0.2954790918E-01   0.4942050639E-02
   0.2012400000E+01   0.0000000000E+00   0.2395135498E-03   0.1000000000E-03   0.0000000000E+00  -0.1461241595E-04   0.1230000000E-01   0.0000000000E+00   0.2541259658E-03   0.6157256153E+01   0.1230163313E-01   0.6107031752E-01  -0.9212415545E-03   0.1261169103E-01  -0.2591754731E-01
   0.2012400000E+01   0.9979809065E+00   0.1202606277E-03   0.1000000000E-03  -0.2035923949E-04  -0.2107359415E-04   0.1230000000E-01  -0.1998734266E-02   0.1413342219E-03   0.6153661310E+01  -0.3144066808E-02   0.8011086046E-01   0.4082945409E-02   0.5811343524E-02  -0.2843426717E-01
   0.2012400000E+01   0.0000000000E+00   0.9982384481E+00   0.1000000000E-03   0.0000000000E+00  -0.2658845862E-04   0.1230000000E-01   0.0000000000E+00  -0.1734963432E-02   0.6164767516E+01   0.6029232023E-02   0.5983135613E-01  -0.3544955598E-02   0.1978018836E-01  -0.8674425870E-02
   0.2012400000E+01   0.9979381601E+00   0.9982342228E+00   0.1000000000E-03  -0.2010580533E-04  -0.1611083240E-04   0.1230000000E-01  -0.2041734104E-02  -0.1749666334E-02   0.6160884328E+01  -0.9272295860E-02   0.7901607113E-01  -0.1380740622E-02   0.1015121115E-01  -0.1119114573E-01
     1     2     3     4     5     6     7     8
     2     9    10     3     6    11    12     7
 VARIABLES = X,Y,Z,DU1,DU2,DU3,U1,U2,U3,S11,S22,S33,S12,S13,S23
 ZONE, T="0.1250D+01" F=FEPOINT, I=   12 J=    2 ET=BRICK
   0.0000000000E+00   0.0000000000E+00   0.0000000000E+00   0.0000000000E+00   0.0000000000E+00   0.0000000000E+00   0.0000000000E+00   0.0000000000E+00   0.0000000000E+00   0.6317564226E+01  -0.4601581193E-01   0.1095387908E-01   0.6143286742E-02   0.3148958889E-01   0.2839911859E-01
   0.1006348488E+01   0.0000000000E+00   0.1966137348E-03   0.4664922487E-04   0.0000000000E+00  -0.5642973365E-05   0.6301838764E-02   0.0000000000E+00   0.2022567082E-03   0.6255476485E+01  -0.1678748577E-01   0.3091763268E-01   0.1490804665E-02   0.1704581859E-01  -0.3169379985E-02
   0.1006328159E+01   0.9979069705E+00   0.1116335075E-03   0.7533063272E-04  -0.1133959534E-04  -0.4790326172E-05   0.6252828103E-02  -0.2081689898E-02   0.1164238337E-03   0.6247790366E+01  -0.2447360421E-01   0.4628986957E-01   0.7794362191E-02   0.1895135996E-02  -0.4970647073E-02
   0.0000000000E+00   0.9978881343E+00   0.2581388262E-03   0.0000000000E+00  -0.1532366026E-04   0.4536953021E-06   0.0000000000E+00  -0.2096542038E-02   0.2576851309E-03   0.6324929778E+01  -0.3383750672E-01  -0.8589978269E-02   0.1469294969E-01   0.7509392261E-02   0.1861202415E-01
   0.0000000000E+00   0.0000000000E+00   0.9980252574E+00   0.0000000000E+00   0.0000000000E+00  -0.1902235841E-04   0.0000000000E+00   0.0000000000E+00  -0.1955720232E-02   0.6319191327E+01  -0.5661645708E-01   0.1992742280E-01   0.1247367179E-01   0.3573483683E-01   0.1253803731E-01
   0.1006318049E+01   0.0000000000E+00   0.9981051175E+00   0.5285008513E-04   0.0000000000E+00  -0.1629667632E-04   0.6265199230E-02   0.0000000000E+00  -0.1878585810E-02   0.6256677329E+01  -0.1918917522E-01   0.3211847740E-01   0.3569693593E-02   0.2302150486E-01   0.8359797682E-02
   0.1006301099E+01   0.9979276497E+00   0.9981948273E+00   0.7973337562E-04  -0.1590293035E-04  -0.2349909575E-04   0.6221365789E-02  -0.2056447367E-02  -0.1781673638E-02   0.6248991210E+01  -0.2687529366E-01   0.4749071429E-01   0.1166984242E-01   0.1638505352E-01   0.6558530594E-02
   0.0000000000E+00   0.9977606432E+00   0.9980061941E+00   0.0000000000E+00  -0.1311920053E-04  -0.2889773043E-04   0.0000000000E+00  -0.2226237621E-02  -0.1964908178E-02   0.6326745077E+01  -0.4453225105E-01   0.2894662770E-03   0.2721257069E-01   0.3063066743E-01   0.2750942872E-02
   0.2012500000E+01   0.0000000000E+00   0.2253753498E-03   0.1000000000E-03   0.0000000000E+00  -0.1413820005E-04   0.1240000000E-01   0.0000000000E+00   0.2395135498E-03   0.6194076299E+01   0.4143974837E-02   0.5849069571E-01   0.1651075659E-02   0.9948490581E-02  -0.2614643778E-01
   0.2012500000E+01   0.9979600655E+00   0.1013166618E-03   0.1000000000E-03  -0.2084101072E-04  -0.1894396597E-04   0.1240000000E-01  -0.2019093506E-02   0.1202606277E-03   0.6185154238E+01  -0.9590839307E-02   0.8114757093E-01   0.5708527765E-02   0.3345024492E-02  -0.2874716681E-01
   0.2012500000E+01   0.0000000000E+00   0.9982101176E+00   0.1000000000E-03   0.0000000000E+00  -0.2833053665E-04   0.1240000000E-01   0.0000000000E+00  -0.1761551891E-02   0.6200707747E+01  -0.1772477964E-02   0.5777570097E-01  -0.8038290549E-03   0.1765461518E-01  -0.7950593101E-02
   0.2012500000E+01   0.9979185952E+00   0.9982165182E+00   0.1000000000E-03  -0.1956493296E-04  -0.1770467152E-04   0.1240000000E-01  -0.2061839909E-02  -0.1765777166E-02   0.6191597487E+01  -0.1541319293E-01   0.8052667536E-01   0.6575697086E-03   0.9203584383E-02  -0.1055132213E-01
     1     2     3     4     5     6     7     8
     2     9    10     3     6    11    12     7
 VARIABLES = X,Y,Z,DU1,DU2,DU3,U1,U2,U3,S11,S22,S33,S12,S13,S23
 ZONE, T="0.1260D+01" F=FEPOINT, I=   12 J=    2 ET=BRICK
   0.0000000000E+00   0.0000000000E+00   0.0000000000E+00   0.0000000000E+00   0.0000000000E+00   0.0000000000E+00   0.0000000000E+00   0.0000000000E+00   0.0000000000E+00   0.6382834001E+01  -0.3339480824E-01   0.1874924695E-01   0.9682386466E-02   0.3119165946E-01   0.2738715826E-01
   0.1006394389E+01   0.0000000000E+00   0.1913140959E-03   0.4590118689E-04   0.0000000000E+00  -0.5299638867E-05   0.6348487988E-02   0.0000000000E+00   0.1966137348E-03   0.6306184392E+01  -0.1423999270E-01   0.3239316758E-01   0.7937008541E-02   0.1617280297E-01  -0.3972602404E-02
   0.1006402053E+01   0.9978959109E+00   0.1078453752E-03   0.7389406790E-04  -0.1105957355E-04  -0.3788132312E-05   0.6328158736E-02  -0.2093029493E-02   0.1116335075E-03   0.6298963024E+01  -0.2146136079E-01   0.4683590377E-01   0.1379525299E-01   0.1193166003E-02  -0.6070261600E-02
   0.0000000000E+00   0.9978740117E+00   0.2582133324E-03   0.0000000000E+00  -0.1412256703E-04   0.7450621539E-07   0.0000000000E+00  -0.2111865698E-02   0.2581388262E-03   0.6395603367E+01  -0.2270420563E-01  -0.4710721978E-02   0.1832539055E-01   0.7353342433E-02   0.1759422297E-01
   0.0000000000E+00   0.0000000000E+00   0.9980066611E+00   0.0000000000E+00   0.0000000000E+00  -0.1859630935E-04   0.0000000000E+00   0.0000000000E+00  -0.1974742591E-02   0.6385303899E+01  -0.4442269284E-01   0.2730723293E-01   0.1566015759E-01   0.3632207063E-01   0.1031187249E-01
   0.1006369467E+01   0.0000000000E+00   0.9980880942E+00   0.5141775129E-04   0.0000000000E+00  -0.1702327239E-04   0.6318049315E-02   0.0000000000E+00  -0.1894882487E-02   0.6307582831E+01  -0.1703687163E-01   0.3379160704E-01   0.9891596211E-02   0.2278819282E-01   0.6859449742E-02
   0.1006379023E+01   0.9979119073E+00   0.9981700080E+00   0.7792344818E-04  -0.1574244585E-04  -0.2481926406E-04   0.6301099164E-02  -0.2072350297E-02  -0.1805172734E-02   0.6300361463E+01  -0.2425823972E-01   0.4823434324E-01   0.1754637331E-01   0.1681594038E-01   0.4761790545E-02
   0.0000000000E+00   0.9977487921E+00   0.9979777920E+00   0.0000000000E+00  -0.1185104587E-04  -0.2840208229E-04   0.0000000000E+00  -0.2239356822E-02  -0.1993805908E-02   0.6398178635E+01  -0.3378477521E-01   0.3794579031E-02   0.3020190501E-01   0.3138370651E-01   0.5189372001E-03
   0.2012600000E+01   0.0000000000E+00   0.2116858770E-03   0.1000000000E-03   0.0000000000E+00  -0.1368947276E-04   0.1250000000E-01   0.0000000000E+00   0.2253753498E-03   0.6231267825E+01  -0.4491174446E-02   0.5371004423E-01   0.4112866891E-02   0.7242033823E-02  -0.2597747967E-01
   0.2012600000E+01   0.9979388367E+00   0.8454376909E-04   0.1000000000E-03  -0.2122882807E-04  -0.1677289267E-04   0.1250000000E-01  -0.2039934516E-02   0.1013166618E-03   0.6217245814E+01  -0.1643442206E-01   0.7967530317E-01   0.7186351698E-02   0.9630220106E-03  -0.2858428414E-01
   0.2012600000E+01   0.0000000000E+00   0.9981801707E+00   0.1000000000E-03   0.0000000000E+00  -0.2994683917E-04   0.1250000000E-01   0.0000000000E+00  -0.1789882428E-02   0.6237064419E+01  -0.9996276190E-02   0.5341855142E-01   0.1886216198E-02   0.1534240237E-01  -0.7023226393E-02
   0.2012600000E+01   0.9978996350E+00   0.9981972198E+00   0.1000000000E-03  -0.1896011488E-04  -0.1929835854E-04   0.1250000000E-01  -0.2081404842E-02  -0.1783481838E-02   0.6222937038E+01  -0.2188683883E-01   0.7943649533E-01   0.2654022976E-02   0.8178206686E-02  -0.9630030864E-02
     1     2     3     4     5     6     7     8
     2     9    10     3     6    11    12     7
 VARIABLES = X,Y,Z,DU1,DU2,DU3,U1,U2,U3,S11,S22,S33,S12,S13,S23
 ZONE, T="0.1270D+01" F=FEPOINT, I=   12 J=    2 ET=BRICK
   0.0000000000E+00   0.0000000000E+00   0.0000000000E+00   0.0000000000E+00   0.0000000000E+00   0.0000000000E+00   0.0000000000E+00   0.0000000000E+00   0.0000000000E+00   0.6445627453E+01  -0.2158344047E-01   0.2499088135E-01   0.1299106636E-01   0.3081855696E-01   0.2639082391E-01
   0.1006439382E+01   0.0000000000E+00   0.1863305664E-03   0.4499257583E-04   0.0000000000E+00  -0.4983529515E-05   0.6394389175E-02   0.0000000000E+00   0.1913140959E-03   0.6356164316E+01  -0.1219759678E-01   0.3213107912E-01   0.1408639945E-01   0.1517684761E-01  -0.4621411072E-02
   0.1006474015E+01   0.9978850308E+00   0.1050493036E-03   0.7196225847E-04  -0.1088008865E-04  -0.2796071668E-05   0.6402052804E-02  -0.2104089066E-02   0.1078453752E-03   0.6349491573E+01  -0.1887033930E-01   0.4547656416E-01   0.1943408145E-01   0.4717294129E-03  -0.6996706564E-02
   0.0000000000E+00   0.9978609267E+00   0.2579946255E-03   0.0000000000E+00  -0.1308501102E-04  -0.2187069046E-06   0.0000000000E+00  -0.2125988265E-02   0.2582133324E-03   0.6463649186E+01  -0.1230042419E-01  -0.2313868139E-02   0.2161277355E-01   0.7184793904E-02   0.1660084767E-01
   0.0000000000E+00   0.0000000000E+00   0.9979883194E+00   0.0000000000E+00   0.0000000000E+00  -0.1834171360E-04   0.0000000000E+00   0.0000000000E+00  -0.1993338900E-02   0.6448838003E+01  -0.3297869198E-01   0.3317558231E-01   0.1862155177E-01   0.3659088003E-01   0.8096941023E-02
   0.1006419301E+01   0.0000000000E+00   0.9980702688E+00   0.4983365276E-04   0.0000000000E+00  -0.1782543041E-04   0.6369467067E-02   0.0000000000E+00  -0.1911905759E-02   0.6357747846E+01  -0.1536465744E-01   0.3371460945E-01   0.1595862915E-01   0.2225109068E-01   0.5387702711E-02
   0.1006454637E+01   0.9978963010E+00   0.9981438909E+00   0.7561392996E-04  -0.1560621827E-04  -0.2611708889E-04   0.6379022613E-02  -0.2088092743E-02  -0.1829991998E-02   0.6351075103E+01  -0.2203739996E-01   0.4706009449E-01   0.2311985138E-01   0.1699630339E-01   0.3012407218E-02
   0.0000000000E+00   0.9977381056E+00   0.9979498845E+00   0.0000000000E+00  -0.1068652623E-04  -0.2790747031E-04   0.0000000000E+00  -0.2251207868E-02  -0.2022207990E-02   0.6466898862E+01  -0.2371523882E-01   0.5851269702E-02   0.3284439939E-01   0.3180978224E-01  -0.1693035215E-02
   0.2012700000E+01   0.0000000000E+00   0.1983875612E-03   0.1000000000E-03   0.0000000000E+00  -0.1329831581E-04   0.1260000000E-01   0.0000000000E+00   0.2116858770E-03   0.6269330652E+01  -0.1327838026E-01   0.4710843047E-01   0.6443015618E-02   0.4509288694E-02  -0.2541024653E-01
   0.2012700000E+01   0.9979173316E+00   0.6992451507E-04   0.1000000000E-03  -0.2150502861E-04  -0.1461925402E-04   0.1260000000E-01  -0.2061163345E-02   0.8454376909E-04   0.6250499880E+01  -0.2337043578E-01   0.7603125843E-01   0.8516672431E-02  -0.1325874028E-02  -0.2794606167E-01
   0.2012700000E+01   0.0000000000E+00   0.9981487846E+00   0.1000000000E-03   0.0000000000E+00  -0.3138615677E-04   0.1260000000E-01   0.0000000000E+00  -0.1819829267E-02   0.6274337296E+01  -0.1831751727E-01   0.4714092375E-01   0.4498300229E-02   0.1288545176E-01  -0.5902804785E-02
   0.2012700000E+01   0.9978813428E+00   0.9981763739E+00   0.1000000000E-03  -0.1829222150E-04  -0.2084587048E-04   0.1260000000E-01  -0.2100364957E-02  -0.1802780196E-02   0.6255467397E+01  -0.2839000966E-01   0.7608331484E-01   0.4597897065E-02   0.7098285588E-02  -0.8438619933E-02
     1     2     3     4     5     6     7     8
     2     9    10     3     6    11    12     7
 VARIABLES = X,Y,Z,DU1,DU2,DU3,U1,U2,U3,S11,S22,S33,S12,S13,S23
 ZONE, T="0.1280D+01" F=FEPOINT, I=   12 J=    2 ET=BRICK
   0.0000000000E+00   0.0000000000E+00   0.0000000000E+00   0.0000000000E+00   0.0000000000E+00   0.0000000000E+00   0.0000000000E+00   0.0000000000E+00   0.0000000000E+00   0.6505493062E+01  -0.1093857396E-01   0.2936474312E-01   0.1603800596E-01   0.3036409753E-01   0.2544505828E-01
   0.1006483331E+01   0.0000000000E+00   0.1816048500E-03   0.4394935518E-04   0.0000000000E+00  -0.4725716400E-05   0.6439381751E-02   0.0000000000E+00   0.1863305664E-03   0.6405448047E+01  -0.1066362481E-01   0.3020751961E-01   0.1987331900E-01   0.1406586183E-01  -0.5097121007E-02
   0.1006543597E+01   0.9978742443E+00   0.1031942796E-03   0.6958175487E-04  -0.1078654483E-04  -0.1855023996E-05   0.6474015062E-02  -0.2114969155E-02   0.1050493036E-03   0.6399403077E+01  -0.1670859446E-01   0.4229745890E-01   0.2465977787E-01  -0.2706662021E-03  -0.7725522264E-02
   0.0000000000E+00   0.9978487280E+00   0.2575335617E-03   0.0000000000E+00  -0.1219872396E-04  -0.4610638179E-06   0.0000000000E+00  -0.2139073276E-02   0.2579946255E-03   0.6528553181E+01  -0.2965314273E-02  -0.1668635705E-02   0.2453258132E-01   0.6990369182E-02   0.1567457178E-01
   0.0000000000E+00   0.0000000000E+00   0.9979700898E+00   0.0000000000E+00   0.0000000000E+00  -0.1822960383E-04   0.0000000000E+00   0.0000000000E+00  -0.2011680614E-02   0.6509339214E+01  -0.2263213611E-01   0.3721215395E-01   0.2132638596E-01   0.3655458746E-01   0.5941739019E-02
   0.1006467435E+01   0.0000000000E+00   0.9980516038E+00   0.4813450025E-04   0.0000000000E+00  -0.1866497950E-04   0.6419300720E-02   0.0000000000E+00  -0.1929731189E-02   0.6407200314E+01  -0.1416815982E-01   0.3195978712E-01   0.2170103226E-01   0.2144031967E-01   0.3970333461E-02
   0.1006527494E+01   0.9978808166E+00   0.9981165386E+00   0.7285696977E-04  -0.1548439896E-04  -0.2735232793E-04   0.6454636543E-02  -0.2103698962E-02  -0.1856109087E-02   0.6401155344E+01  -0.2021312946E-01   0.4404972640E-01   0.2833253246E-01   0.1694136939E-01   0.1341932204E-02
   0.0000000000E+00   0.9977284891E+00   0.9979224959E+00   0.0000000000E+00  -0.9616504566E-05  -0.2738860106E-04   0.0000000000E+00  -0.2261894394E-02  -0.2050115461E-02   0.6532387780E+01  -0.1465310038E-01   0.6184551175E-02   0.3511800513E-01   0.3191405455E-01  -0.3828747472E-02
   0.2012800000E+01   0.0000000000E+00   0.1853990345E-03   0.1000000000E-03   0.0000000000E+00  -0.1298852669E-04   0.1270000000E-01   0.0000000000E+00   0.1983875612E-03   0.6308768562E+01  -0.2185561018E-01   0.3915169919E-01   0.8621772583E-02   0.1768885620E-02  -0.2445157682E-01
   0.2012800000E+01   0.9978956730E+00   0.5739040377E-04   0.1000000000E-03  -0.2165860312E-04  -0.1253411130E-04   0.1270000000E-01  -0.2082668373E-02   0.6992451507E-04   0.6285479327E+01  -0.3005798556E-01   0.7064330940E-01   0.9700114970E-02  -0.3513113930E-02  -0.2684189779E-01
   0.2012800000E+01   0.0000000000E+00   0.9981161774E+00   0.1000000000E-03   0.0000000000E+00  -0.3260716281E-04   0.1270000000E-01   0.0000000000E+00  -0.1851215424E-02   0.6313029615E+01  -0.2637645798E-01   0.3941149335E-01   0.7006147262E-02   0.1032731138E-01  -0.4604584027E-02
   0.2012800000E+01   0.9978637747E+00   0.9981540646E+00   0.1000000000E-03  -0.1756811071E-04  -0.2230930062E-04   0.1270000000E-01  -0.2118657179E-02  -0.1823626067E-02   0.6289751933E+01  -0.3458460941E-01   0.7089732749E-01   0.6477528500E-02   0.5987271873E-02  -0.6994905005E-02
     1     2     3     4     5     6     7     8
     2     9    10     3     6    11    12     7
 VARIABLES = X,Y,Z,DU1,DU2,DU3,U1,U2,U3,S11,S22,S33,S12,S13,S23
 ZONE, T="0.1290D+01" F=FEPOINT, I=   12 J=    2 ET=BRICK
   0.0000000000E+00   0.0000000000E+00   0.0000000000E+00   0.0000000000E+00   0.0000000000E+00   0.0000000000E+00   0.0000000000E+00   0.0000000000E+00   0.0000000000E+00   0.6562107185E+01  -0.1711607771E-02   0.3169106151E-01   0.1879418556E-01   0.2981910200E-01   0.2457598481E-01
   0.1006526137E+01   0.0000000000E+00   0.1770507839E-03   0.4280602150E-04   0.0000000000E+00  -0.4554066140E-05   0.6483331106E-02   0.0000000000E+00   0.1816048500E-03   0.6454118575E+01  -0.9581949377E-02   0.2679635901E-01   0.2523652164E-01   0.1284837202E-01  -0.5386688582E-02
   0.1006610408E+01   0.9978634802E+00   0.1021910302E-03   0.6681079734E-04  -0.1076414007E-04  -0.1003249356E-05   0.6543596817E-02  -0.2125755700E-02   0.1031942796E-03   0.6448774358E+01  -0.1492616649E-01   0.3748479323E-01   0.2942451519E-01  -0.1034610801E-02  -0.8238854889E-02
   0.0000000000E+00   0.9978372827E+00   0.2568407259E-03   0.0000000000E+00  -0.1144528230E-04  -0.6928358050E-06   0.0000000000E+00  -0.2151272000E-02   0.2575335617E-03   0.6589930724E+01   0.5063404115E-02  -0.2907489560E-02   0.2706410646E-01   0.6756316972E-02   0.1484856568E-01
   0.0000000000E+00   0.0000000000E+00   0.9979518652E+00   0.0000000000E+00   0.0000000000E+00  -0.1822459487E-04   0.0000000000E+00   0.0000000000E+00  -0.2029910217E-02   0.6566482834E+01  -0.1362685154E-01   0.3923065600E-01   0.2374527168E-01   0.3622620813E-01   0.3889203337E-02
   0.1006513800E+01   0.0000000000E+00   0.9980320984E+00   0.4636462588E-04   0.0000000000E+00  -0.1950545922E-04   0.6467435220E-02   0.0000000000E+00  -0.1948396169E-02   0.6456020019E+01  -0.1338483779E-01   0.2869780321E-01   0.2705284659E-01   0.2038699972E-01   0.2629637089E-02
   0.1006597210E+01   0.9978654484E+00   0.9980880507E+00   0.6971624063E-04  -0.1536823219E-04  -0.2848788011E-04   0.6527493512E-02  -0.2119183360E-02  -0.1883461415E-02   0.6450675802E+01  -0.1872905490E-01   0.3938623744E-01   0.3312905967E-01   0.1666748749E-01  -0.2225292186E-03
   0.0000000000E+00   0.9977198614E+00   0.9978956791E+00   0.0000000000E+00  -0.8627719846E-05  -0.2681685507E-04   0.0000000000E+00  -0.2271510899E-02  -0.2077504062E-02   0.6594258443E+01  -0.6827874759E-02   0.4656069827E-02   0.3700222578E-01   0.3170305911E-01  -0.5838215794E-02
   0.2012900000E+01   0.0000000000E+00   0.1726246888E-03   0.1000000000E-03   0.0000000000E+00  -0.1277434576E-04   0.1280000000E-01   0.0000000000E+00   0.1853990345E-03   0.6350063840E+01  -0.2984612600E-01   0.3036161716E-01   0.1063033042E-01  -0.9584127250E-03  -0.2311549056E-01
   0.2012900000E+01   0.9978739871E+00   0.4683143517E-04   0.1000000000E-03  -0.2168591328E-04  -0.1055896860E-04   0.1280000000E-01  -0.2104326976E-02   0.5739040377E-04   0.6322720087E+01  -0.3614135156E-01   0.6400059557E-01   0.1073639663E-01  -0.5589698673E-02  -0.2529003138E-01
   0.2012900000E+01   0.0000000000E+00   0.9980825974E+00   0.1000000000E-03   0.0000000000E+00  -0.3358003990E-04   0.1280000000E-01   0.0000000000E+00  -0.1883822586E-02   0.6353622830E+01  -0.3380016217E-01   0.3075666263E-01   0.9383788881E-02   0.7711736544E-02  -0.3148388583E-02
   0.2012900000E+01   0.9978469737E+00   0.9981304043E+00   0.1000000000E-03  -0.1680097855E-04  -0.2366033664E-04   0.1280000000E-01  -0.2136225289E-02  -0.1845935367E-02   0.6326327007E+01  -0.4011935262E-01   0.6437167614E-01   0.8279260944E-02   0.4867755769E-02  -0.5322929403E-02
     1     2     3     4     5     6     7     8
     2     9    10     3     6    11    12     7
 VARIABLES = X,Y,Z,DU1,DU2,DU3,U1,U2,U3,S11,S22,S33,S12,S13,S23
 ZONE, T="0.1300D+01" F=FEPOINT, I=   12 J=    2 ET=BRICK
   0.0000000000E+00   0.0000000000E+00   0.0000000000E+00   0.0000000000E+00   0.0000000000E+00   0.0000000000E+00   0.0000000000E+00   0.0000000000E+00   0.0000000000E+00   0.6615283311E+01   0.5956341768E-02   0.3192721259E-01   0.2123269593E-01   0.2917187613E-01   0.2380005518E-01
   0.1006567741E+01   0.0000000000E+00   0.1725593371E-03   0.4160397340E-04   0.0000000000E+00  -0.4491446838E-05   0.6526137128E-02   0.0000000000E+00   0.1770507839E-03   0.6502301962E+01  -0.8846305622E-02   0.2215417756E-01   0.3011932133E-01   0.1153382894E-01  -0.5483054391E-02
   0.1006674125E+01   0.9978526810E+00   0.1019167075E-03   0.6371746923E-04  -0.1079913555E-04  -0.2743227056E-06   0.6610407614E-02  -0.2136519840E-02   0.1021910302E-03   0.6497723915E+01  -0.1342435205E-01   0.3131027041E-01   0.3368320175E-01  -0.1819212176E-02  -0.8525892329E-02
   0.0000000000E+00   0.9978264803E+00   0.2558843326E-03   0.0000000000E+00  -0.1080240837E-04  -0.9563932983E-06   0.0000000000E+00  -0.2162717283E-02   0.2568407259E-03   0.6647536472E+01   0.1165406257E-01  -0.6023669024E-02   0.2918767070E-01   0.6469235924E-02   0.1414546208E-01
   0.0000000000E+00   0.0000000000E+00   0.9979335774E+00   0.0000000000E+00   0.0000000000E+00  -0.1828782236E-04   0.0000000000E+00   0.0000000000E+00  -0.2048134812E-02   0.6620083160E+01  -0.6098175714E-02   0.3918188129E-01   0.2585076749E-01   0.3561739709E-01   0.1975753970E-02
   0.1006558374E+01   0.0000000000E+00   0.9980117843E+00   0.4457429681E-04   0.0000000000E+00  -0.2031407053E-04   0.6513799846E-02   0.0000000000E+00  -0.1967901628E-02   0.6504330520E+01  -0.1290342287E-01   0.2418273619E-01   0.3195218822E-01   0.1912196914E-01   0.1384015246E-02
   0.1006663475E+01   0.9978501973E+00   0.9980585591E+00   0.6626505259E-04  -0.1525106952E-04  -0.2949165057E-04   0.6597209753E-02  -0.2134551593E-02  -0.1911949295E-02   0.6499752473E+01  -0.1748146930E-01   0.3333882904E-01   0.3745614673E-01   0.1619116957E-01  -0.1658822692E-02
   0.0000000000E+00   0.9977121567E+00   0.9978695161E+00   0.0000000000E+00  -0.7704713622E-05  -0.2616297516E-04   0.0000000000E+00  -0.2280138618E-02  -0.2104320917E-02   0.6652264846E+01  -0.3647178133E-03   0.1266736780E-02   0.3847741923E-01   0.3118388562E-01  -0.7678839123E-02
   0.2013000000E+01   0.0000000000E+00   0.1599648535E-03   0.1000000000E-03   0.0000000000E+00  -0.1265983530E-04   0.1290000000E-01   0.0000000000E+00   0.1726246888E-03   0.6393651912E+01  -0.3688203029E-01   0.2128291965E-01   0.1245050673E-01  -0.3649398325E-02  -0.2142295253E-01
   0.2013000000E+01   0.9978523962E+00   0.3810674507E-04   0.1000000000E-03  -0.2159091705E-04  -0.8724690100E-05   0.1290000000E-01  -0.2126012890E-02   0.4683143517E-04   0.6362705174E+01  -0.4127332770E-01   0.5662095448E-01   0.1162329279E-01  -0.7545629051E-02  -0.2331723306E-01
   0.2013000000E+01   0.0000000000E+00   0.9980483100E+00   0.1000000000E-03   0.0000000000E+00  -0.3428742300E-04   0.1290000000E-01   0.0000000000E+00  -0.1917402626E-02   0.6396551312E+01  -0.4022601098E-01   0.2172750003E-01   0.1160538025E-01   0.5081361112E-02  -0.1558286404E-02
   0.2013000000E+01   0.9978309635E+00   0.9981055232E+00   0.1000000000E-03  -0.1601023423E-04  -0.2488108283E-04   0.1290000000E-01  -0.2153026268E-02  -0.1869595704E-02   0.6365676049E+01  -0.4465304548E-01   0.5702979776E-01   0.9986645518E-02   0.3760484756E-02  -0.3452566938E-02
     1     2     3     4     5     6     7     8
     2     9    10     3     6    11    12     7
 VARIABLES = X,Y,Z,DU1,DU2,DU3,U1,U2,U3,S11,S22,S33,S12,S13,S23
 ZONE, T="0.1310D+01" F=FEPOINT, I=   12 J=    2 ET=BRICK
   0.0000000000E+00   0.0000000000E+00   0.0000000000E+00   0.0000000000E+00   0.0000000000E+00   0.0000000000E+00   0.0000000000E+00   0.0000000000E+00   0.0000000000E+00   0.6664974460E+01   0.1203257300E-01   0.3016255369E-01   0.2332867795E-01   0.2840897359E-01   0.2312380407E-01
   0.1006608131E+01   0.0000000000E+00   0.1680050351E-03   0.4038954337E-04   0.0000000000E+00  -0.4554301969E-05   0.6567741101E-02   0.0000000000E+00   0.1725593371E-03   0.6550156600E+01  -0.8312926473E-02   0.1660058427E-01   0.3446984690E-01   0.1013295623E-01  -0.5385238263E-02
   0.1006734503E+01   0.9978418011E+00   0.1022212797E-03   0.6037751092E-04  -0.1087990719E-04   0.3045722198E-06   0.6674125084E-02  -0.2147318976E-02   0.1019167075E-03   0.6546401285E+01  -0.1206824058E-01   0.2411121249E-01   0.3739324609E-01  -0.2621587996E-02  -0.8583013894E-02
   0.0000000000E+00   0.9978162340E+00   0.2545911706E-03   0.0000000000E+00  -0.1024632432E-04  -0.1293161916E-05   0.0000000000E+00  -0.2173519691E-02   0.2558843326E-03   0.6701267488E+01   0.1677915531E-01  -0.1087705763E-01   0.3088413129E-01   0.6116841969E-02   0.1357697476E-01
   0.0000000000E+00   0.0000000000E+00   0.9979151975E+00   0.0000000000E+00   0.0000000000E+00  -0.1837989285E-04   0.0000000000E+00   0.0000000000E+00  -0.2066422635E-02   0.6670095835E+01  -0.7494440027E-04   0.3714869491E-01   0.2761737002E-01   0.3473777629E-01   0.2307072501E-03
   0.1006601192E+01   0.0000000000E+00   0.9979907210E+00   0.4281771267E-04   0.0000000000E+00  -0.2106327926E-04   0.6558374142E-02   0.0000000000E+00  -0.1988215699E-02   0.6552288450E+01  -0.1257662731E-01   0.1873243469E-01   0.3634162856E-01   0.1767477083E-01   0.2477329025E-03
   0.1006726059E+01   0.9978350682E+00   0.9980282210E+00   0.6258412970E-04  -0.1512914858E-04  -0.3033804876E-04   0.6663474806E-02  -0.2149802662E-02  -0.1941440945E-02   0.6548533135E+01  -0.1633194142E-01   0.2624306291E-01   0.4126252943E-01   0.1552833409E-01  -0.2950042728E-02
   0.0000000000E+00   0.9977053249E+00   0.9978441164E+00   0.0000000000E+00  -0.6831770993E-05  -0.2539971671E-04   0.0000000000E+00  -0.2287843332E-02  -0.2130483892E-02   0.6706305051E+01   0.4713544614E-02  -0.3849009708E-02   0.3952437525E-01   0.3036360460E-01  -0.9316122056E-02
   0.2013100000E+01   0.0000000000E+00   0.1473259070E-03   0.1000000000E-03   0.0000000000E+00  -0.1263894647E-04   0.1300000000E-01   0.0000000000E+00   0.1599648535E-03   0.6439897463E+01  -0.4262791955E-01   0.1244938546E-01   0.1406456915E-01  -0.6278296105E-02  -0.1940148638E-01
   0.2013100000E+01   0.9978310113E+00   0.3105562759E-04   0.1000000000E-03  -0.2138488556E-04  -0.7051117482E-05   0.1300000000E-01  -0.2147603807E-02   0.3810674507E-04   0.6405840275E+01  -0.4513866015E-01   0.4901731336E-01   0.1235591419E-01  -0.9369532820E-02  -0.2095830877E-01
   0.2013100000E+01   0.0000000000E+00   0.9980135853E+00   0.1000000000E-03   0.0000000000E+00  -0.3472461628E-04   0.1300000000E-01   0.0000000000E+00  -0.1951690049E-02   0.6442178521E+01  -0.4532527108E-01   0.1286567871E-01   0.1364516053E-01   0.2476530408E-02   0.1378478744E-03
   0.2013100000E+01   0.9978157426E+00   0.9980795590E+00   0.1000000000E-03  -0.1522089065E-04  -0.2596418790E-04   0.1300000000E-01  -0.2169036502E-02  -0.1894476787E-02   0.6408205146E+01  -0.4787791838E-01   0.4939169990E-01   0.1157995703E-01   0.2683548726E-02  -0.1418974515E-02
     1     2     3     4     5     6     7     8
     2     9    10     3     6    11    12     7
 VARIABLES = X,Y,Z,DU1,DU2,DU3,U1,U2,U3,S11,S22,S33,S12,S13,S23
 ZONE, T="0.1320D+01" F=FEPOINT, I=   12 J=    2 ET=BRICK
   0.0000000000E+00   0.0000000000E+00   0.0000000000E+00   0.0000000000E+00   0.0000000000E+00   0.0000000000E+00   0.0000000000E+00   0.0000000000E+00   0.0000000000E+00   0.6711268934E+01   0.1658479756E-01   0.2660598459E-01   0.2505941301E-01   0.2751617845E-01   0.2254418564E-01
   0.1006647342E+01   0.0000000000E+00   0.1632533621E-03   0.3921179485E-04   0.0000000000E+00  -0.4751672976E-05   0.6608130645E-02   0.0000000000E+00   0.1680050351E-03   0.6597860706E+01  -0.7815444695E-02   0.1049534642E-01   0.3824142541E-01   0.8658098187E-02  -0.5098193761E-02
   0.1006791374E+01   0.9978308034E+00   0.1029351783E-03   0.5687188584E-04  -0.1099771662E-04   0.7138986053E-06   0.6734502594E-02  -0.2158198883E-02   0.1022212797E-03   0.6594974682E+01  -0.1070146848E-01   0.1626739400E-01   0.4051463716E-01  -0.3436467420E-02  -0.8413661100E-02
   0.0000000000E+00   0.9978064800E+00   0.2528504076E-03   0.0000000000E+00  -0.9754011570E-05  -0.1740763022E-05   0.0000000000E+00  -0.2183766015E-02   0.2545911706E-03   0.6751159830E+01   0.2050748163E-01  -0.1720759611E-01   0.3213471839E-01   0.5688729827E-02   0.1314414624E-01
   0.0000000000E+00   0.0000000000E+00   0.9978967338E+00   0.0000000000E+00   0.0000000000E+00  -0.1846367128E-04   0.0000000000E+00   0.0000000000E+00  -0.2084802528E-02   0.6716613543E+01   0.4512453402E-02   0.3333371922E-01   0.2902164890E-01   0.3359465980E-01  -0.1323946750E-02
   0.1006642343E+01   0.0000000000E+00   0.9979689890E+00   0.4115078280E-04   0.0000000000E+00  -0.2173198909E-04   0.6601191855E-02   0.0000000000E+00  -0.2009278978E-02   0.6600071018E+01  -0.1223606781E-01   0.1270565798E-01   0.4016869870E-01   0.1607293573E-01  -0.7691580781E-03
   0.1006784818E+01   0.9978200661E+00   0.9979972120E+00   0.5875914012E-04  -0.1500208464E-04  -0.3100904061E-04   0.6726058935E-02  -0.2164931811E-02  -0.1971778994E-02   0.6597184993E+01  -0.1512209160E-01   0.1847770556E-01   0.4449922569E-01   0.1469378311E-01  -0.4084625418E-02
   0.0000000000E+00   0.9976993301E+00   0.9978196121E+00   0.0000000000E+00  -0.5994752197E-05  -0.2450429885E-04   0.0000000000E+00  -0.2294675103E-02  -0.2155883609E-02   0.6756417745E+01   0.8478484821E-02  -0.1043651413E-01   0.4012421098E-01   0.2924896569E-01  -0.1072398615E-01
   0.2013200000E+01   0.0000000000E+00   0.1346296420E-03   0.1000000000E-03   0.0000000000E+00  -0.1269626502E-04   0.1310000000E-01   0.0000000000E+00   0.1473259070E-03   0.6489073462E+01  -0.4680307821E-01   0.4351116251E-02   0.1545522524E-01  -0.8816856973E-02  -0.1708464821E-01
   0.2013200000E+01   0.9978099257E+00   0.2550824080E-04   0.1000000000E-03  -0.2108562815E-04  -0.5547386790E-05   0.1310000000E-01  -0.2168988692E-02   0.3105562759E-04   0.6452432306E+01  -0.4747602116E-01   0.4166521472E-01   0.1292634336E-01  -0.1104849752E-01  -0.1825542642E-01
   0.2013200000E+01   0.0000000000E+00   0.9979786862E+00   0.1000000000E-03   0.0000000000E+00  -0.3489908639E-04   0.1310000000E-01   0.0000000000E+00  -0.1986414666E-02   0.6490776064E+01  -0.4882515751E-01   0.4670593354E-02   0.1547757799E-01  -0.6566324969E-04   0.1908872498E-02
   0.2013200000E+01   0.9978012801E+00   0.9980526467E+00   0.1000000000E-03  -0.1446249497E-04  -0.2691228476E-04   0.1310000000E-01  -0.2184257393E-02  -0.1920440975E-02   0.6454221603E+01  -0.4954144781E-01   0.4194134447E-01   0.1303606989E-01   0.1651767674E-02   0.7380942946E-03
     1     2     3     4     5     6     7     8
     2     9    10     3     6    11    12     7
 VARIABLES = X,Y,Z,DU1,DU2,DU3,U1,U2,U3,S11,S22,S33,S12,S13,S23
 ZONE, T="0.1330D+01" F=FEPOINT, I=   12 J=    2 ET=BRICK
   0.0000000000E+00   0.0000000000E+00   0.0000000000E+00   0.0000000000E+00   0.0000000000E+00   0.0000000000E+00   0.0000000000E+00   0.0000000000E+00   0.0000000000E+00   0.6754380048E+01   0.1976787577E-01   0.2156737961E-01   0.2640457241E-01   0.2647963090E-01   0.2204943539E-01
   0.1006685463E+01   0.0000000000E+00   0.1581686434E-03   0.3812019656E-04   0.0000000000E+00  -0.5084718749E-05   0.6647342439E-02   0.0000000000E+00   0.1632533621E-03   0.6645598965E+01  -0.7180898424E-02   0.4213963838E-02   0.4139309971E-01   0.7123523966E-02  -0.4632440161E-02
   0.1006844659E+01   0.9978196562E+00   0.1038776921E-03   0.5328419980E-04  -0.1114716231E-04   0.9425137477E-06   0.6791374480E-02  -0.2169196599E-02   0.1029351783E-03   0.6643617830E+01  -0.9162033684E-02   0.8176234358E-02   0.4301035881E-01  -0.4255934150E-02  -0.8027948778E-02
   0.0000000000E+00   0.9977971747E+00   0.2505199131E-03   0.0000000000E+00  -0.9305243262E-05  -0.2330494488E-05   0.0000000000E+00  -0.2193520027E-02   0.2528504076E-03   0.6797379183E+01   0.2299117111E-01  -0.2465505054E-01   0.3292122367E-01   0.5177078970E-02   0.1283816766E-01
   0.0000000000E+00   0.0000000000E+00   0.9978782270E+00   0.0000000000E+00   0.0000000000E+00  -0.1850675201E-04   0.0000000000E+00   0.0000000000E+00  -0.2103266199E-02   0.6759855622E+01   0.7818821014E-02   0.2804086031E-01   0.3004253357E-01   0.3219316967E-01  -0.2673427359E-02
   0.1006681971E+01   0.0000000000E+00   0.9979466828E+00   0.3962878965E-04   0.0000000000E+00  -0.2230623288E-04   0.6642342638E-02   0.0000000000E+00  -0.2031010967E-02   0.6647862637E+01  -0.1170824325E-01   0.6477636249E-02   0.4338652218E-01   0.1434157446E-01  -0.1660737271E-02
   0.1006839696E+01   0.9978051931E+00   0.9979657173E+00   0.5487807847E-04  -0.1487304610E-04  -0.3149470822E-04   0.6784818075E-02  -0.2179933895E-02  -0.2002788035E-02   0.6645881502E+01  -0.1368937851E-01   0.1043990677E-01   0.4712012076E-01   0.1370092683E-01  -0.5056245887E-02
   0.0000000000E+00   0.9976941474E+00   0.9977961516E+00   0.0000000000E+00  -0.5182704368E-05  -0.2346051523E-04   0.0000000000E+00  -0.2300669855E-02  -0.2180387907E-02   0.6802772812E+01   0.1108308873E-01  -0.1814059746E-01   0.4025860435E-01   0.2784637232E-01  -0.1188469509E-01
   0.2013300000E+01   0.0000000000E+00   0.1218212594E-03   0.1000000000E-03   0.0000000000E+00  -0.1280838257E-04   0.1320000000E-01   0.0000000000E+00   0.1346296420E-03   0.6541344389E+01  -0.4920073401E-01  -0.2594897785E-02   0.1660578756E-01  -0.1123467631E-01  -0.1451137123E-01
   0.2013300000E+01   0.9977892094E+00   0.2129534162E-04   0.1000000000E-03  -0.2071627476E-04  -0.4212899187E-05   0.1320000000E-01  -0.2190074320E-02   0.2550824080E-04   0.6502672242E+01  -0.4809704108E-01   0.3497355579E-01   0.1332365450E-01  -0.1256812350E-01  -0.1525728082E-01
   0.2013300000E+01   0.0000000000E+00   0.9979438570E+00   0.1000000000E-03   0.0000000000E+00  -0.3482927986E-04   0.1320000000E-01   0.0000000000E+00  -0.2021313752E-02   0.6542506933E+01  -0.5052791568E-01  -0.2430260279E-02   0.1707758846E-01  -0.2512114084E-02   0.3721009093E-02
   0.2013300000E+01   0.9977875125E+00   0.9980249099E+00   0.1000000000E-03  -0.1376765526E-04  -0.2773679322E-04   0.1320000000E-01  -0.2198719888E-02  -0.1947353260E-02   0.6503916731E+01  -0.4946519511E-01   0.3509722093E-01   0.1432871484E-01   0.6763051001E-03   0.2975099505E-02
     1     2     3     4     5     6     7     8
     2     9    10     3     6    11    12     7
 VARIABLES = X,Y,Z,DU1,DU2,DU3,U1,U2,U3,S11,S22,S33,S12,S13,S23
 ZONE, T="0.1340D+01" F=FEPOINT, I=   12 J=    2 ET=BRICK
   0.0000000000E+00   0.0000000000E+00   0.0000000000E+00   0.0000000000E+00   0.0000000000E+00   0.0000000000E+00   0.0000000000E+00   0.0000000000E+00   0.0000000000E+00   0.6794630665E+01   0.2180640585E-01   0.1543431725E-01   0.2734662125E-01   0.2528701267E-01   0.2162037604E-01
   0.1006722625E+01   0.0000000000E+00   0.1526218976E-03   0.3716229150E-04   0.0000000000E+00  -0.5546745761E-05   0.6685462636E-02   0.0000000000E+00   0.1581686434E-03   0.6693549259E+01  -0.6245648879E-02  -0.1876645762E-02   0.4389027189E-01   0.5545647963E-02  -0.4003499074E-02
   0.1006894357E+01   0.9978083299E+00   0.1048655771E-03   0.4969807972E-04  -0.1132629604E-04   0.9878850263E-06   0.6844658680E-02  -0.2180343762E-02   0.1038776921E-03   0.6692496920E+01  -0.7297987658E-02   0.2280317960E-03   0.4484713175E-01  -0.5069334735E-02  -0.7442046278E-02
   0.0000000000E+00   0.9977882905E+00   0.2474346339E-03   0.0000000000E+00  -0.8884278491E-05  -0.3085279233E-05   0.0000000000E+00  -0.2202825270E-02   0.2505199131E-03   0.6840206354E+01   0.2444868444E-01  -0.3278365074E-01   0.3322653562E-01   0.4577257319E-02   0.1264168641E-01
   0.0000000000E+00   0.0000000000E+00   0.9978597436E+00   0.0000000000E+00   0.0000000000E+00  -0.1848348725E-04   0.0000000000E+00   0.0000000000E+00  -0.2121772951E-02   0.6800152470E+01   0.1006681353E-01   0.2165210419E-01   0.3066174771E-01   0.3053671092E-01  -0.3809747254E-02
   0.1006720275E+01   0.0000000000E+00   0.9979239034E+00   0.3830405070E-04   0.0000000000E+00  -0.2277936533E-04   0.6681971428E-02   0.0000000000E+00  -0.2053317200E-02   0.6695841623E+01  -0.1083037848E-01   0.4157190406E-03   0.4595456726E-01   0.1250326947E-01  -0.2424990905E-02
   0.1006890725E+01   0.9977904444E+00   0.9979339240E+00   0.5102860497E-04  -0.1474860872E-04  -0.3179330402E-04   0.6839696154E-02  -0.2194806942E-02  -0.2034282743E-02   0.6694789284E+01  -0.1188271726E-01   0.2520396599E-02   0.4908286955E-01   0.1256175390E-01  -0.5863538109E-02
   0.0000000000E+00   0.9976897583E+00   0.9977738912E+00   0.0000000000E+00  -0.4389162099E-05  -0.2226039063E-04   0.0000000000E+00  -0.2305852560E-02  -0.2203848423E-02   0.6845656728E+01   0.1274480785E-01  -0.2653014808E-01   0.3991036194E-01   0.2616211933E-01  -0.1278843688E-01
   0.2013400000E+01   0.0000000000E+00   0.1088754597E-03   0.1000000000E-03   0.0000000000E+00  -0.1294579969E-04   0.1330000000E-01   0.0000000000E+00   0.1218212594E-03   0.6596754695E+01  -0.4970307998E-01  -0.8069074086E-02   0.1750051170E-01  -0.1349973519E-01  -0.1172519668E-01
   0.2013400000E+01   0.9977689057E+00   0.1825648268E-04   0.1000000000E-03  -0.2030369416E-04  -0.3038858934E-05   0.1330000000E-01  -0.2210790595E-02   0.2129534162E-04   0.6556623256E+01  -0.4690110728E-01   0.2926039135E-01   0.1353431705E-01  -0.1391279805E-01  -0.1201811631E-01
   0.2013400000E+01   0.0000000000E+00   0.9979093141E+00   0.1000000000E-03   0.0000000000E+00  -0.3454285386E-04   0.1330000000E-01   0.0000000000E+00  -0.2056143032E-02   0.6597413962E+01  -0.5032563334E-01  -0.8105788179E-02   0.1842112317E-01  -0.4834190433E-02   0.5538549691E-02
   0.2013400000E+01   0.9977743422E+00   0.9979964538E+00   0.1000000000E-03  -0.1317024781E-04  -0.2845617708E-04   0.1330000000E-01  -0.2212487543E-02  -0.1975090053E-02   0.6557353955E+01  -0.4755937637E-01   0.2918796153E-01   0.1542911353E-01  -0.2354827947E-03   0.5245630056E-02
     1     2     3     4     5     6     7     8
     2     9    10     3     6    11    12     7
 VARIABLES = X,Y,Z,DU1,DU2,DU3,U1,U2,U3,S11,S22,S33,S12,S13,S23
 ZONE, T="0.1350D+01" F=FEPOINT, I=   12 J=    2 ET=BRICK
   0.0000000000E+00   0.0000000000E+00   0.0000000000E+00   0.0000000000E+00   0.0000000000E+00   0.0000000000E+00   0.0000000000E+00   0.0000000000E+00   0.0000000000E+00   0.6832433611E+01   0.2297445050E-01   0.8645715045E-02   0.2787135977E-01   0.2392870698E-01   0.2123206682E-01
   0.1006759006E+01   0.0000000000E+00   0.1464981690E-03   0.3638147606E-04   0.0000000000E+00  -0.6123728579E-05   0.6722624927E-02   0.0000000000E+00   0.1526218976E-03   0.6741870390E+01  -0.4870073255E-02  -0.7440762454E-02   0.4570545109E-01   0.3943131751E-02  -0.3231170061E-02
   0.1006940551E+01   0.9977967935E+00   0.1057213643E-03   0.4619461794E-04  -0.1153641438E-04   0.8557871639E-06   0.6894356760E-02  -0.2191670058E-02   0.1048655771E-03   0.6741758586E+01  -0.4981877276E-02  -0.7217154410E-02   0.4599645094E-01  -0.5863366346E-02  -0.6677366957E-02
   0.0000000000E+00   0.9977798093E+00   0.2434164585E-03   0.0000000000E+00  -0.8481133416E-05  -0.4018175373E-05   0.0000000000E+00  -0.2211709549E-02   0.2474346339E-03   0.6880018655E+01   0.2514504475E-01  -0.4110992345E-01   0.3303549303E-01   0.3888282038E-02   0.1253049651E-01
   0.0000000000E+00   0.0000000000E+00   0.9978413671E+00   0.0000000000E+00   0.0000000000E+00  -0.1837647999E-04   0.0000000000E+00   0.0000000000E+00  -0.2140256438E-02   0.6837925795E+01   0.1152678845E-01   0.1460119361E-01   0.3086437499E-01   0.2862775312E-01  -0.4731049551E-02
   0.1006757499E+01   0.0000000000E+00   0.9979007517E+00   0.3722369034E-04   0.0000000000E+00  -0.2315177355E-04   0.6720275478E-02   0.0000000000E+00  -0.2076096565E-02   0.6744167854E+01  -0.9465002448E-02  -0.5143297856E-02   0.4783949646E-01   0.1057824151E-01  -0.3063464029E-02
   0.1006938020E+01   0.9977758061E+00   0.9979020131E+00   0.4729544651E-04  -0.1463830688E-04  -0.3191082042E-04   0.6890724759E-02  -0.2209555550E-02  -0.2066076047E-02   0.6744056050E+01  -0.9576806470E-02  -0.4919689813E-02   0.5035008355E-01   0.1128703038E-01  -0.6509660924E-02
   0.0000000000E+00   0.9976861452E+00   0.9977529859E+00   0.0000000000E+00  -0.3613068765E-05  -0.2090530129E-04   0.0000000000E+00  -0.2310241722E-02  -0.2226108813E-02   0.6885453811E+01   0.1372589669E-01  -0.3512593089E-01   0.3906429431E-01   0.2420286305E-01  -0.1343261986E-01
   0.2013500000E+01   0.0000000000E+00   0.9580022684E-04   0.1000000000E-03   0.0000000000E+00  -0.1307523288E-04   0.1340000000E-01   0.0000000000E+00   0.1088754597E-03   0.6655223261E+01  -0.4829103761E-01  -0.1186689242E-01   0.1812509241E-01  -0.1557914839E-01  -0.8773409004E-02
   0.2013500000E+01   0.9977490291E+00   0.1624622570E-04   0.1000000000E-03  -0.1987665056E-04  -0.2010256977E-05   0.1340000000E-01  -0.2231094289E-02   0.1825648268E-04   0.6614214939E+01  -0.4388490935E-01   0.2473530107E-01   0.1354295885E-01  -0.1506617767E-01  -0.8596630121E-02
   0.2013500000E+01   0.0000000000E+00   0.9978752397E+00   0.1000000000E-03   0.0000000000E+00  -0.3407444490E-04   0.1340000000E-01   0.0000000000E+00  -0.2090685886E-02   0.6655414272E+01  -0.4820976412E-01  -0.1213917671E-01   0.1948570991E-01  -0.7007975019E-02   0.7324623614E-02
   0.2013500000E+01   0.9977616388E+00   0.9979673600E+00   0.1000000000E-03  -0.1270341276E-04  -0.2909378171E-04   0.1340000000E-01  -0.2225657791E-02  -0.2003546230E-02   0.6614462978E+01  -0.4383214986E-01   0.2443450279E-01   0.1630696477E-01  -0.1079965238E-02   0.7501402496E-02
     1     2     3     4     5     6     7     8
     2     9    10     3     6    11    12     7
 VARIABLES = X,Y,Z,DU1,DU2,DU3,U1,U2,U3,S11,S22,S33,S12,S13,S23
 ZONE, T="0.1360D+01" F=FEPOINT, I=   12 J=    2 ET=BRICK
   0.0000000000E+00   0.0000000000E+00   0.0000000000E+00   0.0000000000E+00   0.0000000000E+00   0.0000000000E+00   0.0000000000E+00   0.0000000000E+00   0.0000000000E+00   0.6868269204E+01   0.2357376419E-01   0.1664052383E-02   0.2796857328E-01   0.2239885203E-01   0.2085568318E-01
   0.1006794821E+01   0.0000000000E+00   0.1397028998E-03   0.3581499768E-04   0.0000000000E+00  -0.6795269270E-05   0.6759006404E-02   0.0000000000E+00   0.1464981690E-03   0.6790691579E+01  -0.2951025394E-02  -0.1219337478E-01   0.4681907136E-01   0.2336840890E-02  -0.2338684776E-02
   0.1006983401E+01   0.9977850120E+00   0.1062808903E-03   0.4284998319E-04  -0.1178155772E-04   0.5595260684E-06   0.6940551378E-02  -0.2203206472E-02   0.1057213643E-03   0.6791519665E+01  -0.2122939558E-02  -0.1384954645E-01   0.4643586333E-01  -0.6622347553E-02  -0.5759610163E-02
   0.0000000000E+00   0.9977717169E+00   0.2382849536E-03   0.0000000000E+00  -0.8092374209E-05  -0.5131504900E-05   0.0000000000E+00  -0.2220190682E-02   0.2434164585E-03   0.6917268351E+01   0.2537063273E-01  -0.4913196285E-01   0.3233600598E-01   0.3113105491E-02   0.1247549263E-01
   0.0000000000E+00   0.0000000000E+00   0.9978231896E+00   0.0000000000E+00   0.0000000000E+00  -0.1817748491E-04   0.0000000000E+00   0.0000000000E+00  -0.2158632918E-02   0.6873665944E+01   0.1249520337E-01   0.7345872676E-02   0.3063952860E-01   0.2646884880E-01  -0.5440758707E-02
   0.1006793927E+01   0.0000000000E+00   0.9978773215E+00   0.3642762777E-04   0.0000000000E+00  -0.2343015292E-04   0.6757499169E-02   0.0000000000E+00  -0.2099248339E-02   0.6792972196E+01  -0.7512259244E-02  -0.9912757855E-02   0.4901607929E-01   0.8584749641E-02  -0.3580813530E-02
   0.1006981778E+01   0.9977612522E+00   0.9978701530E+00   0.4375796037E-04  -0.1455392143E-04  -0.3186012580E-04   0.6938020205E-02  -0.2224193857E-02  -0.2097986867E-02   0.6793800282E+01  -0.6684173408E-02  -0.1156892953E-01   0.5089074711E-01   0.9886696656E-02  -0.7001738917E-02
   0.0000000000E+00   0.9976832859E+00   0.9977335794E+00   0.0000000000E+00  -0.2859276476E-05  -0.1940651211E-04   0.0000000000E+00  -0.2313854790E-02  -0.2247014115E-02   0.6922624512E+01   0.1431236126E-01  -0.4342985321E-01   0.3770835049E-01   0.2197627938E-01  -0.1382094926E-01
   0.2013600000E+01   0.0000000000E+00   0.8263805508E-04   0.1000000000E-03   0.0000000000E+00  -0.1316217177E-04   0.1350000000E-01   0.0000000000E+00   0.9580022684E-04   0.6716544260E+01  -0.4504807292E-01  -0.1390884901E-01   0.1846729130E-01  -0.1744009048E-01  -0.5706095239E-02
   0.2013600000E+01   0.9977295652E+00   0.1513807385E-04   0.1000000000E-03  -0.1946381872E-04  -0.1108151856E-05   0.1350000000E-01  -0.2250970940E-02   0.1624622570E-04   0.6675244007E+01  -0.3914604757E-01   0.2148937844E-01   0.1333344253E-01  -0.1601185279E-01  -0.5054782145E-02
   0.2013600000E+01   0.0000000000E+00   0.9978417765E+00   0.1000000000E-03   0.0000000000E+00  -0.3346312658E-04   0.1350000000E-01   0.0000000000E+00  -0.2124760331E-02   0.6716300104E+01  -0.4427468205E-01  -0.1443808433E-01   0.2025121988E-01  -0.9014269748E-02   0.9042005811E-02
   0.2013600000E+01   0.9977492413E+00   0.9979376846E+00   0.1000000000E-03  -0.1239746207E-04  -0.2967540391E-04   0.1350000000E-01  -0.2238361204E-02  -0.2032640012E-02   0.6675040430E+01  -0.3839294604E-01   0.2093985377E-01   0.1693173362E-01  -0.1856938262E-02   0.9693318904E-02
     1     2     3     4     5     6     7     8
     2     9    10     3     6    11    12     7
 VARIABLES = X,Y,Z,DU1,DU2,DU3,U1,U2,U3,S11,S22,S33,S12,S13,S23
 ZONE, T="0.1370D+01" F=FEPOINT, I=   12 J=    2 ET=BRICK
   0.0000000000E+00   0.0000000000E+00   0.0000000000E+00   0.0000000000E+00   0.0000000000E+00   0.0000000000E+00   0.0000000000E+00   0.0000000000E+00   0.0000000000E+00   0.6902661147E+01   0.2391188071E-01  -0.5052163664E-02   0.2763275238E-01   0.2069621642E-01   0.2046050862E-01
   0.1006830314E+01   0.0000000000E+00   0.1321669822E-03   0.3549226674E-04   0.0000000000E+00  -0.7535917558E-05   0.6794821401E-02   0.0000000000E+00   0.1397028998E-03   0.6840104389E+01  -0.4312498833E-03  -0.1591544675E-01   0.4722033508E-01   0.7496401842E-03  -0.1351781973E-02
   0.1007023135E+01   0.9977729442E+00   0.1063996532E-03   0.3973328939E-04  -0.1206776888E-04   0.1187628131E-06   0.6983401361E-02  -0.2214988030E-02   0.1062808903E-03   0.6841859393E+01   0.1323754368E-02  -0.1942545525E-01   0.4615041066E-01  -0.7328664637E-02  -0.4717703537E-02
   0.0000000000E+00   0.9977639955E+00   0.2318683338E-03   0.0000000000E+00  -0.7721407709E-05  -0.6416619861E-05   0.0000000000E+00  -0.2228283056E-02   0.2382849536E-03   0.6952459398E+01   0.2541987383E-01  -0.5635840817E-01   0.3112037414E-01   0.2258705164E-02   0.1244476265E-01
   0.0000000000E+00   0.0000000000E+00   0.9978053019E+00   0.0000000000E+00   0.0000000000E+00  -0.1788769844E-04   0.0000000000E+00   0.0000000000E+00  -0.2176810403E-02   0.6907907593E+01   0.1327291128E-01   0.3403588348E-03   0.2998108713E-01   0.2406380637E-01  -0.5946610200E-02
   0.1006829874E+01   0.0000000000E+00   0.9978536951E+00   0.3594687540E-04   0.0000000000E+00  -0.2362642204E-04   0.6793926796E-02   0.0000000000E+00  -0.2122678492E-02   0.6842348336E+01  -0.4919145302E-02  -0.1367149904E-01   0.4946812359E-01   0.6539670964E-02  -0.3984288350E-02
   0.1007022266E+01   0.9977467437E+00   0.9978384933E+00   0.4048795240E-04  -0.1450856150E-04  -0.3165974434E-04   0.6981778166E-02  -0.2238747779E-02  -0.2129846993E-02   0.6844103340E+01  -0.3164141050E-02  -0.1718150754E-01   0.5068178840E-01   0.8370419964E-02  -0.7350209913E-02
   0.0000000000E+00   0.9976811473E+00   0.9977157943E+00   0.0000000000E+00  -0.2138609410E-05  -0.1778511963E-04   0.0000000000E+00  -0.2316714067E-02  -0.2266420627E-02   0.6957681977E+01   0.1479283802E-01  -0.5095395205E-01   0.3583494393E-01   0.1949185320E-01  -0.1396235616E-01
   0.2013700000E+01   0.0000000000E+00   0.6946453778E-04   0.1000000000E-03   0.0000000000E+00  -0.1317351729E-04   0.1360000000E-01   0.0000000000E+00   0.8263805508E-04   0.6780394438E+01  -0.4015775805E-01  -0.1424215939E-01   0.1851765953E-01  -0.1905086048E-01  -0.2575150481E-02
   0.2013700000E+01   0.9977104735E+00   0.1482599074E-04   0.1000000000E-03  -0.1909178710E-04  -0.3120831045E-06   0.1360000000E-01  -0.2270434759E-02   0.1513807385E-04   0.6739381534E+01  -0.3288040366E-01   0.1949339008E-01   0.1289018893E-01  -0.1673415802E-01  -0.1456539272E-02
   0.2013700000E+01   0.0000000000E+00   0.9978090268E+00   0.1000000000E-03   0.0000000000E+00  -0.3274972498E-04   0.1360000000E-01   0.0000000000E+00  -0.2158223457E-02   0.6779746081E+01  -0.3871496830E-01  -0.1503659205E-01   0.2070070264E-01  -0.1083838887E-01   0.1065394705E-01
   0.2013700000E+01   0.9977369635E+00   0.9979074578E+00   0.1000000000E-03  -0.1227783208E-04  -0.3022676210E-04   0.1360000000E-01  -0.2250758666E-02  -0.2062315415E-02   0.6738757044E+01  -0.3144954752E-01   0.1868702380E-01   0.1727417547E-01  -0.2569136854E-02   0.1177255826E-01
     1     2     3     4     5     6     7     8
     2     9    10     3     6    11    12     7
 VARIABLES = X,Y,Z,DU1,DU2,DU3,U1,U2,U3,S11,S22,S33,S12,S13,S23
 ZONE, T="0.1380D+01" F=FEPOINT, I=   12 J=    2 ET=BRICK
   0.0000000000E+00   0.0000000000E+00   0.0000000000E+00   0.0000000000E+00   0.0000000000E+00   0.0000000000E+00   0.0000000000E+00   0.0000000000E+00   0.0000000000E+00   0.6936152090E+01   0.2428133699E-01  -0.1107415760E-01   0.2686383700E-01   0.1882483819E-01   0.2001592187E-01
   0.1006865747E+01   0.0000000000E+00   0.1238502289E-03   0.3543356113E-04   0.0000000000E+00  -0.8316753331E-05   0.6830313668E-02   0.0000000000E+00   0.1321669822E-03   0.6890157509E+01   0.2694823803E-02  -0.1846413483E-01   0.4690802927E-01  -0.7939777469E-03  -0.2977464106E-03
   0.1007060039E+01   0.9977605420E+00   0.1059576866E-03   0.3690480004E-04  -0.1240217819E-04  -0.4419665974E-06   0.7023134650E-02  -0.2227055799E-02   0.1063996532E-03   0.6892814454E+01   0.5351769041E-02  -0.2377802530E-01   0.4513414667E-01  -0.7963375253E-02  -0.3582694467E-02
   0.0000000000E+00   0.9977566173E+00   0.2240140453E-03   0.0000000000E+00  -0.7378276256E-05  -0.7854288478E-05   0.0000000000E+00  -0.2236004464E-02   0.2318683338E-03   0.6986123728E+01   0.2557106430E-01  -0.6233552289E-01   0.2938671722E-01   0.1335968335E-02   0.1240569456E-01
   0.0000000000E+00   0.0000000000E+00   0.9977877844E+00   0.0000000000E+00   0.0000000000E+00  -0.1751745486E-04   0.0000000000E+00   0.0000000000E+00  -0.2194698101E-02   0.6941205070E+01   0.1414461969E-01  -0.5990420264E-02   0.2888845226E-01   0.2141892777E-01  -0.6259624425E-02
   0.1006865676E+01   0.0000000000E+00   0.9978299387E+00   0.3580222644E-04   0.0000000000E+00  -0.2375637056E-04   0.6829873672E-02   0.0000000000E+00  -0.2146304914E-02   0.6892347474E+01  -0.1685106939E-02  -0.1627416946E-01   0.4918937341E-01   0.4459197895E-02  -0.4283164268E-02
   0.1007059814E+01   0.9977322280E+00   0.9978071609E+00   0.3754782813E-04  -0.1451561085E-04  -0.3133237633E-04   0.7022266118E-02  -0.2253256340E-02  -0.2161506738E-02   0.6895004419E+01   0.9718382988E-03  -0.2158805993E-01   0.4970971480E-01   0.6748251201E-02  -0.7568112324E-02
   0.0000000000E+00   0.9976796798E+00   0.9976997228E+00   0.0000000000E+00  -0.1467501488E-05  -0.1607142375E-04   0.0000000000E+00  -0.2318852676E-02  -0.2284205746E-02   0.6991168121E+01   0.1543864033E-01  -0.5724749222E-01   0.3344238762E-01   0.1676173503E-01  -0.1386985174E-01
   0.2013800000E+01   0.0000000000E+00   0.5638441070E-04   0.1000000000E-03   0.0000000000E+00  -0.1308012708E-04   0.1370000000E-01   0.0000000000E+00   0.6946453778E-04   0.6846346497E+01  -0.3389517166E-01  -0.1303419877E-01   0.1827031089E-01  -0.2038203630E-01   0.5667477232E-03
   0.2013800000E+01   0.9976916903E+00   0.1522354406E-04   0.1000000000E-03  -0.1878318016E-04   0.3975533183E-06   0.1370000000E-01  -0.2289526546E-02   0.1482599074E-04   0.6806186384E+01  -0.2537337342E-01   0.1860411541E-01   0.1219966546E-01  -0.1721908147E-01   0.2133416631E-02
   0.2013800000E+01   0.0000000000E+00   0.9977770527E+00   0.1000000000E-03   0.0000000000E+00  -0.3197416558E-04   0.1370000000E-01   0.0000000000E+00  -0.2190973182E-02   0.6845322556E+01  -0.3181653225E-01  -0.1408889717E-01   0.2082126388E-01  -0.1246977459E-01   0.1212500569E-01
   0.2013800000E+01   0.9977246003E+00   0.9978766868E+00   0.1000000000E-03  -0.1236321291E-04  -0.3077103918E-04   0.1370000000E-01  -0.2263036498E-02  -0.2092542178E-02   0.6805171030E+01  -0.2329902733E-01   0.1754512368E-01   0.1730801130E-01  -0.3221595258E-02   0.1369167460E-01
     1     2     3     4     5     6     7     8
     2     9    10     3     6    11    12     7
 VARIABLES = X,Y,Z,DU1,DU2,DU3,U1,U2,U3,S11,S22,S33,S12,S13,S23
 ZONE, T="0.1390D+01" F=FEPOINT, I=   12 J=    2 ET=BRICK
   0.0000000000E+00   0.0000000000E+00   0.0000000000E+00   0.0000000000E+00   0.0000000000E+00   0.0000000000E+00   0.0000000000E+00   0.0000000000E+00   0.0000000000E+00   0.6969280061E+01   0.2494115786E-01  -0.1602554132E-01   0.2566793339E-01   0.1679438613E-01   0.1949327066E-01
   0.1006901396E+01   0.0000000000E+00   0.1147431088E-03   0.3564918067E-04   0.0000000000E+00  -0.9107120085E-05   0.6865747229E-02   0.0000000000E+00   0.1238502289E-03   0.6940854663E+01   0.6379209815E-02  -0.1977752053E-01   0.4589125765E-01  -0.2268423849E-02   0.7955468371E-03
   0.1007094454E+01   0.9977477500E+00   0.1048627613E-03   0.3441452823E-04  -0.1279199194E-04  -0.1094925308E-05   0.7060039450E-02  -0.2239457977E-02   0.1059576866E-03   0.6944377134E+01   0.9901681259E-02  -0.2682246342E-01   0.4339162739E-01  -0.8506941484E-02  -0.2386638260E-02
   0.0000000000E+00   0.9977495383E+00   0.2145983949E-03   0.0000000000E+00  -0.7078991433E-05  -0.9415650384E-05   0.0000000000E+00  -0.2243382740E-02   0.2240140453E-03   0.7018798224E+01   0.2606843405E-01  -0.6667098043E-01   0.2714042203E-01   0.3593747635E-03   0.1232698110E-01
   0.0000000000E+00   0.0000000000E+00   0.9977706991E+00   0.0000000000E+00   0.0000000000E+00  -0.1708537825E-04   0.0000000000E+00   0.0000000000E+00  -0.2212215556E-02   0.6974108540E+01   0.1536062849E-01  -0.1127349156E-01   0.2736727828E-01   0.1854421889E-01  -0.6393086986E-02
   0.1006901679E+01   0.0000000000E+00   0.9978061006E+00   0.3600339083E-04   0.0000000000E+00  -0.2383814694E-04   0.6865675898E-02   0.0000000000E+00  -0.2170061284E-02   0.6942976119E+01   0.2136296352E-02  -0.1765606380E-01   0.4818431648E-01   0.2359585817E-02  -0.4488160330E-02
   0.1007094803E+01   0.9977176404E+00   0.9977762576E+00   0.3498913915E-04  -0.1458761752E-04  -0.3090326821E-04   0.7059813946E-02  -0.2267771951E-02  -0.2192839114E-02   0.6946498590E+01   0.5658767796E-02  -0.2470100668E-01   0.4797221216E-01   0.5031329315E-02  -0.7670345427E-02
   0.0000000000E+00   0.9976788126E+00   0.9976854190E+00   0.0000000000E+00  -0.8672434759E-06  -0.1430378209E-04   0.0000000000E+00  -0.2320320178E-02  -0.2300277170E-02   0.7023630392E+01   0.1648606042E-01  -0.6192077493E-01   0.3053634533E-01   0.1380159639E-01  -0.1355937655E-01
   0.2013900000E+01   0.0000000000E+00   0.4352530983E-04   0.1000000000E-03   0.0000000000E+00  -0.1285910087E-04   0.1380000000E-01   0.0000000000E+00   0.5638441070E-04   0.6913887854E+01  -0.2661262451E-01  -0.1055820278E-01   0.1772369517E-01  -0.2140766368E-01   0.3667172802E-02
   0.2013900000E+01   0.9976731353E+00   0.1626087644E-04   0.1000000000E-03  -0.1855502328E-04   0.1037332374E-05   0.1380000000E-01  -0.2308309726E-02   0.1522354406E-04   0.6875124137E+01  -0.1698545416E-01   0.1857834325E-01   0.1125194601E-01  -0.1745522036E-01   0.5650987216E-02
   0.2013900000E+01   0.0000000000E+00   0.9977458796E+00   0.1000000000E-03   0.0000000000E+00  -0.3117302038E-04   0.1380000000E-01   0.0000000000E+00  -0.2222947348E-02   0.6912514358E+01  -0.2394206200E-01  -0.1185526910E-01   0.2060493517E-01  -0.1390147710E-01   0.1342186064E-01
   0.2013900000E+01   0.9977119363E+00   0.9978453601E+00   0.1000000000E-03  -0.1266397854E-04  -0.3132666429E-04   0.1380000000E-01  -0.2275399711E-02  -0.2123313217E-02   0.6873746952E+01  -0.1431304739E-01   0.1728312119E-01   0.1701165947E-01  -0.3820900388E-02   0.1540567506E-01
     1     2     3     4     5     6     7     8
     2     9    10     3     6    11    12     7
 VARIABLES = X,Y,Z,DU1,DU2,DU3,U1,U2,U3,S11,S22,S33,S12,S13,S23
 ZONE, T="0.1400D+01" F=FEPOINT, I=   12 J=    2 ET=BRICK
   0.0000000000E+00   0.0000000000E+00   0.0000000000E+00   0.0000000000E+00   0.0000000000E+00   0.0000000000E+00   0.0000000000E+00   0.0000000000E+00   0.0000000000E+00   0.7002556838E+01   0.2610152012E-01  -0.1960080465E-01   0.2405795080E-01   0.1462022052E-01   0.1886753626E-01
   0.1006937535E+01   0.0000000000E+00   0.1048667159E-03   0.3613908541E-04   0.0000000000E+00  -0.9876392870E-05   0.6901396410E-02   0.0000000000E+00   0.1147431088E-03   0.6992155633E+01   0.1052243897E-01  -0.1987380953E-01   0.4419002947E-01  -0.3647685751E-02   0.1900544425E-02
   0.1007126755E+01   0.9977345066E+00   0.1030518348E-03   0.3230127329E-04  -0.1324346495E-04  -0.1810926444E-05   0.7094453979E-02  -0.2252249969E-02   0.1048627613E-03   0.6996496571E+01   0.1486337691E-01  -0.2855568541E-01   0.4093926902E-01  -0.8940056111E-02  -0.1161527157E-02
   0.0000000000E+00   0.9977426938E+00   0.2035347329E-03   0.0000000000E+00  -0.6844466089E-05  -0.1106366196E-04   0.0000000000E+00  -0.2250461732E-02   0.2145983949E-03   0.7051003448E+01   0.2710734218E-01  -0.6905323758E-01   0.2439550589E-01  -0.6535072239E-03   0.1218041956E-01
   0.0000000000E+00   0.0000000000E+00   0.9977540820E+00   0.0000000000E+00   0.0000000000E+00  -0.1661706781E-04   0.0000000000E+00   0.0000000000E+00  -0.2229300935E-02   0.7007142134E+01   0.1712175494E-01  -0.1520633644E-01   0.2543012153E-01   0.1545448399E-01  -0.6361591240E-02
   0.1006938228E+01   0.0000000000E+00   0.9977822099E+00   0.3654861582E-04   0.0000000000E+00  -0.2389069783E-04   0.6901679289E-02   0.0000000000E+00  -0.2193899431E-02   0.6994197014E+01   0.6439676859E-02  -0.1783242848E-01   0.4646884267E-01   0.2578831829E-03  -0.4610862481E-02
   0.1007127655E+01   0.9977029052E+00   0.9977458591E+00   0.3285156754E-04  -0.1473520751E-04  -0.3039854618E-04   0.7094803085E-02  -0.2282359568E-02  -0.2223742382E-02   0.6998537951E+01   0.1078061480E-01  -0.2651430435E-01   0.4547960280E-01   0.3232574071E-02  -0.7672934063E-02
   0.0000000000E+00   0.9976784497E+00   0.9976728920E+00   0.0000000000E+00  -0.3628953103E-06  -0.1252702691E-04   0.0000000000E+00  -0.2321187421E-02  -0.2314580952E-02   0.7055600273E+01   0.1812181283E-01  -0.6466453354E-01   0.2713120103E-01   0.1063141514E-01  -0.1304870794E-01
   0.2014000000E+01   0.0000000000E+00   0.3102965336E-04   0.1000000000E-03   0.0000000000E+00  -0.1249565646E-04   0.1390000000E-01   0.0000000000E+00   0.4352530983E-04   0.6982443775E+01  -0.1872055759E-01  -0.7172245769E-02   0.1688131932E-01  -0.2210642079E-01   0.6674967311E-02
   0.2014000000E+01   0.9976547178E+00   0.1787985499E-04   0.1000000000E-03  -0.1841745895E-04   0.1618978550E-05   0.1390000000E-01  -0.2326864749E-02   0.1626087644E-04   0.6945590503E+01  -0.8133040248E-02   0.1909350835E-01   0.1004224333E-01  -0.1743472626E-01   0.9033933190E-02
   0.2014000000E+01   0.0000000000E+00   0.9977155022E+00   0.1000000000E-03   0.0000000000E+00  -0.3037740770E-04   0.1390000000E-01   0.0000000000E+00  -0.2254120368E-02   0.6980743912E+01  -0.1551166017E-01  -0.8681280100E-02   0.2004948250E-01  -0.1512954638E-01   0.1451408570E-01
   0.2014000000E+01   0.9976987553E+00   0.9978134546E+00   0.1000000000E-03  -0.1318102442E-04  -0.3190548245E-04   0.1390000000E-01  -0.2288063689E-02  -0.2154639881E-02   0.6943879112E+01  -0.4918378655E-02   0.1759023819E-01   0.1636992326E-01  -0.4374388256E-02   0.1687305158E-01
     1     2     3     4     5     6     7     8
     2     9    10     3     6    11    12     7
 VARIABLES = X,Y,Z,DU1,DU2,DU3,U1,U2,U3,S11,S22,S33,S12,S13,S23
 ZONE, T="0.1410D+01" F=FEPOINT, I=   12 J=    2 ET=BRICK
   0.0000000000E+00   0.0000000000E+00   0.0000000000E+00   0.0000000000E+00   0.0000000000E+00   0.0000000000E+00   0.0000000000E+00   0.0000000000E+00   0.0000000000E+00   0.7036449179E+01   0.2791226943E-01  -0.2157888837E-01   0.2205410581E-01   0.1232314994E-01   0.1811871090E-01
   0.1006974429E+01   0.0000000000E+00   0.9427104874E-04   0.3689302620E-04   0.0000000000E+00  -0.1059566717E-04   0.6937535495E-02   0.0000000000E+00   0.1048667159E-03   0.7043980230E+01   0.1497932651E-01  -0.1884532002E-01   0.4183564877E-01  -0.4906114037E-02   0.2990849809E-02
   0.1007157347E+01   0.9977207456E+00   0.1004907898E-03   0.3059211356E-04  -0.1376093629E-04  -0.2561044966E-05   0.7126755252E-02  -0.2265493434E-02   0.1030518348E-03   0.7049082915E+01   0.2008201131E-01  -0.2905068963E-01   0.3780646909E-01  -0.9244519752E-02   0.6170086183E-04
   0.0000000000E+00   0.9977359947E+00   0.1907798022E-03   0.0000000000E+00  -0.6699123756E-05  -0.1275493079E-04   0.0000000000E+00  -0.2257306198E-02   0.2035347329E-03   0.7083224997E+01   0.2882326088E-01  -0.6926569870E-01   0.2117579672E-01  -0.1682684844E-02   0.1194242173E-01
   0.0000000000E+00   0.0000000000E+00   0.9977379386E+00   0.0000000000E+00   0.0000000000E+00  -0.1614341556E-04   0.0000000000E+00   0.0000000000E+00  -0.2245918002E-02   0.7040784918E+01   0.1956811020E-01  -0.1757046927E-01   0.2309695857E-01   0.1217022307E-01  -0.6180189992E-02
   0.1006975653E+01   0.0000000000E+00   0.9977582776E+00   0.3742480389E-04   0.0000000000E+00  -0.2393226857E-04   0.6938227905E-02   0.0000000000E+00  -0.2217790129E-02   0.7045932996E+01   0.1107379458E-01  -0.1689255406E-01   0.4407069702E-01  -0.1827420679E-02  -0.4663177399E-02
   0.1007158817E+01   0.9976879391E+00   0.9977160154E+00   0.3116237079E-04  -0.1496610030E-04  -0.2984362384E-04   0.7127654653E-02  -0.2297094776E-02  -0.2254140928E-02   0.7051035681E+01   0.1617647938E-01  -0.2709792367E-01   0.4225605831E-01   0.1367309333E-02  -0.7592326346E-02
   0.0000000000E+00   0.9976784677E+00   0.9976621015E+00   0.0000000000E+00   0.1806410480E-07  -0.1079054445E-04   0.0000000000E+00  -0.2321550317E-02  -0.2327107979E-02   0.7087574408E+01   0.2047226593E-01  -0.6526411532E-01   0.2325124861E-01   0.7276125830E-02  -0.1235647915E-01
   0.2014100000E+01   0.0000000000E+00   0.1904517993E-04   0.1000000000E-03   0.0000000000E+00  -0.1198447344E-04   0.1400000000E-01   0.0000000000E+00   0.3102965336E-04   0.7051403616E+01  -0.1066476496E-01  -0.3292936942E-02   0.1575236430E-01  -0.2246269905E-01   0.9541223513E-02
   0.2014100000E+01   0.9976363449E+00   0.2002787329E-04   0.1000000000E-03  -0.1837290045E-04   0.2148018300E-05   0.1400000000E-01  -0.2345282208E-02   0.1787985499E-04   0.7016937969E+01   0.7344156239E-03   0.1977352931E-01   0.8572314029E-02  -0.1715418286E-01   0.1222309848E-01
   0.2014100000E+01   0.0000000000E+00   0.9976858909E+00   0.1000000000E-03   0.0000000000E+00  -0.2961137131E-04   0.1400000000E-01   0.0000000000E+00  -0.2284497776E-02   0.7049397485E+01  -0.6979824663E-02  -0.4971746571E-02   0.1915910088E-01  -0.1615238546E-01   0.1537486635E-01
   0.2014100000E+01   0.9976848502E+00   0.9977809432E+00   0.1000000000E-03  -0.1390509651E-04  -0.3251143407E-04   0.1400000000E-01  -0.2301244714E-02  -0.2186545363E-02   0.7014918167E+01   0.4426191644E-02   0.1810155540E-01   0.1537553343E-01  -0.4889335367E-02   0.1805674131E-01
     1     2     3     4     5     6     7     8
     2     9    10     3     6    11    12     7
 VARIABLES = X,Y,Z,DU1,DU2,DU3,U1,U2,U3,S11,S22,S33,S12,S13,S23
 ZONE, T="0.1420D+01" F=FEPOINT, I=   12 J=    2 ET=BRICK
   0.0000000000E+00   0.0000000000E+00   0.0000000000E+00   0.0000000000E+00   0.0000000000E+00   0.0000000000E+00   0.0000000000E+00   0.0000000000E+00   0.0000000000E+00   0.7071363594E+01   0.3045569760E-01  -0.2183141758E-01   0.1968424662E-01   0.9928899214E-02   0.1723283062E-01
   0.1007012320E+01   0.0000000000E+00   0.8303178329E-04   0.3789115179E-04   0.0000000000E+00  -0.1123926545E-04   0.6974428521E-02   0.0000000000E+00   0.9427104874E-04   0.7096214814E+01   0.1956794037E-01  -0.1684791714E-01   0.3887085277E-01  -0.6019284541E-02   0.4041954057E-02
   0.1007186650E+01   0.9977063996E+00   0.9717260608E-04   0.2930235377E-04  -0.1434600028E-04  -0.3318183765E-05   0.7157347366E-02  -0.2279254370E-02   0.1004907898E-03   0.7102014007E+01   0.2536713384E-01  -0.2844630408E-01   0.3403639453E-01  -0.9404122789E-02   0.1254041123E-02
   0.0000000000E+00   0.9977293254E+00   0.1763379787E-03   0.0000000000E+00  -0.6669278743E-05  -0.1444182342E-04   0.0000000000E+00  -0.2264005322E-02   0.1907798022E-03   0.7115898149E+01   0.3128494297E-01  -0.6719521840E-01   0.1751583714E-01  -0.2706529594E-02   0.1159517111E-01
   0.0000000000E+00   0.0000000000E+00   0.9977222399E+00   0.0000000000E+00   0.0000000000E+00  -0.1569866975E-04   0.0000000000E+00   0.0000000000E+00  -0.2262061418E-02   0.7075455416E+01   0.2277212663E-01  -0.1823966953E-01   0.2039552591E-01   0.8718263411E-02  -0.5863692482E-02
   0.1007014261E+01   0.0000000000E+00   0.9977342985E+00   0.3860811607E-04   0.0000000000E+00  -0.2397906420E-04   0.6975652709E-02   0.0000000000E+00  -0.2241722398E-02   0.7098073422E+01   0.1585072313E-01  -0.1498930852E-01   0.4102967614E-01  -0.3875887998E-02  -0.4656836143E-02
   0.1007188753E+01   0.9976726548E+00   0.9976867537E+00   0.2993628855E-04  -0.1528429522E-04  -0.2926178391E-04   0.7158817024E-02  -0.2312060876E-02  -0.2283984552E-02   0.7103872615E+01   0.2164991659E-01  -0.2658769545E-01   0.3834047046E-01  -0.5462365772E-03  -0.7444749077E-02
   0.0000000000E+00   0.9976787150E+00   0.9976529553E+00   0.0000000000E+00   0.2472659752E-06  -0.9146129526E-05   0.0000000000E+00  -0.2321532252E-02  -0.2337898524E-02   0.7119999019E+01   0.2359684843E-01  -0.6360799392E-01   0.1893161032E-01   0.3766077470E-02  -0.1150135199E-01
   0.2014200000E+01   0.0000000000E+00   0.7714763118E-05   0.1000000000E-03   0.0000000000E+00  -0.1133041681E-04   0.1410000000E-01   0.0000000000E+00   0.1904517993E-04   0.7120148722E+01  -0.2901323316E-02   0.6344012151E-03   0.1435214883E-01  -0.2246754316E-01   0.1222020540E-01
   0.2014200000E+01   0.9976179292E+00   0.2265086861E-04   0.1000000000E-03  -0.1841568175E-04   0.2622995325E-05   0.1410000000E-01  -0.2363655108E-02   0.2002787329E-04   0.7088504224E+01   0.9159489175E-02   0.2021808631E-01   0.6851641843E-02  -0.1661536155E-01   0.1516355636E-01
   0.2014200000E+01   0.0000000000E+00   0.9976570000E+00   0.1000000000E-03   0.0000000000E+00  -0.2889083199E-04   0.1410000000E-01   0.0000000000E+00  -0.2314109147E-02   0.7117853105E+01   0.1189836253E-02  -0.1161141137E-02   0.1794494559E-01  -0.1697011427E-01   0.1598164170E-01
   0.2014200000E+01   0.9976700335E+00   0.9977478034E+00   0.1000000000E-03  -0.1481666646E-04  -0.3313983226E-04   0.1410000000E-01  -0.2315149810E-02  -0.2219056798E-02   0.7086199560E+01   0.1325517231E-01   0.1842706752E-01   0.1403044983E-01  -0.5372196186E-02   0.1892499266E-01
     1     2     3     4     5     6     7     8
     2     9    10     3     6    11    12     7
 VARIABLES = X,Y,Z,DU1,DU2,DU3,U1,U2,U3,S11,S22,S33,S12,S13,S23
 ZONE, T="0.1430D+01" F=FEPOINT, I=   12 J=    2 ET=BRICK
   0.0000000000E+00   0.0000000000E+00   0.0000000000E+00   0.0000000000E+00   0.0000000000E+00   0.0000000000E+00   0.0000000000E+00   0.0000000000E+00   0.0000000000E+00   0.7107635123E+01   0.3374371724E-01  -0.2032550404E-01   0.1698395615E-01   0.7467320791E-02   0.1620262817E-01
   0.1007051425E+01   0.0000000000E+00   0.7124580861E-04   0.3910505240E-04   0.0000000000E+00  -0.1178597468E-04   0.7012319673E-02   0.0000000000E+00   0.8303178329E-04   0.7148720824E+01   0.2408107410E-01  -0.1408682608E-01   0.3534965714E-01  -0.6964893350E-02   0.5031841932E-02
   0.1007215086E+01   0.9976914028E+00   0.9311420322E-04   0.2843590470E-04  -0.1499687271E-04  -0.4058402855E-05   0.7186649719E-02  -0.2293600370E-02   0.9717260608E-04   0.7155144027E+01   0.3050427756E-01  -0.2693323298E-01   0.2968635328E-01  -0.9405484897E-02   0.2389164278E-02
   0.0000000000E+00   0.9977225440E+00   0.1602632556E-03   0.0000000000E+00  -0.6781388221E-05  -0.1607472317E-04   0.0000000000E+00  -0.2270674600E-02   0.1763379787E-03   0.7149396269E+01   0.3449190324E-01  -0.6283483626E-01   0.1346143127E-01  -0.3702648187E-02   0.1112738735E-01
   0.0000000000E+00   0.0000000000E+00   0.9977069215E+00   0.0000000000E+00   0.0000000000E+00  -0.1531836463E-04   0.0000000000E+00   0.0000000000E+00  -0.2277760088E-02   0.7111500144E+01   0.2673596565E-01  -0.1718277398E-01   0.1736144028E-01   0.5132072088E-02  -0.5426130935E-02
   0.1007054326E+01   0.0000000000E+00   0.9977102544E+00   0.4006502529E-04   0.0000000000E+00  -0.2404415407E-04   0.7014260825E-02   0.0000000000E+00  -0.2265701462E-02   0.7150482609E+01   0.2055750390E-01  -0.1232504098E-01   0.3739752508E-01  -0.5864813202E-02  -0.4602963246E-02
   0.1007217929E+01   0.9976569653E+00   0.9976580806E+00   0.2917589163E-04  -0.1568948478E-04  -0.2867301753E-04   0.7188753312E-02  -0.2327345171E-02  -0.2313246336E-02   0.7156905812E+01   0.2698070735E-01  -0.2517144788E-01   0.3378689646E-01  -0.2486599336E-02  -0.7245640899E-02
   0.0000000000E+00   0.9976790121E+00   0.9976453096E+00   0.0000000000E+00   0.2970697490E-06  -0.7645734253E-05   0.0000000000E+00  -0.2321284987E-02  -0.2347044653E-02   0.7153258085E+01   0.2748575412E-01  -0.5969050372E-01   0.1421880323E-01   0.1372513119E-03  -0.1050137176E-01
   0.2014300000E+01   0.0000000000E+00  -0.2833829509E-05   0.1000000000E-03   0.0000000000E+00  -0.1054859263E-04   0.1420000000E-01   0.0000000000E+00   0.7714763118E-05   0.7188080459E+01   0.4129248529E-02   0.4167100805E-02   0.1270239793E-01  -0.2211939895E-01   0.1467019298E-01
   0.2014300000E+01   0.9975993970E+00   0.2568616725E-04   0.1000000000E-03  -0.1853223082E-04   0.3035298640E-05   0.1420000000E-01  -0.2382070790E-02   0.2265086861E-04   0.7159640843E+01   0.1670259315E-01   0.2003337178E-01   0.4898315077E-02  -0.1582580565E-01   0.1780565333E-01
   0.2014300000E+01   0.0000000000E+00   0.9976287769E+00   0.1000000000E-03   0.0000000000E+00  -0.2822316552E-04   0.1420000000E-01   0.0000000000E+00  -0.2342999979E-02   0.7185508624E+01   0.8550626155E-02   0.2317557719E-02   0.1642545709E-01  -0.1758398995E-01   0.1631665616E-01
   0.2014300000E+01   0.9976541471E+00   0.9977140261E+00   0.1000000000E-03  -0.1588637522E-04  -0.3377728586E-04   0.1420000000E-01  -0.2329966477E-02  -0.2252196630E-02   0.7157072213E+01   0.2112236830E-01   0.1818222622E-01   0.1234683689E-01  -0.5827934029E-02   0.1945211651E-01
     1     2     3     4     5     6     7     8
     2     9    10     3     6    11    12     7
 VARIABLES = X,Y,Z,DU1,DU2,DU3,U1,U2,U3,S11,S22,S33,S12,S13,S23
 ZONE, T="0.1440D+01" F=FEPOINT, I=   12 J=    2 ET=BRICK
   0.0000000000E+00   0.0000000000E+00   0.0000000000E+00   0.0000000000E+00   0.0000000000E+00   0.0000000000E+00   0.0000000000E+00   0.0000000000E+00   0.0000000000E+00   0.7145520340E+01   0.3771931304E-01  -0.1712133621E-01   0.1399640273E-01   0.4971395611E-02   0.1502779343E-01
   0.1007091924E+01   0.0000000000E+00   0.5902585858E-04   0.4049917896E-04   0.0000000000E+00  -0.1221995002E-04   0.7051424726E-02   0.0000000000E+00   0.7124580861E-04   0.7201344681E+01   0.2829938141E-01  -0.1079995673E-01   0.3133687753E-01  -0.7723637737E-02   0.5941459956E-02
   0.1007243072E+01   0.9976756948E+00   0.8835226183E-04   0.2798605394E-04  -0.1570799699E-04  -0.4761941390E-05   0.7215085624E-02  -0.2308597243E-02   0.9311420322E-04   0.7208313469E+01   0.3526816976E-01  -0.2473753345E-01   0.2482768448E-01  -0.9238806639E-02   0.3444004424E-02
   0.0000000000E+00   0.9977154837E+00   0.1426589410E-03   0.0000000000E+00  -0.7060279695E-05  -0.1760431456E-04   0.0000000000E+00  -0.2277455988E-02   0.1602632556E-03   0.7184023188E+01   0.3837609118E-01  -0.5628096239E-01   0.9069769747E-02  -0.4648789180E-02   0.1053468210E-01
   0.0000000000E+00   0.0000000000E+00   0.9976918843E+00   0.0000000000E+00   0.0000000000E+00  -0.1503723668E-04   0.0000000000E+00   0.0000000000E+00  -0.2293078452E-02   0.7149186384E+01   0.3139317969E-01  -0.1446124690E-01   0.1403806814E-01   0.1451714257E-02  -0.4880408733E-02
   0.1007096080E+01   0.0000000000E+00   0.9976861177E+00   0.4175376325E-04   0.0000000000E+00  -0.2413668237E-04   0.7054325850E-02   0.0000000000E+00  -0.2289745616E-02   0.7203009651E+01   0.2496944070E-01  -0.9134986379E-02   0.3323750352E-01  -0.7769127200E-02  -0.4511722578E-02
   0.1007246802E+01   0.9976407886E+00   0.9976299875E+00   0.2887233503E-04  -0.1617673483E-04  -0.2809318259E-04   0.7217929204E-02  -0.2343034656E-02  -0.2341919354E-02   0.7209978439E+01   0.3193822905E-01  -0.2307256309E-01   0.2866451262E-01  -0.4428951742E-02  -0.7009178109E-02
   0.0000000000E+00   0.9976791543E+00   0.9976389704E+00   0.0000000000E+00   0.1421796272E-06  -0.6339229116E-05   0.0000000000E+00  -0.2320987917E-02  -0.2354690387E-02   0.7187665514E+01   0.3206181658E-01  -0.5360901433E-01   0.9170888702E-02  -0.3568795528E-02  -0.9373520060E-02
   0.2014400000E+01   0.0000000000E+00  -0.1249756013E-04   0.1000000000E-03   0.0000000000E+00  -0.9663730625E-05   0.1430000000E-01   0.0000000000E+00  -0.2833829509E-05   0.7254646845E+01   0.1002703374E-01   0.6896014539E-02   0.1083128242E-01  -0.2142462583E-01   0.1685423194E-01
   0.2014400000E+01   0.9975806952E+00   0.2905577874E-04   0.1000000000E-03  -0.1870176077E-04   0.3369611492E-05   0.1430000000E-01  -0.2400603021E-02   0.2568616725E-04   0.7229740681E+01   0.2296693984E-01   0.1886227224E-01   0.2739529314E-02  -0.1479920258E-01   0.2010592942E-01
   0.2014400000E+01   0.0000000000E+00   0.9976011694E+00   0.1000000000E-03   0.0000000000E+00  -0.2760741912E-04   0.1430000000E-01   0.0000000000E+00  -0.2371223145E-02   0.7251808410E+01   0.1469794863E-01   0.5063534468E-02   0.1462644525E-01  -0.1799592340E-01   0.1636740774E-01
   0.2014400000E+01   0.9976370711E+00   0.9976796238E+00   0.1000000000E-03  -0.1707603344E-04  -0.3440227344E-04   0.1430000000E-01  -0.2345852852E-02  -0.2285973916E-02   0.7226925963E+01   0.2762599597E-01   0.1701793341E-01   0.1034764290E-01  -0.6259486436E-02   0.1961910522E-01
     1     2     3     4     5     6     7     8
     2     9    10     3     6    11    12     7
 VARIABLES = X,Y,Z,DU1,DU2,DU3,U1,U2,U3,S11,S22,S33,S12,S13,S23
 ZONE, T="0.1450D+01" F=FEPOINT, I=   12 J=    2 ET=BRICK
   0.0000000000E+00   0.0000000000E+00   0.0000000000E+00   0.0000000000E+00   0.0000000000E+00   0.0000000000E+00   0.0000000000E+00   0.0000000000E+00   0.0000000000E+00   0.7185194587E+01   0.4226191681E-01  -0.1236504955E-01   0.1077191830E-01   0.2476080350E-02   0.1371485006E-01
   0.1007133956E+01   0.0000000000E+00   0.4649461396E-04   0.4203255921E-04   0.0000000000E+00  -0.1253124462E-04   0.7091923904E-02   0.0000000000E+00   0.5902585858E-04   0.7253928317E+01   0.3200524503E-01  -0.7239988567E-02   0.2690730999E-01  -0.8280035800E-02   0.6755040348E-02
   0.1007271008E+01   0.9976592248E+00   0.8293837505E-04   0.2793657048E-04  -0.1646991675E-04  -0.5413886782E-05   0.7243071678E-02  -0.2324305240E-02   0.8835226183E-04   0.7261359709E+01   0.3943663651E-01  -0.2210277153E-01   0.1954512448E-01  -0.8898491817E-02   0.4399184444E-02
   0.0000000000E+00   0.9977079563E+00   0.1236751634E-03   0.0000000000E+00  -0.7527453399E-05  -0.1898377763E-04   0.0000000000E+00  -0.2284516268E-02   0.1426589410E-03   0.7220009570E+01   0.4280740547E-01  -0.4772552184E-01   0.4409088541E-02  -0.5523737632E-02   0.9819513005E-02
   0.0000000000E+00   0.0000000000E+00   0.9976769971E+00   0.0000000000E+00   0.0000000000E+00  -0.1488724111E-04   0.0000000000E+00   0.0000000000E+00  -0.2308115689E-02   0.7188699204E+01   0.3661427105E-01  -0.1022202121E-01   0.1047612344E-01  -0.2276558196E-02  -0.4238130421E-02
   0.1007139706E+01   0.0000000000E+00   0.9976618563E+00   0.4362608601E-04   0.0000000000E+00  -0.2426142230E-04   0.7096079613E-02   0.0000000000E+00  -0.2313882298E-02   0.7255498888E+01   0.2886410382E-01  -0.5669417963E-02   0.2862360289E-01  -0.9561546467E-02  -0.4392046875E-02
   0.1007275808E+01   0.9976240522E+00   0.9976024539E+00   0.2900646006E-04  -0.1673645246E-04  -0.2753351849E-04   0.7246801539E-02  -0.2359211391E-02  -0.2370012536E-02   0.7262930279E+01   0.3629549530E-01  -0.2053220093E-01   0.2305703226E-01  -0.6345205370E-02  -0.6747902779E-02
   0.0000000000E+00   0.9976789154E+00   0.9976336981E+00   0.0000000000E+00  -0.2388271216E-06  -0.5272286997E-05   0.0000000000E+00  -0.2320845737E-02  -0.2361029616E-02   0.7223461306E+01   0.3718620040E-01  -0.4555605281E-01   0.3857159856E-02  -0.7305280247E-02  -0.8133467470E-02
   0.2014500000E+01   0.0000000000E+00  -0.2120649177E-04   0.1000000000E-03   0.0000000000E+00  -0.8708931641E-05   0.1440000000E-01   0.0000000000E+00  -0.1249756013E-04   0.7319366352E+01   0.1445545408E-01   0.8473887750E-02   0.8773206708E-02  -0.2039774103E-01   0.1874077423E-01
   0.2014500000E+01   0.9975617978E+00   0.3266072603E-04   0.1000000000E-03  -0.1889744035E-04   0.3604947290E-05   0.1440000000E-01  -0.2419304782E-02   0.2905577874E-04   0.7298262549E+01   0.2762114681E-01   0.1641199726E-01   0.4116654579E-03  -0.1355551302E-01   0.2202789685E-01
   0.2014500000E+01   0.0000000000E+00   0.9975741343E+00   0.1000000000E-03   0.0000000000E+00  -0.2703513636E-04   0.1440000000E-01   0.0000000000E+00  -0.2398830564E-02   0.7316267211E+01   0.1929214727E-01   0.6736335698E-02   0.1258090944E-01  -0.1820812382E-01   0.1612698262E-01
   0.2014500000E+01   0.9976187310E+00   0.9976446375E+00   0.1000000000E-03  -0.1834013355E-04  -0.3498633124E-04   0.1440000000E-01  -0.2362928885E-02  -0.2320376189E-02   0.7295216289E+01   0.3243139931E-01   0.1464800453E-01   0.8066731745E-02  -0.6667397513E-02   0.1941410524E-01
     1     2     3     4     5     6     7     8
     2     9    10     3     6    11    12     7
 VARIABLES = X,Y,Z,DU1,DU2,DU3,U1,U2,U3,S11,S22,S33,S12,S13,S23
 ZONE, T="0.1460D+01" F=FEPOINT, I=   12 J=    2 ET=BRICK
   0.0000000000E+00   0.0000000000E+00   0.0000000000E+00   0.0000000000E+00   0.0000000000E+00   0.0000000000E+00   0.0000000000E+00   0.0000000000E+00   0.0000000000E+00   0.7226753199E+01   0.4719615988E-01  -0.6277593087E-02   0.7367296951E-02   0.1706431502E-04   0.1227667694E-01
   0.1007177617E+01   0.0000000000E+00   0.3377866179E-04   0.4366071895E-04   0.0000000000E+00  -0.1271595217E-04   0.7133956464E-02   0.0000000000E+00   0.4649461396E-04   0.7306319629E+01   0.3499643377E-01  -0.3656489919E-02   0.2214456884E-01  -0.8623139986E-02   0.7460281469E-02
   0.1007299271E+01   0.9976419554E+00   0.7693390355E-04   0.2826307281E-04  -0.1726942227E-04  -0.6004471500E-05   0.7271008248E-02  -0.2340775157E-02   0.8293837505E-04   0.7314127452E+01   0.4280425709E-01  -0.1927213657E-01   0.1393563087E-01  -0.8383605911E-02   0.5239277393E-02
   0.0000000000E+00   0.9976997567E+00   0.1035043758E-03   0.0000000000E+00  -0.8199550343E-05  -0.2017078762E-04   0.0000000000E+00  -0.2292043722E-02   0.1236751634E-03   0.7257513057E+01   0.4760251100E-01  -0.3744380177E-01  -0.4421597140E-03  -0.6308151924E-02   0.8990763560E-02
   0.0000000000E+00   0.0000000000E+00   0.9976621013E+00   0.0000000000E+00   0.0000000000E+00  -0.1489576914E-04   0.0000000000E+00   0.0000000000E+00  -0.2323002930E-02   0.7230142495E+01   0.4221559850E-01  -0.4686327714E-02   0.6732985831E-02  -0.6001083200E-02  -0.3509602966E-02
   0.1007185335E+01   0.0000000000E+00   0.9976374376E+00   0.4562926946E-04   0.0000000000E+00  -0.2441868596E-04   0.7139705699E-02   0.0000000000E+00  -0.2338143721E-02   0.7307800298E+01   0.3203509500E-01  -0.2175820535E-02   0.2363941192E-01  -0.1121297277E-01  -0.4251453522E-02
   0.1007305358E+01   0.9976066975E+00   0.9975754534E+00   0.2955017740E-04  -0.1735464338E-04  -0.2700052795E-04   0.7275807999E-02  -0.2375947844E-02  -0.2397546055E-02   0.7315608121E+01   0.3984291832E-01  -0.1779146719E-01   0.1706156847E-01  -0.8204351256E-02  -0.6472457598E-02
   0.0000000000E+00   0.9976780533E+00   0.9976292136E+00   0.0000000000E+00  -0.8621381133E-06  -0.4484488332E-05   0.0000000000E+00  -0.2321084564E-02  -0.2366301903E-02   0.7260811518E+01   0.4266736680E-01  -0.3580711922E-01  -0.1642656150E-02  -0.1102084211E-01  -0.6795516343E-02
   0.2014600000E+01   0.0000000000E+00  -0.2893034961E-04   0.1000000000E-03   0.0000000000E+00  -0.7723857833E-05   0.1450000000E-01   0.0000000000E+00  -0.2120649177E-04   0.7381847614E+01   0.1716033785E-01   0.8639427607E-02   0.6568334292E-02  -0.1906137492E-01   0.2030419809E-01
   0.2014600000E+01   0.9975427098E+00   0.3637692537E-04   0.1000000000E-03  -0.1908797535E-04   0.3716199338E-05   0.1450000000E-01  -0.2438202222E-02   0.3266072603E-04   0.7364751896E+01   0.3041812656E-01   0.1247735662E-01  -0.2040084988E-02  -0.1212083900E-01   0.2354266301E-01
   0.2014600000E+01   0.0000000000E+00   0.9975476426E+00   0.1000000000E-03   0.0000000000E+00  -0.2649172077E-04   0.1450000000E-01   0.0000000000E+00  -0.2425865700E-02   0.7378489950E+01   0.2207763462E-01   0.7079794541E-02   0.1032858310E-01  -0.1822289298E-01   0.1559426825E-01
   0.2014600000E+01   0.9975991032E+00   0.9976091417E+00   0.1000000000E-03  -0.1962779747E-04  -0.3549577799E-04   0.1450000000E-01  -0.2381269019E-02  -0.2355362520E-02   0.7361485066E+01   0.3529000615E-01   0.1087230638E-01   0.5548538196E-02  -0.7049639495E-02   0.1883273316E-01
     1     2     3     4     5     6     7     8
     2     9    10     3     6    11    12     7
 VARIABLES = X,Y,Z,DU1,DU2,DU3,U1,U2,U3,S11,S22,S33,S12,S13,S23
 ZONE, T="0.1470D+01" F=FEPOINT, I=   12 J=    2 ET=BRICK
   0.0000000000E+00   0.0000000000E+00   0.0000000000E+00   0.0000000000E+00   0.0000000000E+00   0.0000000000E+00   0.0000000000E+00   0.0000000000E+00   0.0000000000E+00   0.7270216346E+01   0.5230330883E-01   0.8595278414E-03   0.3844820154E-02  -0.2370498313E-02   0.1073171926E-01
   0.1007222955E+01   0.0000000000E+00   0.2100268678E-04   0.4533770800E-04   0.0000000000E+00  -0.1277597502E-04   0.7177617183E-02   0.0000000000E+00   0.3377866179E-04   0.7358382127E+01   0.3709864737E-01  -0.2792845445E-03   0.1713959574E-01  -0.8747104942E-02   0.8048391509E-02
   0.1007328206E+01   0.9976238655E+00   0.7040489917E-04   0.2893458164E-04  -0.1808995910E-04  -0.6529004382E-05   0.7299271321E-02  -0.2358044579E-02   0.7693390355E-04   0.7366478351E+01   0.4519487186E-01  -0.1647173353E-01   0.8106673481E-02  -0.7698144505E-02   0.5952909710E-02
   0.0000000000E+00   0.9976906697E+00   0.8237514289E-04   0.0000000000E+00  -0.9087063431E-05  -0.2112923286E-04   0.0000000000E+00  -0.2300243272E-02   0.1035043758E-03   0.7296621829E+01   0.5253627462E-01  -0.2577892153E-01  -0.5396618787E-02  -0.6985301373E-02   0.8062994342E-02
   0.0000000000E+00   0.0000000000E+00   0.9976470172E+00   0.0000000000E+00   0.0000000000E+00  -0.1508415014E-04   0.0000000000E+00   0.0000000000E+00  -0.2337898699E-02   0.7273543641E+01   0.4797093610E-01   0.1864604940E-02   0.2871744350E-02  -0.9665906221E-02  -0.2703988330E-02
   0.1007233043E+01   0.0000000000E+00   0.9976128330E+00   0.4770823674E-04   0.0000000000E+00  -0.2460457657E-04   0.7185334969E-02   0.0000000000E+00  -0.2362562407E-02   0.7359779115E+01   0.3430467164E-01   0.1117703321E-02   0.1837664294E-01  -0.1269313397E-01  -0.4095945230E-02
   0.1007335826E+01   0.9975886841E+00   0.9975489572E+00   0.3046805345E-04  -0.1801344142E-04  -0.2649621121E-04   0.7305358176E-02  -0.2393302487E-02  -0.2424546583E-02   0.7367875339E+01   0.4240089613E-01  -0.1507474566E-01   0.1078694892E-01  -0.9973036332E-02  -0.6191427028E-02
   0.0000000000E+00   0.9976763157E+00   0.9976252059E+00   0.0000000000E+00  -0.1737576020E-05  -0.4007728376E-05   0.0000000000E+00  -0.2321946702E-02  -0.2370786392E-02   0.7299811670E+01   0.4827262893E-01  -0.2470511740E-01  -0.7239679791E-02  -0.1466047573E-01  -0.5372713242E-02
   0.2014700000E+01   0.0000000000E+00  -0.3568282808E-04   0.1000000000E-03   0.0000000000E+00  -0.6752478477E-05   0.1460000000E-01   0.0000000000E+00  -0.2893034961E-04   0.7441804048E+01   0.1798419191E-01   0.7235557834E-02   0.4261853546E-02  -0.1744593010E-01   0.2152519898E-01
   0.2014700000E+01   0.9975234703E+00   0.4005302245E-04   0.1000000000E-03  -0.1923950673E-04   0.3676097077E-05   0.1460000000E-01  -0.2457290197E-02   0.3637692537E-04   0.7428856475E+01   0.3120913689E-01   0.6958185631E-02  -0.4562552025E-02  -0.1052702506E-01   0.2462938717E-01
   0.2014700000E+01   0.0000000000E+00   0.9975216843E+00   0.1000000000E-03   0.0000000000E+00  -0.2595823411E-04   0.1460000000E-01   0.0000000000E+00  -0.2452357421E-02   0.7438186443E+01   0.2289718233E-01   0.5940171884E-02   0.7915204864E-02  -0.1804258025E-01   0.1477404038E-01
   0.2014700000E+01   0.9975782181E+00   0.9975732478E+00   0.1000000000E-03  -0.2088505809E-04  -0.3589386497E-04   0.1460000000E-01  -0.2400896816E-02  -0.2390858298E-02   0.7425376324E+01   0.3605340029E-01   0.5594072647E-02   0.2847240965E-02  -0.7401634363E-02   0.1787822857E-01
     1     2     3     4     5     6     7     8
     2     9    10     3     6    11    12     7
 VARIABLES = X,Y,Z,DU1,DU2,DU3,U1,U2,U3,S11,S22,S33,S12,S13,S23
 ZONE, T="0.1480D+01" F=FEPOINT, I=   12 J=    2 ET=BRICK
   0.0000000000E+00   0.0000000000E+00   0.0000000000E+00   0.0000000000E+00   0.0000000000E+00   0.0000000000E+00   0.0000000000E+00   0.0000000000E+00   0.0000000000E+00   0.7315536907E+01   0.5733459381E-01   0.8720653041E-02   0.2710287911E-03  -0.4653216976E-02   0.9102947142E-02
   0.1007269973E+01   0.0000000000E+00   0.8284232037E-05   0.4701812787E-04   0.0000000000E+00  -0.1271845474E-04   0.7222954891E-02   0.0000000000E+00   0.2100268678E-04   0.7410003196E+01   0.3817615355E-01   0.2695863325E-02   0.1198887012E-01  -0.8651577687E-02   0.8514007328E-02
   0.1007358121E+01   0.9976049532E+00   0.6341743147E-04   0.2991517364E-04  -0.1891226966E-04  -0.6987467695E-05   0.7328205903E-02  -0.2376134538E-02   0.7040489917E-04   0.7418299195E+01   0.4647215222E-01  -0.1389613403E-01   0.2174028135E-02  -0.6851095639E-02   0.6532718049E-02
   0.0000000000E+00   0.9976804763E+00   0.6054455887E-04   0.0000000000E+00  -0.1019335270E-04  -0.2183058403E-04   0.0000000000E+00  -0.2309330335E-02   0.8237514289E-04   0.7337361066E+01   0.5735504126E-01  -0.1312395391E-01  -0.1035979845E-01  -0.7541670229E-02   0.7055425031E-02
   0.0000000000E+00   0.0000000000E+00   0.9976315506E+00   0.0000000000E+00   0.0000000000E+00  -0.1546650146E-04   0.0000000000E+00   0.0000000000E+00  -0.2352982849E-02   0.7318861263E+01   0.5362489365E-01   0.9105997112E-02  -0.1040014836E-02  -0.1321219730E-01  -0.1829580065E-02
   0.1007282851E+01   0.0000000000E+00   0.9975880215E+00   0.4980771519E-04   0.0000000000E+00  -0.2481154650E-04   0.7233043206E-02   0.0000000000E+00  -0.2387166983E-02   0.7411324055E+01   0.3553443451E-01   0.4016722844E-02   0.1293334807E-01  -0.1397144157E-01  -0.3929990685E-02
   0.1007367545E+01   0.9975699922E+00   0.9975229386E+00   0.3171901724E-04  -0.1869187517E-04  -0.2601861441E-04   0.7335826230E-02  -0.2411315928E-02  -0.2451042794E-02   0.7419620054E+01   0.4383043318E-01  -0.1257527451E-01   0.4351516270E-02  -0.1161635856E-01  -0.5911279964E-02
   0.0000000000E+00   0.9976734480E+00   0.9976213409E+00   0.0000000000E+00  -0.2867752093E-05  -0.3864987488E-05   0.0000000000E+00  -0.2323684278E-02  -0.2374794120E-02   0.7340493067E+01   0.5374151854E-01  -0.1264243242E-01  -0.1283761949E-01  -0.1816672235E-01  -0.3877102176E-02
   0.2014800000E+01   0.0000000000E+00  -0.4152333965E-04   0.1000000000E-03   0.0000000000E+00  -0.5840511563E-05   0.1470000000E-01   0.0000000000E+00  -0.3568282808E-04   0.7499062683E+01   0.1687485207E-01   0.4220737101E-02   0.1902999402E-02  -0.1558895041E-01   0.2239104585E-01
   0.2014800000E+01   0.9975041526E+00   0.4351045713E-04   0.1000000000E-03  -0.1931771149E-04   0.3457434678E-05   0.1470000000E-01  -0.2476529704E-02   0.4005302245E-04   0.7490336290E+01   0.2995217162E-01  -0.1301899563E-03  -0.7095857318E-02  -0.8811000773E-02   0.2527556459E-01
   0.2014800000E+01   0.0000000000E+00   0.9974962708E+00   0.1000000000E-03   0.0000000000E+00  -0.2541349800E-04   0.1470000000E-01   0.0000000000E+00  -0.2478315655E-02   0.7495180329E+01   0.2170054773E-01   0.3277395275E-02   0.5391531223E-02  -0.1766969785E-01   0.1367692255E-01
   0.2014800000E+01   0.9975561608E+00   0.9975371046E+00   0.1000000000E-03  -0.2205735211E-04  -0.3614321276E-04   0.1470000000E-01  -0.2421781874E-02  -0.2426752163E-02   0.7486646291E+01   0.3468168985E-01  -0.1169709210E-02   0.2547227849E-04  -0.7716474492E-02   0.1656144129E-01
     1     2     3     4     5     6     7     8
     2     9    10     3     6    11    12     7
 VARIABLES = X,Y,Z,DU1,DU2,DU3,U1,U2,U3,S11,S22,S33,S12,S13,S23
 ZONE, T="0.1490D+01" F=FEPOINT, I=   12 J=    2 ET=BRICK
   0.0000000000E+00   0.0000000000E+00   0.0000000000E+00   0.0000000000E+00   0.0000000000E+00   0.0000000000E+00   0.0000000000E+00   0.0000000000E+00   0.0000000000E+00   0.7362610754E+01   0.6202559493E-01   0.1695349827E-01  -0.3284725306E-02  -0.6800595584E-02   0.7416628813E-02
   0.1007318632E+01   0.0000000000E+00  -0.4270690471E-05   0.4865906015E-04   0.0000000000E+00  -0.1255492251E-04   0.7269973019E-02   0.0000000000E+00   0.8284232037E-05   0.7461100447E+01   0.3813987570E-01   0.5118382178E-02   0.6792365772E-02  -0.8341887590E-02   0.8855004441E-02
   0.1007389287E+01   0.9975852380E+00   0.5603359933E-04   0.3116565240E-04  -0.1971522371E-04  -0.7383832142E-05   0.7358121076E-02  -0.2395046808E-02   0.6341743147E-04   0.7469508168E+01   0.4654759692E-01  -0.1169706026E-01  -0.3740865847E-02  -0.5856290944E-02   0.6975176382E-02
   0.0000000000E+00   0.9976689623E+00   0.3828968864E-04   0.0000000000E+00  -0.1151400709E-04  -0.2225487023E-04   0.0000000000E+00  -0.2319523688E-02   0.6054455887E-04   0.7379701686E+01   0.6179092922E-01   0.9723218396E-04  -0.1523224918E-01  -0.7967402372E-02   0.5990716525E-02
   0.0000000000E+00   0.0000000000E+00   0.9976155017E+00   0.0000000000E+00   0.0000000000E+00  -0.1604896708E-04   0.0000000000E+00   0.0000000000E+00  -0.2368449351E-02   0.7365995389E+01   0.5890736522E-01   0.1668709313E-01  -0.4931645210E-02  -0.1657990999E-01  -0.8941713767E-03
   0.1007334725E+01   0.0000000000E+00   0.9975629923E+00   0.5187432173E-04   0.0000000000E+00  -0.2502920453E-04   0.7282850921E-02   0.0000000000E+00  -0.2411978530E-02   0.7462353666E+01   0.3563343829E-01   0.6371600883E-02   0.7411868413E-02  -0.1501802731E-01  -0.3756577388E-02
   0.1007400803E+01   0.9975506254E+00   0.9974973760E+00   0.3325810424E-04  -0.1936682273E-04  -0.2556263396E-04   0.7367545247E-02  -0.2430007803E-02  -0.2477061408E-02   0.7470761387E+01   0.4404115950E-01  -0.1044384155E-01  -0.2119526346E-02  -0.1309885097E-01  -0.5636405446E-02
   0.0000000000E+00   0.9976692004E+00   0.9976172714E+00   0.0000000000E+00  -0.4247537669E-05  -0.4069503570E-05   0.0000000000E+00  -0.2326552030E-02  -0.2378659108E-02   0.7382831431E+01   0.5880014427E-01  -0.4172819374E-04  -0.1833492177E-01  -0.2148107808E-01  -0.2320083664E-02
   0.2014900000E+01   0.0000000000E+00  -0.4655605948E-04   0.1000000000E-03   0.0000000000E+00  -0.5032719833E-05   0.1480000000E-01   0.0000000000E+00  -0.4152333965E-04   0.7553566851E+01   0.1388803625E-01  -0.3273244302E-03  -0.4561406414E-03  -0.1353421956E-01   0.2289570055E-01
   0.2014900000E+01   0.9974848626E+00   0.4654587707E-04   0.1000000000E-03  -0.1928997954E-04   0.3035419942E-05   0.1480000000E-01  -0.2495847416E-02   0.4351045713E-04   0.7549067440E+01   0.2671422306E-01  -0.8654100570E-02  -0.9575080004E-02  -0.7013885223E-02   0.2547713581E-01
   0.2014900000E+01   0.0000000000E+00   0.9974714345E+00   0.1000000000E-03   0.0000000000E+00  -0.2483634914E-04   0.1480000000E-01   0.0000000000E+00  -0.2503729153E-02   0.7549411867E+01   0.1854696324E-01  -0.8312679446E-03   0.2812118806E-02  -0.1710718461E-01   0.1231921907E-01
   0.2014900000E+01   0.9975330687E+00   0.9975008962E+00   0.1000000000E-03  -0.2309208954E-04  -0.3620837770E-04   0.1480000000E-01  -0.2443839227E-02  -0.2462895376E-02   0.7545167346E+01   0.3124570530E-01  -0.9285488837E-02  -0.2847394154E-02  -0.7985329576E-02   0.1490065433E-01
     1     2     3     4     5     6     7     8
     2     9    10     3     6    11    12     7
 VARIABLES = X,Y,Z,DU1,DU2,DU3,U1,U2,U3,S11,S22,S33,S12,S13,S23
 ZONE, T="0.1500D+01" F=FEPOINT, I=   12 J=    2 ET=BRICK
   0.0000000000E+00   0.0000000000E+00   0.0000000000E+00   0.0000000000E+00   0.0000000000E+00   0.0000000000E+00   0.0000000000E+00   0.0000000000E+00   0.0000000000E+00   0.7411288695E+01   0.6611085809E-01   0.2519682667E-01  -0.6751903803E-02  -0.8786015951E-02   0.5700989796E-02
   0.1007368854E+01   0.0000000000E+00  -0.1657093277E-04   0.5022180242E-04   0.0000000000E+00  -0.1230024230E-04   0.7318632079E-02   0.0000000000E+00  -0.4270690471E-05   0.7511625830E+01   0.3695248116E-01   0.6890239521E-02   0.1651311686E-02  -0.7829024329E-02   0.9072217048E-02
   0.1007421932E+01   0.9975647612E+00   0.4830844103E-04   0.3264515717E-04  -0.2047678206E-04  -0.7725158302E-05   0.7389286729E-02  -0.2414762032E-02   0.5603359933E-04   0.7520058859E+01   0.4538551026E-01  -0.9975818674E-02  -0.9513900043E-02  -0.4732051535E-02   0.7280313610E-02
   0.0000000000E+00   0.9976559257E+00   0.1589844830E-04   0.0000000000E+00  -0.1303657569E-04  -0.2239124033E-04   0.0000000000E+00  -0.2331037695E-02   0.3828968864E-04   0.7423570689E+01   0.6557632949E-01   0.1344936019E-01  -0.1991206908E-01  -0.8256571088E-02   0.4893627901E-02
   0.0000000000E+00   0.0000000000E+00   0.9975986723E+00   0.0000000000E+00   0.0000000000E+00  -0.1682936317E-04   0.0000000000E+00   0.0000000000E+00  -0.2384498318E-02   0.7414799328E+01   0.6354817935E-01   0.2424887172E-01  -0.8731058311E-02  -0.1970961248E-01   0.9452085127E-04
   0.1007388584E+01   0.0000000000E+00   0.9975377470E+00   0.5385848166E-04   0.0000000000E+00  -0.2524530135E-04   0.7334725242E-02   0.0000000000E+00  -0.2437007734E-02   0.7512820432E+01   0.3456327658E-01   0.8084841813E-02   0.1916573559E-02  -0.1580491009E-01  -0.3577326598E-02
   0.1007435842E+01   0.9975306113E+00   0.9974722550E+00   0.3503815667E-04  -0.2001409428E-04  -0.2512100410E-04   0.7400803351E-02  -0.2449374626E-02  -0.2502624042E-02   0.7521253461E+01   0.4299630567E-01  -0.8781216382E-02  -0.8497142342E-02  -0.1438561368E-01  -0.5369230036E-02
   0.0000000000E+00   0.9976633366E+00   0.9976126470E+00   0.0000000000E+00  -0.5863871062E-05  -0.4624363673E-05   0.0000000000E+00  -0.2330799568E-02  -0.2382728611E-02   0.7426757167E+01   0.6317572874E-01   0.1266348323E-01  -0.2362726100E-01  -0.2454556584E-01  -0.7128410435E-03
   0.2015000000E+01   0.0000000000E+00  -0.5092628756E-04   0.1000000000E-03   0.0000000000E+00  -0.4370228074E-05   0.1490000000E-01   0.0000000000E+00  -0.4655605948E-04   0.7605372746E+01   0.9183699337E-02  -0.6215723640E-02  -0.2761996496E-02  -0.1133062135E-01   0.2303980089E-01
   0.2015000000E+01   0.9974657351E+00   0.4893586063E-04   0.1000000000E-03  -0.1912753536E-04   0.2389983559E-05   0.1490000000E-01  -0.2515137395E-02   0.4654587707E-04   0.7605039847E+01   0.2166732368E-01  -0.1836644867E-01  -0.1193225468E-01  -0.5179886644E-02   0.2523842238E-01
   0.2015000000E+01   0.0000000000E+00   0.9974472266E+00   0.1000000000E-03   0.0000000000E+00  -0.2420789002E-04   0.1490000000E-01   0.0000000000E+00  -0.2528565502E-02   0.7600934606E+01   0.1360139088E-01  -0.6195275089E-02   0.2339157401E-03  -0.1635879634E-01   0.1072262620E-01
   0.2015000000E+01   0.9975091275E+00   0.9974648379E+00   0.1000000000E-03  -0.2394116018E-04  -0.3605838359E-04   0.1490000000E-01  -0.2466931316E-02  -0.2499103754E-02   0.7600925862E+01   0.2592293723E-01  -0.1850807811E-01  -0.5697313376E-02  -0.8198016195E-02   0.1292124769E-01
     1     2     3     4     5     6     7     8
     2     9    10     3     6    11    12     7
 VARIABLES = X,Y,Z,DU1,DU2,DU3,U1,U2,U3,S11,S22,S33,S12,S13,S23
 ZONE, T="0.1510D+01" F=FEPOINT, I=   12 J=    2 ET=BRICK
   0.0000000000E+00   0.0000000000E+00   0.0000000000E+00   0.0000000000E+00   0.0000000000E+00   0.0000000000E+00   0.0000000000E+00   0.0000000000E+00   0.0000000000E+00   0.7461389345E+01   0.6933796386E-01   0.3309735201E-01  -0.1006052828E-01  -0.1058753520E-01   0.3984830737E-02
   0.1007420527E+01   0.0000000000E+00  -0.2854236267E-04   0.5167333054E-04   0.0000000000E+00  -0.1197142990E-04   0.7368853881E-02   0.0000000000E+00  -0.1657093277E-04   0.7561567317E+01   0.3463023400E-01   0.7969184272E-02  -0.3334173883E-02  -0.7129403305E-02   0.9169088787E-02
   0.1007456245E+01   0.9975435862E+00   0.4028787733E-04   0.3431263772E-04  -0.2117503080E-04  -0.8020563693E-05   0.7421931886E-02  -0.2435238814E-02   0.4830844103E-04   0.7569941815E+01   0.4300473238E-01  -0.8779812487E-02  -0.1502153994E-01  -0.3500645334E-02   0.7451344209E-02
   0.0000000000E+00   0.9976411851E+00  -0.6339661651E-05   0.0000000000E+00  -0.1474067189E-04  -0.2223810995E-04   0.0000000000E+00  -0.2344074271E-02   0.1589844830E-04   0.7468862418E+01   0.6845784526E-01   0.2650439663E-01  -0.2429765230E-01  -0.8407268904E-02   0.3789624121E-02
   0.0000000000E+00   0.0000000000E+00   0.9975808751E+00   0.0000000000E+00   0.0000000000E+00  -0.1779722668E-04   0.0000000000E+00   0.0000000000E+00  -0.2401327681E-02   0.7465092504E+01   0.6729117743E-01   0.3144097882E-01  -0.1236647113E-01  -0.2254441211E-01   0.1128412348E-02
   0.1007444300E+01   0.0000000000E+00   0.9975123002E+00   0.5571609674E-04   0.0000000000E+00  -0.2544681248E-04   0.7388583724E-02   0.0000000000E+00  -0.2462253036E-02   0.7562712479E+01   0.3233990789E-01   0.9114347324E-02  -0.3448540706E-02  -0.1630723555E-01  -0.3392658782E-02
   0.1007472853E+01   0.9975100017E+00   0.9974475696E+00   0.3701140744E-04  -0.2060957585E-04  -0.2468538515E-04   0.7435841508E-02  -0.2469388721E-02  -0.2527745046E-02   0.7571086978E+01   0.4071440627E-01  -0.7634649435E-02  -0.1465175922E-01  -0.1544354363E-01  -0.5110403360E-02
   0.0000000000E+00   0.9976556407E+00   0.9976071245E+00   0.0000000000E+00  -0.7695900372E-05  -0.5522510575E-05   0.0000000000E+00  -0.2336663439E-02  -0.2387352975E-02   0.7472166568E+01   0.6661056362E-01   0.2504752823E-01  -0.2861028069E-01  -0.2730440880E-01   0.9332057312E-03
   0.2015100000E+01   0.0000000000E+00  -0.5481431385E-04   0.1000000000E-03   0.0000000000E+00  -0.3888026296E-05   0.1500000000E-01   0.0000000000E+00  -0.5092628756E-04   0.7654640219E+01   0.3016465823E-02  -0.1314787497E-01  -0.4961012071E-02  -0.9030804227E-02   0.2283051101E-01
   0.2015100000E+01   0.9974469277E+00   0.5044375192E-04   0.1000000000E-03  -0.1880737641E-04   0.1507891288E-05   0.1500000000E-01  -0.2534264931E-02   0.4893586063E-04   0.7658349212E+01   0.1507865195E-01  -0.2891905464E-01  -0.1409862017E-01  -0.3355040197E-02   0.2457189464E-01
   0.2015100000E+01   0.0000000000E+00   0.9974237130E+00   0.1000000000E-03   0.0000000000E+00  -0.2351357903E-04   0.1500000000E-01   0.0000000000E+00  -0.2552773392E-02   0.7649906274E+01   0.7124821597E-02  -0.1252228645E-01  -0.2285288486E-02  -0.1542959180E-01   0.8913828110E-02
   0.2015100000E+01   0.9974845643E+00   0.9974291688E+00   0.1000000000E-03  -0.2456324141E-04  -0.3566905608E-04   0.1500000000E-01  -0.2490872476E-02  -0.2535162137E-02   0.7654014277E+01   0.1898750293E-01  -0.2849297091E-01  -0.8447915950E-02  -0.8343696903E-02   0.1065521174E-01
     1     2     3     4     5     6     7     8
     2     9    10     3     6    11    12     7
 VARIABLES = X,Y,Z,DU1,DU2,DU3,U1,U2,U3,S11,S22,S33,S12,S13,S23
 ZONE, T="0.1520D+01" F=FEPOINT, I=   12 J=    2 ET=BRICK
   0.0000000000E+00   0.0000000000E+00   0.0000000000E+00   0.0000000000E+00   0.0000000000E+00   0.0000000000E+00   0.0000000000E+00   0.0000000000E+00   0.0000000000E+00   0.7512712201E+01   0.7148036308E-01   0.4032508863E-01  -0.1314298738E-01  -0.1218847104E-01   0.2296173220E-02
   0.1007473515E+01   0.0000000000E+00  -0.4012879717E-04   0.5298742240E-04   0.0000000000E+00  -0.1158643450E-04   0.7420527212E-02   0.0000000000E+00  -0.2854236267E-04   0.7610948152E+01   0.3124159778E-01   0.8367865711E-02  -0.8067499149E-02  -0.6264429048E-02   0.9151275419E-02
   0.1007492373E+01   0.9975217969E+00   0.3200773805E-04   0.3612813537E-04  -0.2178922024E-04  -0.8280139280E-05   0.7456244524E-02  -0.2456413844E-02   0.4028787733E-04   0.7619183667E+01   0.3947711277E-01  -0.8103164272E-02  -0.2014419868E-01  -0.2187582163E-02   0.7494235431E-02
   0.0000000000E+00   0.9976245866E+00  -0.2814257629E-04   0.0000000000E+00  -0.1659843582E-04  -0.2180291464E-04   0.0000000000E+00  -0.2358814943E-02  -0.6339661651E-05   0.7515450035E+01   0.7020899625E-01   0.3885862135E-01  -0.2829057452E-01  -0.8421522958E-02   0.2703507615E-02
   0.0000000000E+00   0.0000000000E+00   0.9975619408E+00   0.0000000000E+00   0.0000000000E+00  -0.1893424349E-04   0.0000000000E+00   0.0000000000E+00  -0.2419124908E-02   0.7516673521E+01   0.6990703731E-01   0.3793709406E-01  -0.1576822242E-01  -0.2503188996E-01   0.2198622995E-02
   0.1007501710E+01   0.0000000000E+00   0.9974866791E+00   0.5740989332E-04   0.0000000000E+00  -0.2562103497E-04   0.7444299821E-02   0.0000000000E+00  -0.2487699848E-02   0.7612052845E+01   0.2903221112E-01   0.9472559035E-02  -0.8582320086E-02  -0.1650452571E-01  -0.3201997068E-02
   0.1007511984E+01   0.9974888713E+00   0.9974233221E+00   0.3913088553E-04  -0.2113036561E-04  -0.2424746732E-04   0.7472852915E-02  -0.2489998296E-02  -0.2552430431E-02   0.7620288360E+01   0.3726772611E-01  -0.6998470946E-02  -0.2045671960E-01  -0.1624260564E-01  -0.4859037056E-02
   0.0000000000E+00   0.9976459252E+00   0.9976003774E+00   0.0000000000E+00  -0.9715446909E-05  -0.6747140957E-05   0.0000000000E+00  -0.2344359340E-02  -0.2392875485E-02   0.7518933274E+01   0.6887471080E-01   0.3670966710E-01  -0.3318248397E-01  -0.2970573711E-01   0.2605957391E-02
   0.2015200000E+01   0.0000000000E+00  -0.5842712472E-04   0.1000000000E-03   0.0000000000E+00  -0.3612810867E-05   0.1510000000E-01   0.0000000000E+00  -0.5481431385E-04   0.7701618490E+01  -0.4279230268E-02  -0.2074168132E-01  -0.7001211844E-02  -0.6689701954E-02   0.2228124532E-01
   0.2015200000E+01   0.9974286138E+00   0.5082826608E-04   0.1000000000E-03  -0.1831391139E-04   0.3845141585E-06   0.1510000000E-01  -0.2553072307E-02   0.5044375192E-04   0.7709183861E+01   0.7295341992E-02  -0.3988162490E-01  -0.1600702378E-01  -0.1585835317E-02   0.2349777983E-01
   0.2015200000E+01   0.0000000000E+00   0.9974009680E+00   0.1000000000E-03   0.0000000000E+00  -0.2274501560E-04   0.1510000000E-01   0.0000000000E+00  -0.2576286971E-02   0.7696574590E+01  -0.5407459526E-03  -0.1943626602E-01  -0.4688497731E-02  -0.1432647635E-01   0.6923987394E-02
   0.2015200000E+01   0.9974596385E+00   0.9973941438E+00   0.1000000000E-03  -0.2492578290E-04  -0.3502501057E-04   0.1510000000E-01  -0.2515435718E-02  -0.2570831193E-02   0.7704618042E+01   0.1079478599E-01  -0.3881524993E-01  -0.1102303520E-01  -0.8411668124E-02   0.8140521905E-02
     1     2     3     4     5     6     7     8
     2     9    10     3     6    11    12     7
 VARIABLES = X,Y,Z,DU1,DU2,DU3,U1,U2,U3,S11,S22,S33,S12,S13,S23
 ZONE, T="0.1530D+01" F=FEPOINT, I=   12 J=    2 ET=BRICK
   0.0000000000E+00   0.0000000000E+00   0.0000000000E+00   0.0000000000E+00   0.0000000000E+00   0.0000000000E+00   0.0000000000E+00   0.0000000000E+00   0.0000000000E+00   0.7565050240E+01   0.7234841268E-01   0.4658651966E-01  -0.1593583911E-01  -0.1357776222E-01   0.6609969039E-03
   0.1007527660E+01   0.0000000000E+00  -0.5129176458E-04   0.5414539703E-04   0.0000000000E+00  -0.1116296741E-04   0.7473514634E-02   0.0000000000E+00  -0.4012879717E-04   0.7659823823E+01   0.2690278763E-01   0.8149095459E-02  -0.1245798283E-01  -0.5259877491E-02   0.9026220285E-02
   0.1007530426E+01   0.9974994962E+00   0.2349384023E-04   0.3805382413E-04  -0.2230074469E-04  -0.8513897826E-05   0.7492372659E-02  -0.2478203065E-02   0.3200773805E-04   0.7667843967E+01   0.3492293184E-01  -0.7891192944E-02  -0.2476961459E-01  -0.8207810514E-03   0.7417234472E-02
   0.0000000000E+00   0.9976060113E+00  -0.4924408325E-04   0.0000000000E+00  -0.1857532402E-04  -0.2110150696E-04   0.0000000000E+00  -0.2375413379E-02  -0.2814257629E-04   0.7563196607E+01   0.7064113046E-01   0.5014743450E-01  -0.3179850216E-01  -0.8305051066E-02   0.1658140638E-02
   0.0000000000E+00   0.0000000000E+00   0.9975417258E+00   0.0000000000E+00   0.0000000000E+00  -0.2021501551E-04   0.0000000000E+00   0.0000000000E+00  -0.2438059151E-02   0.7569332794E+01   0.7120427925E-01   0.4344809876E-01  -0.1887059329E-01  -0.2712596096E-01   0.3295095430E-02
   0.1007560620E+01   0.0000000000E+00   0.9974609225E+00   0.5891039941E-04   0.0000000000E+00  -0.2575661678E-04   0.7501709714E-02   0.0000000000E+00  -0.2513320883E-02   0.7660896480E+01   0.2475747322E-01   0.9221752668E-02  -0.1338890353E-01  -0.1638187320E-01  -0.3003996018E-02
   0.1007553335E+01   0.9974673155E+00   0.9973995221E+00   0.4135159395E-04  -0.2155583646E-04  -0.2380000742E-04   0.7511983801E-02  -0.2511128662E-02  -0.2576677899E-02   0.7668916624E+01   0.3277761742E-01  -0.6818535735E-02  -0.2579175920E-01  -0.1675708452E-01  -0.4612981831E-02
   0.0000000000E+00   0.9976340375E+00   0.9975921049E+00   0.0000000000E+00  -0.1188776006E-04  -0.8272455392E-05   0.0000000000E+00  -0.2354074786E-02  -0.2399622626E-02   0.7566919363E+01   0.6977689595E-01   0.4728891252E-01  -0.3724816197E-01  -0.3170325661E-01   0.4292239164E-02
   0.2015300000E+01   0.0000000000E+00  -0.6198841865E-04   0.1000000000E-03   0.0000000000E+00  -0.3561293934E-05   0.1520000000E-01   0.0000000000E+00  -0.5842712472E-04   0.7746627760E+01  -0.1230835800E-01  -0.2855316237E-01  -0.8833776143E-02  -0.4362967989E-02   0.2141127471E-01
   0.2015300000E+01   0.9974109736E+00   0.4985339964E-04   0.1000000000E-03  -0.1764020000E-04  -0.9748664362E-06   0.1520000000E-01  -0.2571386218E-02   0.5082826608E-04   0.7757807415E+01  -0.1275052767E-02  -0.5076612326E-01  -0.1759437660E-01   0.8221050069E-04   0.2204352280E-01
   0.2015300000E+01   0.0000000000E+00   0.9973790667E+00   0.1000000000E-03   0.0000000000E+00  -0.2190129742E-04   0.1520000000E-01   0.0000000000E+00  -0.2599031987E-02   0.7741258944E+01  -0.8991702141E-02  -0.2650100269E-01  -0.6921166604E-02  -0.1305876066E-01   0.4788141651E-02
   0.2015300000E+01   0.9974346319E+00   0.9973600226E+00   0.1000000000E-03  -0.2500656288E-04  -0.3412116585E-04   0.1520000000E-01  -0.2540361501E-02  -0.2605856204E-02   0.7752998397E+01   0.1761704174E-02  -0.4899386249E-01  -0.1334930925E-01  -0.8392190901E-02   0.5420389741E-02
     1     2     3     4     5     6     7     8
     2     9    10     3     6    11    12     7
 VARIABLES = X,Y,Z,DU1,DU2,DU3,U1,U2,U3,S11,S22,S33,S12,S13,S23
 ZONE, T="0.1540D+01" F=FEPOINT, I=   12 J=    2 ET=BRICK
   0.0000000000E+00   0.0000000000E+00   0.0000000000E+00   0.0000000000E+00   0.0000000000E+00   0.0000000000E+00   0.0000000000E+00   0.0000000000E+00   0.0000000000E+00   0.7618201445E+01   0.7179818468E-01   0.5163513079E-01  -0.1838154117E-01  -0.1475010416E-01  -0.8978775600E-03
   0.1007582796E+01   0.0000000000E+00  -0.6200921905E-04   0.5513644448E-04   0.0000000000E+00  -0.1071745447E-04   0.7527660031E-02   0.0000000000E+00  -0.5129176458E-04   0.7708277052E+01   0.2177066265E-01   0.7417774413E-02  -0.1642312394E-01  -0.4145126799E-02   0.8802722011E-02
   0.1007570481E+01   0.9974768022E+00   0.1476301087E-04   0.4005478195E-04  -0.2269400500E-04  -0.8730829361E-05   0.7530426483E-02  -0.2500503809E-02   0.2349384023E-04   0.7716010055E+01   0.2950366624E-01  -0.8048232761E-02  -0.2879610255E-01   0.5703497733E-03   0.7230377831E-02
   0.0000000000E+00   0.9975853801E+00  -0.6940133231E-04   0.0000000000E+00  -0.2063118195E-04  -0.2015724906E-04   0.0000000000E+00  -0.2393988703E-02  -0.4924408325E-04   0.7611965239E+01   0.6961212256E-01   0.6005739956E-01  -0.3473800907E-01  -0.8066882020E-02   0.6733161810E-03
   0.0000000000E+00   0.0000000000E+00   0.9975201177E+00   0.0000000000E+00   0.0000000000E+00  -0.2160811266E-04   0.0000000000E+00   0.0000000000E+00  -0.2458274167E-02   0.7622864140E+01   0.7103803118E-01   0.4773258981E-01  -0.2161356556E-01  -0.2878857836E-01   0.4406287882E-02
   0.1007620817E+01   0.0000000000E+00   0.9974350781E+00   0.6019651954E-04   0.0000000000E+00  -0.2584444594E-04   0.7560620114E-02   0.0000000000E+00  -0.2539077500E-02   0.7709325281E+01   0.1967420375E-01   0.8466003866E-02  -0.1778007625E-01  -0.1593101633E-01  -0.2796783370E-02
   0.1007596967E+01   0.9974454469E+00   0.9973761844E+00   0.4363142723E-04  -0.2186856538E-04  -0.2333772453E-04   0.7553335395E-02  -0.2532684498E-02  -0.2600477906E-02   0.7717058284E+01   0.2740720733E-01  -0.7000003308E-02  -0.3054638140E-01  -0.1696675753E-01  -0.4369127550E-02
   0.0000000000E+00   0.9976198649E+00   0.9975820402E+00   0.0000000000E+00  -0.1417252289E-04  -0.1006470750E-04   0.0000000000E+00  -0.2365962547E-02  -0.2407895082E-02   0.7615985516E+01   0.6917317764E-01   0.5647606716E-01  -0.4072024483E-01  -0.3325780896E-01   0.5977481623E-02
   0.2015400000E+01   0.0000000000E+00  -0.6572750049E-04   0.1000000000E-03   0.0000000000E+00  -0.3739081843E-05   0.1530000000E-01   0.0000000000E+00  -0.6198841865E-04   0.7790037892E+01  -0.2063766748E-01  -0.3610400856E-01  -0.1041456215E-01  -0.2105384888E-02   0.2024522605E-01
   0.2015400000E+01   0.9973941849E+00   0.4729908718E-04   0.1000000000E-03  -0.1678871941E-04  -0.2554312457E-05   0.1530000000E-01  -0.2589026418E-02   0.4985339964E-04   0.7804538459E+01  -0.1018724482E-01  -0.6105499844E-01  -0.1880405147E-01   0.1605971839E-02   0.2024311359E-01
   0.2015400000E+01   0.0000000000E+00   0.9973580769E+00   0.1000000000E-03   0.0000000000E+00  -0.2098985523E-04   0.1530000000E-01   0.0000000000E+00  -0.2620933284E-02   0.7784329143E+01  -0.1778540562E-01  -0.3324752176E-01  -0.8932816661E-02  -0.1163868974E-01   0.2544519778E-02
   0.2015400000E+01   0.9974098372E+00   0.9973270589E+00   0.1000000000E-03  -0.2479473541E-04  -0.3296368592E-04   0.1530000000E-01  -0.2565368063E-02  -0.2639977370E-02   0.7799472127E+01  -0.7656191528E-02  -0.5851972021E-01  -0.1535874770E-01  -0.8277315824E-02   0.2542407312E-02
     1     2     3     4     5     6     7     8
     2     9    10     3     6    11    12     7
 VARIABLES = X,Y,Z,DU1,DU2,DU3,U1,U2,U3,S11,S22,S33,S12,S13,S23
 ZONE, T="0.1550D+01" F=FEPOINT, I=   12 J=    2 ET=BRICK
   0.0000000000E+00   0.0000000000E+00   0.0000000000E+00   0.0000000000E+00   0.0000000000E+00   0.0000000000E+00   0.0000000000E+00   0.0000000000E+00   0.0000000000E+00   0.7671978786E+01   0.6973777064E-01   0.5527904000E-01  -0.2043004408E-01  -0.1570587199E-01  -0.2361716084E-02
   0.1007638754E+01   0.0000000000E+00  -0.7227339505E-04   0.5595754319E-04   0.0000000000E+00  -0.1026417600E-04   0.7582796476E-02   0.0000000000E+00  -0.6200921905E-04   0.7756411235E+01   0.1603350737E-01   0.6310215132E-02  -0.1989067726E-01  -0.2952273344E-02   0.8490511891E-02
   0.1007612581E+01   0.9974538451E+00   0.5824883885E-05   0.4209947877E-04  -0.2295710511E-04  -0.8938126983E-05   0.7570481265E-02  -0.2523197814E-02   0.1476301087E-04   0.7763790378E+01   0.2341265081E-01  -0.8448071751E-02  -0.3213555214E-01   0.1955875968E-02   0.6945003095E-02
   0.0000000000E+00   0.9975626586E+00  -0.8840119407E-04   0.0000000000E+00  -0.2272154423E-04  -0.1899986176E-04   0.0000000000E+00  -0.2414619885E-02  -0.6940133231E-04   0.7661627799E+01   0.6703258528E-01   0.6833521224E-01  -0.3703718629E-01  -0.7718870076E-02  -0.2351758758E-03
   0.0000000000E+00   0.0000000000E+00   0.9974970404E+00   0.0000000000E+00   0.0000000000E+00  -0.2307734642E-04   0.0000000000E+00   0.0000000000E+00  -0.2479882279E-02   0.7677074850E+01   0.6931627901E-01   0.5060446794E-01  -0.2394445287E-01  -0.2999120807E-01   0.5518962718E-02
   0.1007682072E+01   0.0000000000E+00   0.9974091997E+00   0.6125569791E-04   0.0000000000E+00  -0.2587833982E-04   0.7620816633E-02   0.0000000000E+00  -0.2564921946E-02   0.7757441574E+01   0.1397282898E-01   0.7340554328E-02  -0.2167744326E-01  -0.1515123516E-01  -0.2578203272E-02
   0.1007642899E+01   0.9974233919E+00   0.9973533264E+00   0.4593181132E-04  -0.2205508040E-04  -0.2285799379E-04   0.7596966822E-02  -0.2554553064E-02  -0.2623815631E-02   0.7764820717E+01   0.2135197242E-01  -0.7417732554E-02  -0.3462300035E-01  -0.1685792903E-01  -0.4123712067E-02
   0.0000000000E+00   0.9976033399E+00   0.9975699567E+00   0.0000000000E+00  -0.1652505910E-04  -0.1208349046E-04   0.0000000000E+00  -0.2380135069E-02  -0.2417959789E-02   0.7665999807E+01   0.6697312154E-01   0.6402266809E-01  -0.4352296183E-01  -0.3433875658E-01   0.7645502926E-02
   0.2015500000E+01   0.0000000000E+00  -0.6986768832E-04   0.1000000000E-03   0.0000000000E+00  -0.4140187826E-05   0.1540000000E-01   0.0000000000E+00  -0.6572750049E-04   0.7832245495E+01  -0.2881987535E-01  -0.4291130150E-01  -0.1170550893E-01   0.3068956238E-04   0.1881248767E-01
   0.2015500000E+01   0.9973784133E+00   0.4297198684E-04   0.1000000000E-03  -0.1577161154E-04  -0.4327100342E-05   0.1540000000E-01  -0.2605815138E-02   0.4729908718E-04   0.7849728492E+01  -0.1898267944E-01  -0.7023149484E-01  -0.1958811647E-01   0.2946069977E-02   0.1813629893E-01
   0.2015500000E+01   0.0000000000E+00   0.9973380502E+00   0.1000000000E-03   0.0000000000E+00  -0.2002670559E-04   0.1540000000E-01   0.0000000000E+00  -0.2641923139E-02   0.7826182530E+01  -0.2646458174E-01  -0.3920363043E-01  -0.1067854842E-01  -0.1008189800E-01   0.2337930450E-03
   0.2015500000E+01   0.9973855459E+00   0.9972954887E+00   0.1000000000E-03  -0.2429131720E-04  -0.3157028763E-04   0.1540000000E-01  -0.2590162799E-02  -0.2672941056E-02   0.7844389583E+01  -0.1698941374E-01  -0.6688585167E-01  -0.1699115364E-01  -0.8061653514E-02  -0.4423956897E-03
     1     2     3     4     5     6     7     8
     2     9    10     3     6    11    12     7
 VARIABLES = X,Y,Z,DU1,DU2,DU3,U1,U2,U3,S11,S22,S33,S12,S13,S23
 ZONE, T="0.1560D+01" F=FEPOINT, I=   12 J=    2 ET=BRICK
   0.0000000000E+00   0.0000000000E+00   0.0000000000E+00   0.0000000000E+00   0.0000000000E+00   0.0000000000E+00   0.0000000000E+00   0.0000000000E+00   0.0000000000E+00   0.7726218267E+01   0.6613095286E-01   0.5738563207E-01  -0.2204018640E-01  -0.1645085301E-01  -0.3716577328E-02
   0.1007695367E+01   0.0000000000E+00  -0.8208803635E-04   0.5661298357E-04   0.0000000000E+00  -0.9814641296E-05   0.7638754019E-02   0.0000000000E+00  -0.7227339505E-04   0.7804342843E+01   0.9900365858E-02   0.4981739591E-02  -0.2280046102E-01  -0.1715174067E-02   0.8099855849E-02
   0.1007656741E+01   0.9974307627E+00  -0.3315746376E-05   0.4415998511E-04  -0.2308234647E-04  -0.9140630261E-05   0.7612580744E-02  -0.2546154919E-02   0.5824883885E-05   0.7811306780E+01   0.1686430358E-01  -0.8946135856E-02  -0.3471605433E-01   0.3306297814E-02   0.6573280771E-02
   0.0000000000E+00   0.9975378595E+00  -0.1060652916E-03   0.0000000000E+00  -0.2479910077E-04  -0.1766409748E-04   0.0000000000E+00  -0.2437341429E-02  -0.8840119407E-04   0.7712071913E+01   0.6286946642E-01   0.7479347170E-01  -0.3863793823E-01  -0.7275137922E-02  -0.1056253225E-02
   0.0000000000E+00   0.0000000000E+00   0.9974724572E+00   0.0000000000E+00   0.0000000000E+00  -0.2458319608E-04   0.0000000000E+00   0.0000000000E+00  -0.2502959626E-02   0.7731793867E+01   0.6600347674E-01   0.5193750775E-01  -0.2581934347E-01  -0.3071600849E-01   0.6618085705E-02
   0.1007744156E+01   0.0000000000E+00   0.9973833442E+00   0.6208368112E-04   0.0000000000E+00  -0.2585549144E-04   0.7682072331E-02   0.0000000000E+00  -0.2590800286E-02   0.7805360559E+01   0.7864932421E-02   0.5999456309E-02  -0.2501434857E-01  -0.1405001646E-01  -0.2346050737E-02
   0.1007691117E+01   0.9974012855E+00   0.9973309651E+00   0.4821806580E-04  -0.2210638884E-04  -0.2236129465E-04   0.7642898633E-02  -0.2576608144E-02  -0.2646673625E-02   0.7812324497E+01   0.1482887014E-01  -0.7928419138E-02  -0.3793973254E-01  -0.1642427464E-01  -0.3872625814E-02
   0.0000000000E+00   0.9975844422E+00   0.9975556735E+00   0.0000000000E+00  -0.1889768610E-04  -0.1428319396E-04   0.0000000000E+00  -0.2396660129E-02  -0.2430043280E-02   0.7716844782E+01   0.6314335591E-01   0.6974671298E-01  -0.4559420376E-01  -0.3492513255E-01   0.9278409807E-02
   0.2015600000E+01   0.0000000000E+00  -0.7461489359E-04   0.1000000000E-03   0.0000000000E+00  -0.4747205268E-05   0.1550000000E-01   0.0000000000E+00  -0.6986768832E-04   0.7873650791E+01  -0.3641821588E-01  -0.4851752935E-01  -0.1267586887E-01   0.1996780144E-02   0.1714653525E-01
   0.2015600000E+01   0.9973638029E+00   0.3671575730E-04   0.1000000000E-03  -0.1461039570E-04  -0.6256229544E-05   0.1550000000E-01  -0.2621586749E-02   0.4297198684E-04   0.7893739540E+01  -0.2721433278E-01  -0.7781016230E-01  -0.1990930368E-01   0.4068105619E-02   0.1576769660E-01
   0.2015600000E+01   0.0000000000E+00   0.9973190141E+00   0.1000000000E-03   0.0000000000E+00  -0.1903609957E-04   0.1550000000E-01   0.0000000000E+00  -0.2661949845E-02   0.7867220866E+01  -0.3458209250E-01  -0.4392372867E-01  -0.1212039010E-01  -0.8407749166E-02  -0.2101722775E-02
   0.2015600000E+01   0.9973620368E+00   0.9972655188E+00   0.1000000000E-03  -0.2350909435E-04  -0.2996989102E-04   0.1550000000E-01  -0.2614454116E-02  -0.2704511343E-02   0.7888112347E+01  -0.2577957500E-01  -0.7361772722E-01  -0.1819629776E-01  -0.7743044666E-02  -0.3480561422E-02
     1     2     3     4     5     6     7     8
     2     9    10     3     6    11    12     7
 VARIABLES = X,Y,Z,DU1,DU2,DU3,U1,U2,U3,S11,S22,S33,S12,S13,S23
 ZONE, T="0.1570D+01" F=FEPOINT, I=   12 J=    2 ET=BRICK
   0.0000000000E+00   0.0000000000E+00   0.0000000000E+00   0.0000000000E+00   0.0000000000E+00   0.0000000000E+00   0.0000000000E+00   0.0000000000E+00   0.0000000000E+00   0.7780784811E+01   0.6099825441E-01   0.5788326976E-01  -0.2318083886E-01  -0.1699581860E-01  -0.4953778053E-02
   0.1007752481E+01   0.0000000000E+00  -0.9146526239E-04   0.5711353609E-04   0.0000000000E+00  -0.9377226041E-05   0.7695367002E-02   0.0000000000E+00  -0.8208803635E-04   0.7852193330E+01   0.3589657160E-02   0.3593514406E-02  -0.2510583197E-01  -0.4684585191E-03   0.7641192933E-02
   0.1007702953E+01   0.9974076962E+00  -0.1265626146E-04   0.4621192052E-04  -0.2306649818E-04  -0.9340515086E-05   0.7656740729E-02  -0.2569237266E-02  -0.3315746376E-05   0.7858686317E+01   0.1008264486E-01  -0.9392460988E-02  -0.3648405283E-01   0.4593464476E-02   0.6127780706E-02
   0.0000000000E+00   0.9975110442E+00  -0.1222535973E-03   0.0000000000E+00  -0.2681526284E-04  -0.1618830572E-04   0.0000000000E+00  -0.2462140530E-02  -0.1060652916E-03   0.7763205989E+01   0.5714704286E-01   0.7931330297E-01  -0.3949787141E-01  -0.6751484250E-02  -0.1783995092E-02
   0.0000000000E+00   0.0000000000E+00   0.9974463729E+00   0.0000000000E+00   0.0000000000E+00  -0.2608431736E-04   0.0000000000E+00   0.0000000000E+00  -0.2527542822E-02   0.7786877822E+01   0.6112153173E-01   0.5166698117E-01  -0.2720430113E-01  -0.3095666447E-01   0.7686844323E-02
   0.1007806840E+01   0.0000000000E+00   0.9973575676E+00   0.6268391183E-04   0.0000000000E+00  -0.2577664876E-04   0.7744156012E-02   0.0000000000E+00  -0.2616655777E-02   0.7853202271E+01   0.1571774190E-02   0.4602455890E-02  -0.2773747380E-01  -0.1264344507E-01  -0.2098288612E-02
   0.1007741576E+01   0.9973792672E+00   0.9973091137E+00   0.5045950375E-04  -0.2201826569E-04  -0.2185138897E-04   0.7691116699E-02  -0.2598714533E-02  -0.2669034919E-02   0.7859695258E+01   0.8064761886E-02  -0.8383519503E-02  -0.4043273061E-01  -0.1566745016E-01  -0.3611700839E-02
   0.0000000000E+00   0.9975632010E+00   0.9975390590E+00   0.0000000000E+00  -0.2124115631E-04  -0.1661456301E-04   0.0000000000E+00  -0.2415557815E-02  -0.2444326474E-02   0.7768422596E+01   0.5770852211E-01   0.7353521630E-01  -0.4688749284E-01  -0.3500650551E-01   0.1085662728E-01
   0.2015700000E+01   0.0000000000E+00  -0.8014702138E-04   0.1000000000E-03   0.0000000000E+00  -0.5532127789E-05   0.1560000000E-01   0.0000000000E+00  -0.7461489359E-04   0.7914635620E+01  -0.4302992133E-01  -0.5251903170E-01  -0.1330321495E-01   0.3749601708E-02   0.1528419363E-01
   0.2015700000E+01   0.9973504677E+00   0.2842020830E-04   0.1000000000E-03  -0.1333516279E-04  -0.8295548998E-05   0.1560000000E-01  -0.2636197145E-02   0.3671575730E-04   0.7936922754E+01  -0.3447039748E-01  -0.8336568952E-01  -0.1974262412E-01   0.4943719128E-02   0.1318583264E-01
   0.2015700000E+01   0.0000000000E+00   0.9973009645E+00   0.1000000000E-03   0.0000000000E+00  -0.1804958446E-04   0.1560000000E-01   0.0000000000E+00  -0.2680985945E-02   0.7907828328E+01  -0.4172463604E-01  -0.4701702441E-01  -0.1322843058E-01  -0.6639525531E-02  -0.4418897209E-02
   0.2015700000E+01   0.9973395648E+00   0.9972373171E+00   0.1000000000E-03  -0.2247196192E-04  -0.2820162918E-04   0.1560000000E-01  -0.2637963210E-02  -0.2734481234E-02   0.7930991865E+01  -0.3360331411E-01  -0.7830188416E-01  -0.1893575249E-01  -0.7323088884E-02  -0.6517258203E-02
     1     2     3     4     5     6     7     8
     2     9    10     3     6    11    12     7
 VARIABLES = X,Y,Z,DU1,DU2,DU3,U1,U2,U3,S11,S22,S33,S12,S13,S23
 ZONE, T="0.1580D+01" F=FEPOINT, I=   12 J=    2 ET=BRICK
   0.0000000000E+00   0.0000000000E+00   0.0000000000E+00   0.0000000000E+00   0.0000000000E+00   0.0000000000E+00   0.0000000000E+00   0.0000000000E+00   0.0000000000E+00   0.7835575865E+01   0.5441550545E-01   0.5676029351E-01  -0.2383175390E-01  -0.1735597071E-01  -0.6070110398E-02
   0.1007809956E+01   0.0000000000E+00  -0.1004223428E-03   0.5747532003E-04   0.0000000000E+00  -0.8957080406E-05   0.7752480538E-02   0.0000000000E+00  -0.9146526239E-04   0.7900081131E+01  -0.2682185383E-02   0.2299597783E-02  -0.2677477618E-01   0.7534464984E-03   0.7124819285E-02
   0.1007751187E+01   0.9973847854E+00  -0.2219350057E-04   0.4823417552E-04  -0.2291083590E-04  -0.9537239107E-05   0.7702952650E-02  -0.2592303764E-02  -0.1265626146E-04   0.7906053170E+01   0.3289854134E-02  -0.9644481249E-02  -0.3740593524E-01   0.5791401367E-02   0.5621084395E-02
   0.0000000000E+00   0.9974823224E+00  -0.1368665557E-03   0.0000000000E+00  -0.2872176318E-04  -0.1461295842E-04   0.0000000000E+00  -0.2488955792E-02  -0.1222535973E-03   0.7814962189E+01   0.4994544606E-01   0.8184402840E-01  -0.3959169845E-01  -0.6164791564E-02  -0.2417837525E-02
   0.0000000000E+00   0.0000000000E+00   0.9974188338E+00   0.0000000000E+00   0.0000000000E+00  -0.2753906524E-04   0.0000000000E+00   0.0000000000E+00  -0.2553627139E-02   0.7842214812E+01   0.5474830461E-01   0.4978854692E-01  -0.2807627940E-01  -0.3071883860E-01   0.8706786742E-02
   0.1007869907E+01   0.0000000000E+00   0.9973319216E+00   0.6306660267E-04   0.0000000000E+00  -0.2564602301E-04   0.7806839924E-02   0.0000000000E+00  -0.2642432426E-02   0.7901083620E+01  -0.4687165237E-02   0.3302087710E-02  -0.2980806200E-01  -0.1095629161E-01  -0.1833239989E-02
   0.1007794206E+01   0.9973574759E+00   0.9972877785E+00   0.5262929900E-04  -0.2179129607E-04  -0.2133522477E-04   0.7741576203E-02  -0.2620732799E-02  -0.2690886308E-02   0.7907055659E+01   0.1284874280E-02  -0.8641991322E-02  -0.4205797122E-01  -0.1459743085E-01  -0.3336974880E-02
   0.0000000000E+00   0.9975396949E+00   0.9975200327E+00   0.0000000000E+00  -0.2350612861E-04  -0.1902629218E-04   0.0000000000E+00  -0.2436798971E-02  -0.2460941037E-02   0.7820658112E+01   0.5074975706E-01   0.7534379365E-01  -0.4737348146E-01  -0.3458352130E-01   0.1235905961E-01
   0.2015800000E+01   0.0000000000E+00  -0.8660478517E-04   0.1000000000E-03   0.0000000000E+00  -0.6457763793E-05   0.1570000000E-01   0.0000000000E+00  -0.8014702138E-04   0.7955543843E+01  -0.4830728796E-01  -0.5459113249E-01  -0.1357418236E-01   0.5252169679E-02   0.1326485085E-01
   0.2015800000E+01   0.9973384844E+00   0.1802876425E-04   0.1000000000E-03  -0.1198329722E-04  -0.1039144404E-04   0.1570000000E-01  -0.2649532308E-02   0.2842020830E-04   0.7979599240E+01  -0.4039550650E-01  -0.8655831152E-01  -0.1907655592E-01   0.5551435803E-02   0.1044212289E-01
   0.2015800000E+01   0.0000000000E+00   0.9972838599E+00   0.1000000000E-03   0.0000000000E+00  -0.1710453299E-04   0.1570000000E-01   0.0000000000E+00  -0.2699035529E-02   0.7948351865E+01  -0.4753402723E-01  -0.4817241584E-01  -0.1398169296E-01  -0.4804438636E-02  -0.6674629392E-02
   0.2015800000E+01   0.9973183511E+00   0.9972110039E+00   0.1000000000E-03  -0.2121374014E-04  -0.2631327303E-04   0.1570000000E-01  -0.2660435172E-02  -0.2762682864E-02   0.7973350286E+01  -0.4009375761E-01  -0.8061110671E-01  -0.1918430935E-01  -0.6807498900E-02  -0.9497357353E-02
     1     2     3     4     5     6     7     8
     2     9    10     3     6    11    12     7
 VARIABLES = X,Y,Z,DU1,DU2,DU3,U1,U2,U3,S11,S22,S33,S12,S13,S23
 ZONE, T="0.1590D+01" F=FEPOINT, I=   12 J=    2 ET=BRICK
   0.0000000000E+00   0.0000000000E+00   0.0000000000E+00   0.0000000000E+00   0.0000000000E+00   0.0000000000E+00   0.0000000000E+00   0.0000000000E+00   0.0000000000E+00   0.7890522713E+01   0.4651016701E-01   0.5406163253E-01  -0.2398408904E-01  -0.1755030057E-01  -0.7067815251E-02
   0.1007867674E+01   0.0000000000E+00  -0.1089786391E-03   0.5771844297E-04   0.0000000000E+00  -0.8556296283E-05   0.7809955858E-02   0.0000000000E+00  -0.1004223428E-03   0.7948114277E+01  -0.8711344873E-02   0.1235116475E-02  -0.2779057750E-01   0.1917239658E-02   0.6560623472E-02
   0.1007801395E+01   0.9973621644E+00  -0.3192123316E-04   0.5020845208E-04  -0.2262095728E-04  -0.9727732586E-05   0.7751186825E-02  -0.2615214600E-02  -0.2219350057E-04   0.7953521192E+01  -0.3304428702E-02  -0.9578715867E-02  -0.3746900209E-01   0.6877016055E-02   0.5065451141E-02
   0.0000000000E+00   0.9974518502E+00  -0.1498457535E-03   0.0000000000E+00  -0.3047222613E-04  -0.1297919779E-04   0.0000000000E+00  -0.2517677556E-02  -0.1368665557E-03   0.7867297350E+01   0.4139695625E-01   0.8240020595E-01  -0.3891210084E-01  -0.5532467017E-02  -0.2962514031E-02
   0.0000000000E+00   0.0000000000E+00   0.9973899268E+00   0.0000000000E+00   0.0000000000E+00  -0.2890696781E-04   0.0000000000E+00   0.0000000000E+00  -0.2581166205E-02   0.7897725914E+01   0.4701386748E-01   0.4635473056E-01  -0.2842371633E-01  -0.3002021978E-01   0.9658076844E-02
   0.1007933154E+01   0.0000000000E+00   0.9973064506E+00   0.6324755398E-04   0.0000000000E+00  -0.2547094141E-04   0.7869906527E-02   0.0000000000E+00  -0.2668078449E-02   0.7949111058E+01  -0.1070490798E-01   0.2231898028E-02  -0.3120272622E-01  -0.9021779544E-02  -0.1549750785E-02
   0.1007848910E+01   0.9973360452E+00   0.9972669559E+00   0.5470416175E-04  -0.2143068138E-04  -0.2082258105E-04   0.7794205502E-02  -0.2642524095E-02  -0.2712221533E-02   0.7954517974E+01  -0.5297991808E-02  -0.8581934313E-02  -0.4279243127E-01  -0.1323255861E-01  -0.3044923115E-02
   0.0000000000E+00   0.9975140503E+00   0.9974985661E+00   0.0000000000E+00  -0.2564461455E-04  -0.2146659338E-04   0.0000000000E+00  -0.2460305100E-02  -0.2479967329E-02   0.7873499972E+01   0.4240094609E-01   0.7519359336E-01  -0.4704092113E-01  -0.3366809662E-01   0.1376337806E-01
   0.2015900000E+01   0.0000000000E+00  -0.9408444346E-04   0.1000000000E-03   0.0000000000E+00  -0.7479658291E-05   0.1580000000E-01   0.0000000000E+00  -0.8660478517E-04   0.7996665191E+01  -0.5197515757E-01  -0.5450844915E-01  -0.1348491407E-01   0.6474676412E-02   0.1112964128E-01
   0.2015900000E+01   0.9973278866E+00   0.5543771996E-05   0.1000000000E-03  -0.1059779975E-04  -0.1248499226E-04   0.1580000000E-01  -0.2661515605E-02   0.1802876425E-04   0.8022044179E+01  -0.4470832103E-01  -0.8715427410E-01  -0.1791375146E-01   0.5877263784E-02   0.7589820482E-02
   0.2015900000E+01   0.0000000000E+00   0.9972676177E+00   0.1000000000E-03   0.0000000000E+00  -0.1624222812E-04   0.1580000000E-01   0.0000000000E+00  -0.2716140062E-02   0.7989085002E+01  -0.5172488414E-01  -0.4717853413E-01  -0.1436871609E-01  -0.2933442779E-02  -0.8826689457E-02
   0.2015900000E+01   0.9972985745E+00   0.9971866447E+00   0.1000000000E-03  -0.1977653937E-04  -0.2435916098E-04   0.1580000000E-01  -0.2681648912E-02  -0.2788996137E-02   0.8015464569E+01  -0.4495833698E-01  -0.8032464845E-01  -0.1893092140E-01  -0.6206255934E-02  -0.1236651026E-01
     1     2     3     4     5     6     7     8
     2     9    10     3     6    11    12     7
 VARIABLES = X,Y,Z,DU1,DU2,DU3,U1,U2,U3,S11,S22,S33,S12,S13,S23
 ZONE, T="0.1600D+01" F=FEPOINT, I=   12 J=    2 ET=BRICK
   0.0000000000E+00   0.0000000000E+00   0.0000000000E+00   0.0000000000E+00   0.0000000000E+00   0.0000000000E+00   0.0000000000E+00   0.0000000000E+00   0.0000000000E+00   0.7945589640E+01   0.3745573359E-01   0.4988342862E-01  -0.2364058541E-01  -0.1760089702E-01  -0.7954326141E-02
   0.1007925540E+01   0.0000000000E+00  -0.1171529430E-03   0.5786549146E-04   0.0000000000E+00  -0.8174303940E-05   0.7867674301E-02   0.0000000000E+00  -0.1089786391E-03   0.7996384098E+01  -0.1431589792E-01   0.5063734108E-03  -0.2815204203E-01   0.2991580117E-02   0.5957876192E-02
   0.1007853514E+01   0.9973399580E+00  -0.4182803991E-04   0.5211867638E-04  -0.2220639543E-04  -0.9906806752E-05   0.7801395277E-02  -0.2637835557E-02  -0.3192123316E-04   0.8001187561E+01  -0.9512434488E-02  -0.9100553443E-02  -0.3668177692E-01   0.7830655702E-02   0.4472542835E-02
   0.0000000000E+00   0.9974198266E+00  -0.1611732154E-03   0.0000000000E+00  -0.3202364951E-04  -0.1132746193E-04   0.0000000000E+00  -0.2548149782E-02  -0.1498457535E-03   0.7920191982E+01   0.3168038150E-01   0.8105643895E-01  -0.3747001646E-01  -0.4871944292E-02  -0.3427756556E-02
   0.0000000000E+00   0.0000000000E+00   0.9973597767E+00   0.0000000000E+00   0.0000000000E+00  -0.3015009563E-04   0.0000000000E+00   0.0000000000E+00  -0.2610073172E-02   0.7953364560E+01   0.3809484303E-01   0.4146939889E-01  -0.2824678914E-01  -0.2889016531E-01   0.1051985507E-01
   0.1007996401E+01   0.0000000000E+00   0.9972811893E+00   0.6324678995E-04   0.0000000000E+00  -0.2526127758E-04   0.7933154081E-02   0.0000000000E+00  -0.2693549390E-02   0.7997374320E+01  -0.1629634239E-01   0.1496595649E-02  -0.3191381838E-01  -0.6881029328E-02  -0.1247318949E-02
   0.1007905574E+01   0.9973150994E+00   0.9972466304E+00   0.5666387302E-04  -0.2094583258E-04  -0.2032548713E-04   0.7848909664E-02  -0.2663954776E-02  -0.2733044114E-02   0.8002177783E+01  -0.1149287896E-01  -0.8110331205E-02  -0.4263461155E-01  -0.1159928748E-01  -0.2732652305E-02
   0.0000000000E+00   0.9974864389E+00   0.9974746814E+00   0.0000000000E+00  -0.2761134839E-04  -0.2388468267E-04   0.0000000000E+00  -0.2485949714E-02  -0.2501433922E-02   0.7926919757E+01   0.3284306357E-01   0.7316598185E-01  -0.4589706474E-01  -0.3228325467E-01   0.1504642465E-01
   0.2016000000E+01   0.0000000000E+00  -0.1026328493E-03   0.1000000000E-03   0.0000000000E+00  -0.8548405878E-05   0.1590000000E-01   0.0000000000E+00  -0.9408444346E-04   0.8038223416E+01  -0.5384388477E-01  -0.5215918643E-01  -0.1304119251E-01   0.7395107241E-02   0.8920614831E-02
   0.2016000000E+01   0.9973186613E+00  -0.8970696493E-05   0.1000000000E-03  -0.9225306638E-05  -0.1451446849E-04   0.1590000000E-01  -0.2672113405E-02   0.5543771996E-05   0.8064475056E+01  -0.4721455030E-01  -0.8504016153E-01  -0.1627123124E-01   0.5915023587E-02   0.4682951044E-02
   0.2016000000E+01   0.0000000000E+00   0.9972521121E+00   0.1000000000E-03   0.0000000000E+00  -0.1550561932E-04   0.1590000000E-01   0.0000000000E+00  -0.2732382290E-02   0.8030255891E+01  -0.5409778648E-01  -0.4393776057E-01  -0.1438782356E-01  -0.1060843361E-02  -0.1083453995E-01
   0.2016000000E+01   0.9972803658E+00   0.9971642470E+00   0.1000000000E-03  -0.1820876899E-04  -0.2239775235E-04   0.1590000000E-01  -0.2701425452E-02  -0.2813355298E-02   0.8057554677E+01  -0.4799202464E-01  -0.7734230830E-01  -0.1817913432E-01  -0.5533552402E-02  -0.1507220374E-01
     1     2     3     4     5     6     7     8
     2     9    10     3     6    11    12     7
 VARIABLES = X,Y,Z,DU1,DU2,DU3,U1,U2,U3,S11,S22,S33,S12,S13,S23
 ZONE, T="0.1610D+01" F=FEPOINT, I=   12 J=    2 ET=BRICK
   0.0000000000E+00   0.0000000000E+00   0.0000000000E+00   0.0000000000E+00   0.0000000000E+00   0.0000000000E+00   0.0000000000E+00   0.0000000000E+00   0.0000000000E+00   0.8000771129E+01   0.2746459002E-01   0.4436612009E-01  -0.2281539647E-01  -0.1753223922E-01  -0.8741806717E-02
   0.1007983480E+01   0.0000000000E+00  -0.1249613964E-03   0.5793995865E-04   0.0000000000E+00  -0.7808453385E-05   0.7925539793E-02   0.0000000000E+00  -0.1171529430E-03   0.8044960392E+01  -0.1934323463E-01   0.1835181178E-03  -0.2787327386E-01   0.3947806461E-02   0.5325074777E-02
   0.1007907464E+01   0.9973182780E+00  -0.5189577673E-04   0.5395034253E-04  -0.2168006356E-04  -0.1006773682E-04   0.7853513954E-02  -0.2660041953E-02  -0.4182803991E-04   0.8049127900E+01  -0.1517572584E-01  -0.8151499473E-02  -0.3507364803E-01   0.8636497908E-02   0.3853209167E-02
   0.0000000000E+00   0.9973864888E+00  -0.1708694504E-03   0.0000000000E+00  -0.3333774632E-04  -0.9696235030E-05   0.0000000000E+00  -0.2580173431E-02  -0.1611732154E-03   0.7973647532E+01   0.2101389173E-01   0.7794041540E-01  -0.3529434234E-01  -0.4200268126E-02  -0.3827781102E-02
   0.0000000000E+00   0.0000000000E+00   0.9973285425E+00   0.0000000000E+00   0.0000000000E+00  -0.3123428020E-04   0.0000000000E+00   0.0000000000E+00  -0.2640223268E-02   0.8009113959E+01   0.2820720079E-01   0.3528067963E-01  -0.2755732189E-01  -0.2736894993E-01   0.1127069009E-01
   0.1008059488E+01   0.0000000000E+00   0.9972561606E+00   0.6308709458E-04   0.0000000000E+00  -0.2502870730E-04   0.7996400871E-02   0.0000000000E+00  -0.2718810668E-02   0.8045941635E+01  -0.2130572211E-01   0.1164761858E-02  -0.3194935005E-01  -0.4582191465E-02  -0.9261884157E-03
   0.1007964064E+01   0.9972947496E+00   0.9972267729E+00   0.5849073318E-04  -0.2034978552E-04  -0.1985746458E-04   0.7905573537E-02  -0.2684900609E-02  -0.2753369601E-02   0.8050109144E+01  -0.1713821331E-01  -0.7170255732E-02  -0.4160439352E-01  -0.9731631400E-02  -0.2398054025E-02
   0.0000000000E+00   0.9974570739E+00   0.9974484493E+00   0.0000000000E+00  -0.2936503648E-04  -0.2623213993E-04   0.0000000000E+00  -0.2513561063E-02  -0.2525318605E-02   0.7980909424E+01   0.2229697141E-01   0.6939544385E-01  -0.4396748956E-01  -0.3046260692E-01   0.1618471570E-01
   0.2016100000E+01   0.0000000000E+00  -0.1122450666E-03   0.1000000000E-03   0.0000000000E+00  -0.9612217307E-05   0.1600000000E-01   0.0000000000E+00  -0.1026328493E-03   0.8080369275E+01  -0.5381715181E-01  -0.4755261201E-01  -0.1225825251E-01   0.7999581998E-02   0.6679908877E-02
   0.2016100000E+01   0.9973107474E+00  -0.2538875532E-04   0.1000000000E-03  -0.7913916508E-05  -0.1641805882E-04   0.1600000000E-01  -0.2681338711E-02  -0.8970696493E-05   0.8107044560E+01  -0.4781476487E-01  -0.8023028463E-01  -0.1418005499E-01   0.5666400525E-02   0.1775257058E-02
   0.2016100000E+01   0.0000000000E+00   0.9972371752E+00   0.1000000000E-03   0.0000000000E+00  -0.1493688618E-04   0.1600000000E-01   0.0000000000E+00  -0.2747887909E-02   0.8072020196E+01  -0.5454726419E-01  -0.3847342075E-01  -0.1404707276E-01   0.7762968578E-03  -0.1266012091E-01
   0.2016100000E+01   0.9972638029E+00   0.9971437580E+00   0.1000000000E-03  -0.1656290264E-04  -0.2048894439E-04   0.1600000000E-01  -0.2719634221E-02  -0.2835753050E-02   0.8099776419E+01  -0.4908534615E-01  -0.7169156228E-01  -0.1694699202E-01  -0.4807519293E-02  -0.1756477272E-01
     1     2     3     4     5     6     7     8
     2     9    10     3     6    11    12     7
 VARIABLES = X,Y,Z,DU1,DU2,DU3,U1,U2,U3,S11,S22,S33,S12,S13,S23
 ZONE, T="0.1620D+01" F=FEPOINT, I=   12 J=    2 ET=BRICK
   0.0000000000E+00   0.0000000000E+00   0.0000000000E+00   0.0000000000E+00   0.0000000000E+00   0.0000000000E+00   0.0000000000E+00   0.0000000000E+00   0.0000000000E+00   0.8056087391E+01   0.1677972687E-01   0.3768644752E-01  -0.2153357597E-01  -0.1737050404E-01  -0.9446511764E-02
   0.1008041444E+01   0.0000000000E+00  -0.1324161210E-03   0.5796469612E-04   0.0000000000E+00  -0.7454724570E-05   0.7983479752E-02   0.0000000000E+00  -0.1249613964E-03   0.8093888309E+01  -0.2367526705E-01   0.2962060142E-03  -0.2698301364E-01   0.4760519201E-02   0.4669840615E-02
   0.1007963154E+01   0.9972972204E+00  -0.6209874242E-04   0.5568984736E-04  -0.2105757256E-04  -0.1020296570E-04   0.7907464296E-02  -0.2681722016E-02  -0.5189577673E-04   0.8097393140E+01  -0.2017043502E-01  -0.6713458060E-02  -0.3269385904E-01   0.9282766347E-02   0.3217332504E-02
   0.0000000000E+00   0.9973521067E+00  -0.1789904090E-03   0.0000000000E+00  -0.3438210337E-04  -0.8120958547E-05   0.0000000000E+00  -0.2613511177E-02  -0.1708694504E-03   0.8027682203E+01   0.9646706391E-02   0.7322465583E-01  -0.3243106710E-01  -0.3533775565E-02  -0.4180589810E-02
   0.0000000000E+00   0.0000000000E+00   0.9972964123E+00   0.0000000000E+00   0.0000000000E+00  -0.3213014557E-04   0.0000000000E+00   0.0000000000E+00  -0.2671457548E-02   0.8064982858E+01   0.1759791531E-01   0.2797279205E-01  -0.2637835284E-01  -0.2550665071E-01   0.1188910263E-01
   0.1008122280E+01   0.0000000000E+00   0.9972313748E+00   0.6279253027E-04   0.0000000000E+00  -0.2478584834E-04   0.8059487965E-02   0.0000000000E+00  -0.2743839375E-02   0.8094856647E+01  -0.2561194454E-01   0.1264544755E-02  -0.3133247389E-01  -0.2179294389E-02  -0.5874074406E-03
   0.1008024233E+01   0.9972750911E+00   0.9972073403E+00   0.6016898208E-04  -0.1965848266E-04  -0.1943265109E-04   0.7964064270E-02  -0.2705250394E-02  -0.2773227066E-02   0.8098361479E+01  -0.2210711250E-01  -0.5745119319E-02  -0.3974224152E-01  -0.7670331181E-02  -0.2039915552E-02
   0.0000000000E+00   0.9974262045E+00   0.9974199851E+00   0.0000000000E+00  -0.3086944898E-04  -0.2846410516E-04   0.0000000000E+00  -0.2542926099E-02  -0.2551550745E-02   0.8035477311E+01   0.1101507411E-01   0.6406117964E-01  -0.4129535167E-01  -0.2824950020E-01   0.1715502458E-01
   0.2016200000E+01   0.0000000000E+00  -0.1228646561E-03   0.1000000000E-03   0.0000000000E+00  -0.1061958944E-04   0.1610000000E-01   0.0000000000E+00  -0.1122450666E-03   0.8123178588E+01  -0.5189431646E-01  -0.4081934160E-01  -0.1116028395E-01   0.8282419961E-02   0.4448939253E-02
   0.2016200000E+01   0.9973040364E+00  -0.4352538683E-04   0.1000000000E-03  -0.6710946092E-05  -0.1813663151E-04   0.1610000000E-01  -0.2689252628E-02  -0.2538875532E-04   0.8149838381E+01  -0.4650669062E-01  -0.7286676063E-01  -0.1168448362E-01   0.5140723614E-02  -0.1080827982E-02
   0.2016200000E+01   0.0000000000E+00   0.9972226002E+00   0.1000000000E-03   0.0000000000E+00  -0.1457495710E-04   0.1610000000E-01   0.0000000000E+00  -0.2762824796E-02   0.8114459018E+01  -0.5306429861E-01  -0.3092978928E-01  -0.1336388974E-01   0.2538939442E-02  -0.1426858318E-01
   0.2016200000E+01   0.9972489098E+00   0.9971250667E+00   0.1000000000E-03  -0.1489312292E-04  -0.1869130519E-04   0.1610000000E-01  -0.2736197123E-02  -0.2856241994E-02   0.8142219169E+01  -0.4822685205E-01  -0.6352738759E-01  -0.1526642617E-01  -0.4049746807E-02  -0.1979835042E-01
     1     2     3     4     5     6     7     8
     2     9    10     3     6    11    12     7
 VARIABLES = X,Y,Z,DU1,DU2,DU3,U1,U2,U3,S11,S22,S33,S12,S13,S23
 ZONE, T="0.1630D+01" F=FEPOINT, I=   12 J=    2 ET=BRICK
   0.0000000000E+00   0.0000000000E+00   0.0000000000E+00   0.0000000000E+00   0.0000000000E+00   0.0000000000E+00   0.0000000000E+00   0.0000000000E+00   0.0000000000E+00   0.8111578566E+01   0.5665723971E-02   0.3004883033E-01  -0.1983024711E-01  -0.1714291226E-01  -0.1008800674E-01
   0.1008099405E+01   0.0000000000E+00  -0.1395246248E-03   0.5796047316E-04   0.0000000000E+00  -0.7108503777E-05   0.8041444448E-02   0.0000000000E+00  -0.1324161210E-03   0.8143187086E+01  -0.2723123694E-01   0.8324450100E-03  -0.2552356830E-01   0.5408015082E-02   0.3998865781E-02
   0.1008020478E+01   0.9972768639E+00  -0.7240361004E-04   0.5732387449E-04  -0.2035646904E-04  -0.1030486761E-04   0.7963154144E-02  -0.2702779589E-02  -0.6209874242E-04   0.8146008231E+01  -0.2441009157E-01  -0.4809845722E-02  -0.2960989152E-01   0.9761772318E-02   0.2573729399E-02
   0.0000000000E+00   0.9973169756E+00  -0.1856235391E-03   0.0000000000E+00  -0.3513112321E-04  -0.6633130086E-05   0.0000000000E+00  -0.2647893281E-02  -0.1789904090E-03   0.8082325638E+01  -0.2149959136E-02   0.6711744082E-01  -0.2894187102E-01  -0.2887880009E-02  -0.4507126781E-02
   0.0000000000E+00   0.0000000000E+00   0.9972635984E+00   0.0000000000E+00   0.0000000000E+00  -0.3281392756E-04   0.0000000000E+00   0.0000000000E+00  -0.2703587694E-02   0.8120999982E+01   0.6535895803E-02   0.1975724224E-01  -0.2474338132E-01  -0.2336171083E-01   0.1235414006E-01
   0.1008184668E+01   0.0000000000E+00   0.9972068294E+00   0.6238702017E-04   0.0000000000E+00  -0.2454534922E-04   0.8122280495E-02   0.0000000000E+00  -0.2768625223E-02   0.8144137177E+01  -0.2913141878E-01   0.1782535931E-02  -0.3010055007E-01   0.2691543702E-03  -0.2328522682E-03
   0.1008085917E+01   0.9972562012E+00   0.9971882754E+00   0.6168424672E-04  -0.1888997056E-04  -0.1906487171E-04   0.8024233252E-02  -0.2724908877E-02  -0.2792659717E-02   0.8146958322E+01  -0.2631027341E-01  -0.3859754801E-02  -0.3710778865E-01  -0.5461770242E-02  -0.1657988650E-02
   0.0000000000E+00   0.9973941101E+00   0.9973894449E+00   0.0000000000E+00  -0.3209432499E-04  -0.3054028499E-04   0.0000000000E+00  -0.2573795548E-02  -0.2580014850E-02   0.8090643010E+01  -0.7277652293E-03   0.5737787480E-01  -0.3794010606E-01  -0.2569586103E-01   0.1793502002E-01
   0.2016300000E+01   0.0000000000E+00  -0.1343865810E-03   0.1000000000E-03   0.0000000000E+00  -0.1152192492E-04   0.1620000000E-01   0.0000000000E+00  -0.1228646561E-03   0.8166655289E+01  -0.4816731315E-01  -0.3220450695E-01  -0.9779645199E-02   0.8245938084E-02   0.2267625577E-02
   0.2016300000E+01   0.9972983757E+00  -0.6314179710E-04   0.1000000000E-03  -0.5660737699E-05  -0.1961641027E-04   0.1620000000E-01  -0.2695963574E-02  -0.4352538683E-04   0.8192877839E+01  -0.4338200678E-01  -0.6321236395E-01  -0.8840667734E-02   0.4354486531E-02  -0.3835156192E-02
   0.2016300000E+01   0.0000000000E+00   0.9972081471E+00   0.1000000000E-03   0.0000000000E+00  -0.1445313279E-04   0.1620000000E-01   0.0000000000E+00  -0.2777399753E-02   0.8157581806E+01  -0.4973335406E-01  -0.2156498432E-01  -0.1236440833E-01   0.4187015225E-02  -0.1562895611E-01
   0.2016300000E+01   0.9972356568E+00   0.9971080073E+00   0.1000000000E-03  -0.1325297122E-04  -0.1705937768E-04   0.1620000000E-01  -0.2751090246E-02  -0.2874933300E-02   0.8184908401E+01  -0.4550006977E-01  -0.5312486339E-01  -0.1318216074E-01  -0.3284617569E-02  -0.2173173787E-01
     1     2     3     4     5     6     7     8
     2     9    10     3     6    11    12     7
 VARIABLES = X,Y,Z,DU1,DU2,DU3,U1,U2,U3,S11,S22,S33,S12,S13,S23
 ZONE, T="0.1640D+01" F=FEPOINT, I=   12 J=    2 ET=BRICK
   0.0000000000E+00   0.0000000000E+00   0.0000000000E+00   0.0000000000E+00   0.0000000000E+00   0.0000000000E+00   0.0000000000E+00   0.0000000000E+00   0.0000000000E+00   0.8167297982E+01  -0.5600602599E-02   0.2167652728E-01  -0.1774948721E-01  -0.1687713081E-01  -0.1068828390E-01
   0.1008157350E+01   0.0000000000E+00  -0.1462899864E-03   0.5794471892E-04   0.0000000000E+00  -0.6765361619E-05   0.8099404921E-02   0.0000000000E+00  -0.1395246248E-03   0.8192850625E+01  -0.2996810460E-01   0.1740595071E-02  -0.2354937428E-01   0.5872570234E-02   0.3317903697E-02
   0.1008079317E+01   0.9972572685E+00  -0.8277011883E-04   0.5883887982E-04  -0.1959544346E-04  -0.1036650880E-04   0.8020478018E-02  -0.2723136058E-02  -0.7240361004E-04   0.8194972706E+01  -0.2784602332E-01  -0.2503567489E-02  -0.2590530648E-01   0.1006979255E-01   0.1930104000E-02
   0.0000000000E+00   0.9972814089E+00  -0.1908831452E-03   0.0000000000E+00  -0.3556672567E-04  -0.5259606105E-05   0.0000000000E+00  -0.2683024404E-02  -0.1856235391E-03   0.8137612845E+01  -0.1409229724E-01   0.5985335795E-01  -0.2490225277E-01  -0.2276956080E-02  -0.4830328434E-02
   0.0000000000E+00   0.0000000000E+00   0.9972303303E+00   0.0000000000E+00   0.0000000000E+00  -0.3326806578E-04   0.0000000000E+00   0.0000000000E+00  -0.2736401621E-02   0.8177207523E+01  -0.4697417951E-02   0.1086380100E-01  -0.2269532560E-01  -0.2099923776E-01   0.1264597875E-01
   0.1008246561E+01   0.0000000000E+00   0.9971825104E+00   0.6189306809E-04   0.0000000000E+00  -0.2431899324E-04   0.8184667516E-02   0.0000000000E+00  -0.2793170573E-02   0.8193775824E+01  -0.3181850420E-01   0.2665794869E-02  -0.2830383707E-01   0.2701764363E-02   0.1347817771E-03
   0.1008148941E+01   0.9972381376E+00   0.9971695087E+00   0.6302306702E-04  -0.1806356494E-04  -0.1876672471E-04   0.8085917499E-02  -0.2743798847E-02  -0.2811724589E-02   0.8195897905E+01  -0.2969642292E-01  -0.1578367691E-02  -0.3377786804E-01  -0.3156679233E-02  -0.1253017920E-02
   0.0000000000E+00   0.9973610941E+00   0.9973570191E+00   0.0000000000E+00  -0.3301607096E-04  -0.3242575257E-04   0.0000000000E+00  -0.2605889873E-02  -0.2610555135E-02   0.8146431478E+01  -0.1264365799E-01   0.4958608627E-01  -0.3397574739E-01  -0.2286078115E-01   0.1850393422E-01
   0.2016400000E+01   0.0000000000E+00  -0.1466625348E-03   0.1000000000E-03   0.0000000000E+00  -0.1227595382E-04   0.1630000000E-01   0.0000000000E+00  -0.1343865810E-03   0.8210739089E+01  -0.4281245241E-01  -0.2205431207E-01  -0.8155819968E-02   0.7900003351E-02   0.1736652808E-03
   0.2016400000E+01   0.9972935731E+00  -0.8395319946E-04   0.1000000000E-03  -0.4802636345E-05  -0.2081140236E-04   0.1630000000E-01  -0.2701624312E-02  -0.6314179710E-04   0.8236126984E+01  -0.3861799815E-01  -0.5163666198E-01  -0.5714918806E-02   0.3330637058E-02  -0.6440774681E-02
   0.2016400000E+01   0.0000000000E+00   0.9971935502E+00   0.1000000000E-03   0.0000000000E+00  -0.1459695761E-04   0.1630000000E-01   0.0000000000E+00  -0.2791852886E-02   0.8201333870E+01  -0.4472428305E-01  -0.1073726279E-01  -0.1108254335E-01   0.5680498563E-02  -0.1671473680E-01
   0.2016400000E+01   0.9972239637E+00   0.9970923661E+00   0.1000000000E-03  -0.1169312447E-04  -0.1564120379E-04   0.1630000000E-01  -0.2764343218E-02  -0.2891992677E-02   0.8227812675E+01  -0.4107528339E-01  -0.4086506729E-01  -0.1075018351E-01  -0.2538481438E-02  -0.2332917676E-01
     1     2     3     4     5     6     7     8
     2     9    10     3     6    11    12     7
 VARIABLES = X,Y,Z,DU1,DU2,DU3,U1,U2,U3,S11,S22,S33,S12,S13,S23
 ZONE, T="0.1650D+01" F=FEPOINT, I=   12 J=    2 ET=BRICK
   0.0000000000E+00   0.0000000000E+00   0.0000000000E+00   0.0000000000E+00   0.0000000000E+00   0.0000000000E+00   0.0000000000E+00   0.0000000000E+00   0.0000000000E+00   0.8223304857E+01  -0.1673952583E-01   0.1280294233E-01  -0.1534297213E-01  -0.1660074120E-01  -0.1127081450E-01
   0.1008215280E+01   0.0000000000E+00  -0.1527117571E-03   0.5793051141E-04   0.0000000000E+00  -0.6421770775E-05   0.8157349640E-02   0.0000000000E+00  -0.1462899864E-03   0.8242849770E+01  -0.3187866388E-01   0.2934264885E-02  -0.2112524979E-01   0.6140577521E-02   0.2631797612E-02
   0.1008139538E+01   0.9972384749E+00  -0.9315246373E-04   0.6022072268E-04  -0.1879355661E-04  -0.1038234490E-04   0.8079316898E-02  -0.2742731501E-02  -0.8277011883E-04   0.8244262955E+01  -0.3046547801E-01   0.1078931473E-03  -0.2167713157E-01   0.1020680197E-01   0.1293047225E-02
   0.0000000000E+00   0.9972457301E+00  -0.1949052606E-03   0.0000000000E+00  -0.3567879530E-04  -0.4022115449E-05   0.0000000000E+00  -0.2718591130E-02  -0.1908831452E-03   0.8193577714E+01  -0.2589330023E-01   0.5168385855E-01  -0.2039925971E-01  -0.1714315854E-02  -0.5174110790E-02
   0.0000000000E+00   0.0000000000E+00   0.9971968487E+00   0.0000000000E+00   0.0000000000E+00  -0.3348156297E-04   0.0000000000E+00   0.0000000000E+00  -0.2769669687E-02   0.8233654072E+01  -0.1581742976E-01   0.1531630990E-02  -0.2028523407E-01  -0.1848910044E-01   0.1274653081E-01
   0.1008307891E+01   0.0000000000E+00   0.9971583936E+00   0.6133067975E-04   0.0000000000E+00  -0.2411688110E-04   0.8246560584E-02   0.0000000000E+00  -0.2817489566E-02   0.8243742270E+01  -0.3366366439E-01   0.3826765142E-02  -0.2600385866E-01   0.5055997715E-02   0.5120188086E-03
   0.1008213113E+01   0.9972209386E+00   0.9971509599E+00   0.6417254279E-04  -0.1719903335E-04  -0.1854874607E-04   0.8148940566E-02  -0.2761862412E-02  -0.2830491313E-02   0.8245155455E+01  -0.3225047852E-01   0.1000393405E-02  -0.2984407148E-01  -0.8086788543E-03  -0.8267315780E-03
   0.0000000000E+00   0.9973274758E+00   0.9973229276E+00   0.0000000000E+00  -0.3361824041E-04  -0.3409153343E-04   0.0000000000E+00  -0.2638905944E-02  -0.2642980888E-02   0.8202866744E+01  -0.2444111162E-01   0.4094263974E-01  -0.2948864453E-01  -0.1980889765E-01   0.1884323452E-01
   0.2016500000E+01   0.0000000000E+00  -0.1595083590E-03   0.1000000000E-03   0.0000000000E+00  -0.1284582420E-04   0.1640000000E-01   0.0000000000E+00  -0.1466625348E-03   0.8255317103E+01  -0.3607775902E-01  -0.1079687516E-01  -0.6334160030E-02   0.7261369635E-02  -0.1798130721E-02
   0.2016500000E+01   0.9972894038E+00  -0.1056386488E-03   0.1000000000E-03  -0.4169242401E-05  -0.2168544936E-04   0.1640000000E-01  -0.2706426948E-02  -0.8395319946E-04   0.8279503520E+01  -0.3246470827E-01  -0.3859634407E-01  -0.2381636009E-02   0.2097670790E-02  -0.8854751540E-02
   0.2016500000E+01   0.0000000000E+00   0.9971785277E+00   0.1000000000E-03   0.0000000000E+00  -0.1502246598E-04   0.1640000000E-01   0.0000000000E+00  -0.2806449843E-02   0.8245607832E+01  -0.3827974457E-01   0.1114380925E-02  -0.9558838220E-02   0.6980569258E-02  -0.1750439055E-01
   0.2016500000E+01   0.9972137042E+00   0.9970778899E+00   0.1000000000E-03  -0.1025940913E-04  -0.1447620242E-04   0.1640000000E-01  -0.2776036342E-02  -0.2907633881E-02   0.8270854435E+01  -0.3519678636E-01  -0.2721518052E-01  -0.8035853411E-02  -0.1838709060E-02  -0.2456101137E-01
     1     2     3     4     5     6     7     8
     2     9    10     3     6    11    12     7
 VARIABLES = X,Y,Z,DU1,DU2,DU3,U1,U2,U3,S11,S22,S33,S12,S13,S23
 ZONE, T="0.1660D+01" F=FEPOINT, I=   12 J=    2 ET=BRICK
   0.0000000000E+00   0.0000000000E+00   0.0000000000E+00   0.0000000000E+00   0.0000000000E+00   0.0000000000E+00   0.0000000000E+00   0.0000000000E+00   0.0000000000E+00   0.8279656854E+01  -0.2747738310E-01   0.3663374436E-02  -0.1266843320E-01  -0.1634077727E-01  -0.1185957618E-01
   0.1008273206E+01   0.0000000000E+00  -0.1587874658E-03   0.5792586205E-04   0.0000000000E+00  -0.6075708648E-05   0.8215280151E-02   0.0000000000E+00  -0.1527117571E-03   0.8293136053E+01  -0.3298767366E-01   0.4299654411E-02  -0.1832440109E-01   0.6202550791E-02   0.1944540027E-02
   0.1008200992E+01   0.9972205054E+00  -0.1035012655E-03   0.6145447540E-04  -0.1796952813E-04  -0.1034880172E-04   0.8139537620E-02  -0.2761525058E-02  -0.9315246373E-04   0.8293835969E+01  -0.3228775821E-01   0.2899823509E-02  -0.1703289675E-01   0.1017608693E-01   0.6680747127E-03
   0.0000000000E+00   0.9972102647E+00  -0.1978422428E-03   0.0000000000E+00  -0.3546537049E-04  -0.2936982185E-05   0.0000000000E+00  -0.2754269925E-02  -0.1949052606E-03   0.8250246512E+01  -0.3727182018E-01   0.4286815356E-01  -0.1552891323E-01  -0.1212260657E-02  -0.5562335908E-02
   0.0000000000E+00   0.0000000000E+00   0.9971633986E+00   0.0000000000E+00   0.0000000000E+00  -0.3345011537E-04   0.0000000000E+00   0.0000000000E+00  -0.2803151250E-02   0.8290387388E+01  -0.2654540995E-01  -0.7999132967E-02  -0.1757079984E-01  -0.1590389679E-01   0.1264003192E-01
   0.1008368608E+01   0.0000000000E+00   0.9971344468E+00   0.6071653524E-04   0.0000000000E+00  -0.2394674775E-04   0.8307891263E-02   0.0000000000E+00  -0.2841606447E-02   0.8293987030E+01  -0.3468962741E-01   0.5150631287E-02  -0.2327150942E-01   0.7269979906E-02   0.8946668508E-03
   0.1008278233E+01   0.9972046227E+00   0.9971325412E+00   0.6512013438E-04  -0.1631584110E-04  -0.1841870920E-04   0.8213113109E-02  -0.2779061446E-02  -0.2849040059E-02   0.8294686945E+01  -0.3398971196E-01   0.3750800385E-02  -0.2540993380E-01   0.1527283291E-02  -0.3817984636E-03
   0.0000000000E+00   0.9972935840E+00   0.9972874126E+00   0.0000000000E+00  -0.3389179118E-04  -0.3551497761E-04   0.0000000000E+00  -0.2672524184E-02  -0.2677072421E-02   0.8259965593E+01  -0.3583412056E-01   0.3171137262E-01  -0.2457505655E-01  -0.1660862818E-01   0.1893727219E-01
   0.2016600000E+01   0.0000000000E+00  -0.1727131098E-03   0.1000000000E-03   0.0000000000E+00  -0.1320475076E-04   0.1650000000E-01   0.0000000000E+00  -0.1595083590E-03   0.8300238542E+01  -0.2826673741E-01   0.1081418258E-02  -0.4364464010E-02   0.6352837196E-02  -0.3616429299E-02
   0.2016600000E+01   0.9972856188E+00  -0.1278524406E-03   0.1000000000E-03  -0.3785027787E-05  -0.2221379175E-04   0.1650000000E-01  -0.2710596191E-02  -0.1056386488E-03   0.8322892694E+01  -0.2522848975E-01  -0.2461098204E-01   0.1079024702E-02   0.6885722589E-03  -0.1103890427E-01
   0.2016600000E+01   0.0000000000E+00   0.9971627928E+00   0.1000000000E-03   0.0000000000E+00  -0.1573490827E-04   0.1650000000E-01   0.0000000000E+00  -0.2821472309E-02   0.8290258164E+01  -0.3069902349E-01   0.1349408212E-01  -0.7839134643E-02   0.8050814948E-02  -0.1798175328E-01
   0.2016600000E+01   0.9972047131E+00   0.9970642964E+00   0.1000000000E-03  -0.8991145723E-05  -0.1359351239E-04   0.1650000000E-01  -0.2786295751E-02  -0.2922110083E-02   0.8313923769E+01  -0.2816650229E-01  -0.1270404463E-01  -0.5111726684E-02  -0.1212667510E-02  -0.2540422825E-01
     1     2     3     4     5     6     7     8
     2     9    10     3     6    11    12     7
 VARIABLES = X,Y,Z,DU1,DU2,DU3,U1,U2,U3,S11,S22,S33,S12,S13,S23
 ZONE, T="0.1670D+01" F=FEPOINT, I=   12 J=    2 ET=BRICK
   0.0000000000E+00   0.0000000000E+00   0.0000000000E+00   0.0000000000E+00   0.0000000000E+00   0.0000000000E+00   0.0000000000E+00   0.0000000000E+00   0.0000000000E+00   0.8336402869E+01  -0.3755492879E-01  -0.5512556070E-02  -0.9787984818E-02  -0.1612332943E-01  -0.1247809327E-01
   0.1008331139E+01   0.0000000000E+00  -0.1645145666E-03   0.5793332786E-04   0.0000000000E+00  -0.5727100853E-05   0.8273206013E-02   0.0000000000E+00  -0.1587874658E-03   0.8343646565E+01  -0.3334641486E-01   0.5704735531E-02  -0.1522625540E-01   0.6053014737E-02   0.1259355927E-02
   0.1008263517E+01   0.9972033643E+00  -0.1137659617E-03   0.6252443148E-04  -0.1714112384E-04  -0.1026469623E-04   0.8200992096E-02  -0.2779494586E-02  -0.1035012655E-03   0.8343634200E+01  -0.3335878034E-01   0.5729466489E-02  -0.1208743233E-01   0.9983769711E-02   0.5969602662E-04
   0.0000000000E+00   0.9971753321E+00  -0.1998572919E-03   0.0000000000E+00  -0.3493257882E-04  -0.2015049046E-05   0.0000000000E+00  -0.2789735296E-02  -0.1978422428E-03   0.8307631695E+01  -0.4796102396E-01   0.3366471243E-01  -0.1039343003E-01  -0.7821876177E-03  -0.6017798030E-02
   0.0000000000E+00   0.0000000000E+00   0.9971302226E+00   0.0000000000E+00   0.0000000000E+00  -0.3317602479E-04   0.0000000000E+00   0.0000000000E+00  -0.2836601365E-02   0.8347447392E+01  -0.3661689528E-01  -0.1749511303E-01  -0.1461473504E-01  -0.1331686663E-01   0.1231358857E-01
   0.1008428671E+01   0.0000000000E+00   0.9971106333E+00   0.6006344701E-04   0.0000000000E+00  -0.2381345797E-04   0.8368607799E-02   0.0000000000E+00  -0.2865553195E-02   0.8344446338E+01  -0.3494596139E-01   0.6504508797E-02  -0.2018496821E-01   0.9284318623E-02   0.1277904146E-02
   0.1008344087E+01   0.9971891902E+00   0.9971141601E+00   0.6585363733E-04  -0.1543249830E-04  -0.1838110525E-04   0.8278233243E-02  -0.2795377287E-02  -0.2867458768E-02   0.8344433973E+01  -0.3495832687E-01   0.6529239755E-02  -0.2058785266E-01   0.3796541921E-02   0.7824424534E-04
   0.0000000000E+00   0.9972597489E+00   0.9972507327E+00   0.0000000000E+00  -0.3383512363E-04  -0.3667992527E-04   0.0000000000E+00  -0.2706415975E-02  -0.2712587399E-02   0.8317731548E+01  -0.4655065542E-01   0.2215449049E-01  -0.1933842769E-01  -0.1333032625E-01   0.1877388380E-01
   0.2016700000E+01   0.0000000000E+00  -0.1860492491E-03   0.1000000000E-03   0.0000000000E+00  -0.1333613929E-04   0.1660000000E-01   0.0000000000E+00  -0.1727131098E-03   0.8345331450E+01  -0.1971964027E-01   0.1306257898E-01  -0.2299447839E-02   0.5202278492E-02  -0.5253883583E-02
   0.2016700000E+01   0.9972819534E+00  -0.1502365083E-03   0.1000000000E-03  -0.3665381121E-05  -0.2238406774E-04   0.1660000000E-01  -0.2714381218E-02  -0.1278524406E-03   0.8366163132E+01  -0.1725303573E-01  -0.1023570826E-01   0.4583643522E-02  -0.8603483028E-03  -0.1296041878E-01
   0.2016700000E+01   0.0000000000E+00   0.9971460648E+00   0.1000000000E-03   0.0000000000E+00  -0.1672803121E-04   0.1660000000E-01   0.0000000000E+00  -0.2837207217E-02   0.8335117752E+01  -0.2231932707E-01   0.2587596258E-01  -0.5973118166E-02   0.8858423464E-02  -0.1813632947E-01
   0.2016700000E+01   0.9971967932E+00   0.9970512855E+00   0.1000000000E-03  -0.7919895031E-05  -0.1301088231E-04   0.1660000000E-01  -0.2795286897E-02  -0.2935703596E-02   0.8356894105E+01  -0.2032505756E-01   0.2105340328E-02  -0.2055194402E-02  -0.6866652505E-03  -0.2584286467E-01
     1     2     3     4     5     6     7     8
     2     9    10     3     6    11    12     7
 VARIABLES = X,Y,Z,DU1,DU2,DU3,U1,U2,U3,S11,S22,S33,S12,S13,S23
 ZONE, T="0.1680D+01" F=FEPOINT, I=   12 J=    2 ET=BRICK
   0.0000000000E+00   0.0000000000E+00   0.0000000000E+00   0.0000000000E+00   0.0000000000E+00   0.0000000000E+00   0.0000000000E+00   0.0000000000E+00   0.0000000000E+00   0.8393576387E+01  -0.4673484344E-01  -0.1450763734E-01  -0.6766383921E-02  -0.1597320791E-01  -0.1314852442E-01
   0.1008389089E+01   0.0000000000E+00  -0.1698926415E-03   0.5794996482E-04   0.0000000000E+00  -0.5378074865E-05   0.8331139341E-02   0.0000000000E+00  -0.1645145666E-03   0.8394309545E+01  -0.3302616551E-01   0.7009554592E-02  -0.1191419641E-01   0.5690303374E-02   0.5788026473E-03
   0.1008326931E+01   0.9971870396E+00  -0.1238974297E-03   0.6341431906E-04  -0.1632466894E-04  -0.1013146804E-04   0.8263516527E-02  -0.2796635710E-02  -0.1137659617E-03   0.8393591158E+01  -0.3374455234E-01   0.8446328264E-02  -0.6959548898E-02   0.9638277882E-02  -0.5284925880E-03
   0.0000000000E+00   0.9971412378E+00  -0.2011190788E-03   0.0000000000E+00  -0.3409433103E-04  -0.1261786937E-05   0.0000000000E+00  -0.2824667874E-02  -0.1998572919E-03   0.8365726365E+01  -0.5771602161E-01   0.2432356274E-01  -0.5098345610E-02  -0.4347270506E-03  -0.6561266992E-02
   0.0000000000E+00   0.0000000000E+00   0.9970975547E+00   0.0000000000E+00   0.0000000000E+00  -0.3266790952E-04   0.0000000000E+00   0.0000000000E+00  -0.2869777390E-02   0.8404859707E+01  -0.4578924602E-01  -0.2673655478E-01  -0.1148306418E-01  -0.1079982496E-01   0.1175766471E-01
   0.1008488051E+01   0.0000000000E+00   0.9970869146E+00   0.5938012028E-04   0.0000000000E+00  -0.2371871153E-04   0.8428671246E-02   0.0000000000E+00  -0.2889366653E-02   0.8395047742E+01  -0.3450255915E-01   0.7747751416E-02  -0.1682749352E-01   0.1104386322E-01   0.1656382901E-02
   0.1008410448E+01   0.9971746242E+00   0.9970957233E+00   0.6636133838E-04  -0.1456603654E-04  -0.1843683550E-04   0.8344086880E-02  -0.2810809785E-02  -0.2885839874E-02   0.8394329355E+01  -0.3522094599E-01   0.9184525087E-02  -0.1549585994E-01   0.5946308194E-02   0.5490876657E-03
   0.0000000000E+00   0.9972262950E+00   0.9972131560E+00   0.0000000000E+00  -0.3345390980E-04  -0.3757667885E-04   0.0000000000E+00  -0.2740251099E-02  -0.2749267324E-02   0.8376149496E+01  -0.5634032988E-01   0.1252473962E-01  -0.1388656440E-01  -0.1004442295E-01   0.1834492213E-01
   0.2016800000E+01   0.0000000000E+00  -0.1992833861E-03   0.1000000000E-03   0.0000000000E+00  -0.1323413702E-04   0.1670000000E-01   0.0000000000E+00  -0.1860492491E-03   0.8390420322E+01  -0.1079343224E-01   0.2462507264E-01  -0.1931651651E-03   0.3841577184E-02  -0.6687550797E-02
   0.2016800000E+01   0.9972781373E+00  -0.1724332083E-03   0.1000000000E-03  -0.3816121441E-05  -0.2219670000E-04   0.1670000000E-01  -0.2718046599E-02  -0.1502365083E-03   0.8409183504E+01  -0.8899093491E-02   0.3967551406E-02   0.8048091546E-02  -0.2510671712E-02  -0.1459234950E-01
   0.2016800000E+01   0.0000000000E+00   0.9971280808E+00   0.1000000000E-03   0.0000000000E+00  -0.1798395489E-04   0.1670000000E-01   0.0000000000E+00  -0.2853935249E-02   0.8380015362E+01  -0.1349575135E-01   0.3773235093E-01  -0.4012796180E-02   0.9375313928E-02  -0.1796348079E-01
   0.2016800000E+01   0.9971897246E+00   0.9970385514E+00   0.1000000000E-03  -0.7068651823E-05  -0.1273415654E-04   0.1670000000E-01  -0.2803206792E-02  -0.2948714478E-02   0.8399638733E+01  -0.1203150691E-01   0.1664473538E-01   0.1053971196E-02  -0.2849151907E-03  -0.2586827949E-01
     1     2     3     4     5     6     7     8
     2     9    10     3     6    11    12     7
 VARIABLES = X,Y,Z,DU1,DU2,DU3,U1,U2,U3,S11,S22,S33,S12,S13,S23
 ZONE, T="0.1690D+01" F=FEPOINT, I=   12 J=    2 ET=BRICK
   0.0000000000E+00   0.0000000000E+00   0.0000000000E+00   0.0000000000E+00   0.0000000000E+00   0.0000000000E+00   0.0000000000E+00   0.0000000000E+00   0.0000000000E+00   0.8451189746E+01  -0.5480823049E-01  -0.2312284395E-01  -0.3669282925E-02  -0.1591365402E-01  -0.1389082887E-01
   0.1008447057E+01   0.0000000000E+00  -0.1749256499E-03   0.5796761734E-04   0.0000000000E+00  -0.5033008368E-05   0.8389089306E-02   0.0000000000E+00  -0.1698926415E-03   0.8445050267E+01  -0.3211113217E-01   0.8076886243E-02  -0.8473279305E-02   0.5116292581E-02  -0.9512048116E-04
   0.1008391039E+01   0.9971715049E+00  -0.1338506363E-03   0.6410771206E-04  -0.1553470373E-04  -0.9953206527E-05   0.8326930846E-02  -0.2812960379E-02  -0.1238974297E-03   0.8443637289E+01  -0.3352410981E-01   0.1090284153E-01  -0.1768719041E-02   0.9149793508E-02  -0.1093699437E-02
   0.0000000000E+00   0.9971082660E+00  -0.2017966503E-03   0.0000000000E+00  -0.3297179312E-04  -0.6775714657E-06   0.0000000000E+00  -0.2858762205E-02  -0.2011190788E-03   0.8424499640E+01  -0.6632049685E-01   0.1507952828E-01   0.2503541071E-03  -0.1798854390E-03  -0.7210622458E-02
   0.0000000000E+00   0.0000000000E+00   0.9970656145E+00   0.0000000000E+00   0.0000000000E+00  -0.3194023554E-04   0.0000000000E+00   0.0000000000E+00  -0.2902445300E-02   0.8462630082E+01  -0.5384819233E-01  -0.3552321862E-01  -0.8243396605E-02  -0.8421188264E-02   0.1096649042E-01
   0.1008546723E+01   0.0000000000E+00   0.9970632537E+00   0.5867121515E-04   0.0000000000E+00  -0.2366097295E-04   0.8488051366E-02   0.0000000000E+00  -0.2913085364E-02   0.8445715985E+01  -0.3344257077E-01   0.8742605547E-02  -0.1328517559E-01   0.1249934002E-01   0.2024345982E-02
   0.1008477081E+01   0.9971608925E+00   0.9970771402E+00   0.6663234680E-04  -0.1373163276E-04  -0.1858313177E-04   0.8410448219E-02  -0.2825375822E-02  -0.2904276709E-02   0.8444303008E+01  -0.3485554842E-01   0.1156856083E-01  -0.1025436184E-01   0.7927188981E-02   0.1025767025E-02
   0.0000000000E+00   0.9971935343E+00   0.9971749542E+00   0.0000000000E+00  -0.3276072921E-04  -0.3820179876E-04   0.0000000000E+00  -0.2773705009E-02  -0.2786844003E-02   0.8435181209E+01  -0.6498107550E-01   0.3058536793E-02  -0.8328798233E-02  -0.6819620084E-02   0.1764669683E-01
   0.2016900000E+01   0.0000000000E+00  -0.2121869801E-03   0.1000000000E-03   0.0000000000E+00  -0.1290359397E-04   0.1680000000E-01   0.0000000000E+00  -0.1992833861E-03   0.8435343447E+01  -0.1841680796E-02   0.3527160327E-01   0.1900563836E-02   0.2305528003E-02  -0.7899213521E-02
   0.2016900000E+01   0.9972739038E+00  -0.1940978680E-03   0.1000000000E-03  -0.4233492631E-05  -0.2166465966E-04   0.1680000000E-01  -0.2721862721E-02  -0.1724332083E-03   0.8451838866E+01  -0.5241009816E-03   0.1745860412E-01   0.1139004733E-01  -0.4223089176E-02  -0.1591399355E-01
   0.2016900000E+01   0.0000000000E+00   0.9971086071E+00   0.1000000000E-03   0.0000000000E+00  -0.1947365323E-04   0.1680000000E-01   0.0000000000E+00  -0.2871919204E-02   0.8424792826E+01  -0.4581150440E-02   0.4856169368E-01  -0.2010965510E-02   0.9579157115E-02  -0.1746450300E-01
   0.2016900000E+01   0.9971832731E+00   0.9970257940E+00   0.1000000000E-03  -0.6451504693E-05  -0.1275737092E-04   0.1680000000E-01  -0.2810275444E-02  -0.2961448635E-02   0.8442047012E+01  -0.3642953808E-02   0.3036931134E-01   0.4136063621E-02  -0.2856358367E-04  -0.2547928303E-01
     1     2     3     4     5     6     7     8
     2     9    10     3     6    11    12     7
 VARIABLES = X,Y,Z,DU1,DU2,DU3,U1,U2,U3,S11,S22,S33,S12,S13,S23
 ZONE, T="0.1700D+01" F=FEPOINT, I=   12 J=    2 ET=BRICK
   0.0000000000E+00   0.0000000000E+00   0.0000000000E+00   0.0000000000E+00   0.0000000000E+00   0.0000000000E+00   0.0000000000E+00   0.0000000000E+00   0.0000000000E+00   0.8509229530E+01  -0.6159997969E-01  -0.3118210506E-01  -0.5615352849E-03  -0.1596608706E-01  -0.1472203765E-01
   0.1008505030E+01   0.0000000000E+00  -0.1796240224E-03   0.5797352099E-04   0.0000000000E+00  -0.4698372566E-05   0.8447056923E-02   0.0000000000E+00  -0.1749256499E-03   0.8495796780E+01  -0.3069138118E-01   0.8782469276E-02  -0.4987999612E-02   0.4336092641E-02  -0.7608591170E-03
   0.1008455627E+01   0.9971567211E+00  -0.1435871105E-03   0.6458861846E-04  -0.1478378744E-04  -0.9736474242E-05   0.8391038558E-02  -0.2828495083E-02  -0.1338506363E-03   0.8493705706E+01  -0.3278245533E-01   0.1296461757E-01   0.3368123954E-02   0.8529715632E-02  -0.1633819775E-02
   0.0000000000E+00   0.9970766733E+00  -0.2020547544E-03   0.0000000000E+00  -0.3159266130E-04  -0.2581041553E-06   0.0000000000E+00  -0.2891733998E-02  -0.2017966503E-03   0.8483893170E+01  -0.7359221582E-01   0.6146490475E-02   0.5548991095E-02  -0.2716947567E-04  -0.7980107712E-02
   0.0000000000E+00   0.0000000000E+00   0.9970346018E+00   0.0000000000E+00   0.0000000000E+00  -0.3101269335E-04   0.0000000000E+00   0.0000000000E+00  -0.2934385535E-02   0.8520739929E+01  -0.6061324938E-01  -0.4367923462E-01  -0.4963236145E-02  -0.6244160610E-02   0.9938378189E-02
   0.1008604660E+01   0.0000000000E+00   0.9970396180E+00   0.5793769272E-04   0.0000000000E+00  -0.2363562497E-04   0.8546722581E-02   0.0000000000E+00  -0.2936746337E-02   0.8496378754E+01  -0.3185532872E-01   0.9364443048E-02  -0.9644718230E-02   0.1360880400E-01   0.2375752102E-02
   0.1008543738E+01   0.9971479502E+00   0.9970583265E+00   0.6665708202E-04  -0.1294238629E-04  -0.1881370457E-04   0.8477080565E-02  -0.2839107454E-02  -0.2922859841E-02   0.8494287679E+01  -0.3394640287E-01   0.1354659134E-01  -0.4982960642E-02   0.9694575659E-02   0.1502791444E-02
   0.0000000000E+00   0.9971617597E+00   0.9971363965E+00   0.0000000000E+00  -0.3177453132E-04  -0.3855774315E-04   0.0000000000E+00  -0.2806465738E-02  -0.2825045802E-02   0.8494762001E+01  -0.7228470137E-01  -0.6029854944E-02  -0.2773234179E-02  -0.3721195870E-02   0.1668030812E-01
   0.2017000000E+01   0.0000000000E+00  -0.2245464351E-03   0.1000000000E-03   0.0000000000E+00  -0.1235945505E-04   0.1690000000E-01   0.0000000000E+00  -0.2121869801E-03   0.8479968854E+01   0.6804429948E-02   0.4455500712E-01   0.3929659330E-02   0.6307435374E-03  -0.8875600465E-02
   0.2017000000E+01   0.9972689992E+00  -0.2149105001E-03   0.1000000000E-03  -0.4904623355E-05  -0.2081263213E-04   0.1690000000E-01  -0.2726096213E-02  -0.1940978680E-03   0.8494045596E+01   0.7537049104E-02   0.2974564553E-01   0.1453138008E-01  -0.5958575651E-02  -0.1691113484E-01
   0.2017000000E+01   0.0000000000E+00   0.9970874491E+00   0.1000000000E-03   0.0000000000E+00  -0.2115800987E-04   0.1690000000E-01   0.0000000000E+00  -0.2891392857E-02   0.8469320858E+01   0.4092893716E-02   0.5791453963E-01  -0.1972463155E-04   0.9454239803E-02  -0.1664659083E-01
   0.2017000000E+01   0.9971771993E+00   0.9970127306E+00   0.1000000000E-03  -0.6073753512E-05  -0.1306343680E-04   0.1690000000E-01  -0.2816726948E-02  -0.2974206006E-02   0.8484039168E+01   0.4504728733E-02   0.4278439391E-01   0.7113788580E-02   0.6517079662E-04  -0.2468212521E-01
     1     2     3     4     5     6     7     8
     2     9    10     3     6    11    12     7
 VARIABLES = X,Y,Z,DU1,DU2,DU3,U1,U2,U3,S11,S22,S33,S12,S13,S23
 ZONE, T="0.1710D+01" F=FEPOINT, I=   12 J=    2 ET=BRICK
   0.0000000000E+00   0.0000000000E+00   0.0000000000E+00   0.0000000000E+00   0.0000000000E+00   0.0000000000E+00   0.0000000000E+00   0.0000000000E+00   0.0000000000E+00   0.8567653330E+01  -0.6697291891E-01  -0.3853604425E-01   0.2494391997E-02  -0.1614987453E-01  -0.1565565137E-01
   0.1008562982E+01   0.0000000000E+00  -0.1840064083E-03   0.5795117914E-04   0.0000000000E+00  -0.4382385875E-05   0.8505030444E-02   0.0000000000E+00  -0.1796240224E-03   0.8546485110E+01  -0.2885628003E-01   0.9024110259E-02  -0.1540184505E-02   0.3357725415E-02  -0.1417193272E-02
   0.1008520469E+01   0.9971426387E+00  -0.1530770526E-03   0.6484221297E-04  -0.1408244450E-04  -0.9489942111E-05   0.8455627177E-02  -0.2843278870E-02  -0.1435871105E-03   0.8543737377E+01  -0.3160401238E-01   0.1451957496E-01   0.8339565038E-02   0.7790166614E-02  -0.2147315932E-02
   0.0000000000E+00   0.9970466831E+00  -0.2020497083E-03   0.0000000000E+00  -0.2999026951E-04   0.5046164989E-08   0.0000000000E+00  -0.2923326660E-02  -0.2020547544E-03   0.8543818982E+01  -0.7938733215E-01  -0.2287283488E-02   0.1069875100E-01   0.1433085386E-04  -0.8879726364E-02
   0.0000000000E+00   0.0000000000E+00   0.9970046923E+00   0.0000000000E+00   0.0000000000E+00  -0.2990944745E-04   0.0000000000E+00   0.0000000000E+00  -0.2965398229E-02   0.8579143189E+01  -0.6594192393E-01  -0.5105689929E-01  -0.1708381502E-02  -0.4325138307E-02   0.8675935629E-02
   0.1008661838E+01   0.0000000000E+00   0.9970159827E+00   0.5717741197E-04   0.0000000000E+00  -0.2363532932E-04   0.8604660274E-02   0.0000000000E+00  -0.2960381962E-02   0.8546971858E+01  -0.2982977691E-01   0.9510858699E-02  -0.5991318196E-02   0.1433885549E-01   0.2704405251E-02
   0.1008610166E+01   0.9971357409E+00   0.9970392074E+00   0.6642788736E-04  -0.1220924412E-04  -0.1911910307E-04   0.8543737647E-02  -0.2852049841E-02  -0.2941673546E-02   0.8544224126E+01  -0.3257750926E-01   0.1500632340E-01   0.2025373914E-03   0.1120985320E-01   0.1974282591E-02
   0.0000000000E+00   0.9971312398E+00   0.9970977441E+00   0.0000000000E+00  -0.3051994867E-04  -0.3865237397E-04   0.0000000000E+00  -0.2838240269E-02  -0.2863603545E-02   0.8554798682E+01  -0.7810125733E-01  -0.1455305869E-01   0.2675823983E-02  -0.8094775090E-03   0.1545186064E-01
   0.2017100000E+01   0.0000000000E+00  -0.2361720702E-03   0.1000000000E-03   0.0000000000E+00  -0.1162563504E-04   0.1700000000E-01   0.0000000000E+00  -0.2245464351E-03   0.8524207845E+01   0.1485287515E-01   0.5210079434E-01   0.5845173266E-02  -0.1145389758E-02  -0.9608504885E-02
   0.2017100000E+01   0.9972631908E+00  -0.2345861423E-03   0.1000000000E-03  -0.5808411570E-05  -0.1967564216E-04   0.1700000000E-01  -0.2731000837E-02  -0.2149105001E-03   0.8535763926E+01   0.1498902224E-01   0.4040856588E-01   0.1740031335E-01  -0.7679473223E-02  -0.1757615610E-01
   0.2017100000E+01   0.0000000000E+00   0.9970644597E+00   0.1000000000E-03   0.0000000000E+00  -0.2298938871E-04   0.1700000000E-01   0.0000000000E+00  -0.2912550867E-02   0.8513512468E+01   0.1223291190E-01   0.6541613351E-01   0.1910918898E-02   0.8992134183E-02  -0.1552269266E-01
   0.2017100000E+01   0.9971712668E+00   0.9969991052E+00   0.1000000000E-03  -0.5932450278E-05  -0.1362535918E-04   0.1700000000E-01  -0.2822800702E-02  -0.2987269442E-02   0.8525578709E+01   0.1211397916E-01   0.5346882522E-01   0.9914424587E-02  -0.1629168139E-04  -0.2349034387E-01
     1     2     3     4     5     6     7     8
     2     9    10     3     6    11    12     7
 VARIABLES = X,Y,Z,DU1,DU2,DU3,U1,U2,U3,S11,S22,S33,S12,S13,S23
 ZONE, T="0.1720D+01" F=FEPOINT, I=   12 J=    2 ET=BRICK
   0.0000000000E+00   0.0000000000E+00   0.0000000000E+00   0.0000000000E+00   0.0000000000E+00   0.0000000000E+00   0.0000000000E+00   0.0000000000E+00   0.0000000000E+00   0.8626387978E+01  -0.7083071335E-01  -0.4506470083E-01   0.5439851428E-02  -0.1648211483E-01  -0.1670118112E-01
   0.1008620863E+01   0.0000000000E+00  -0.1881009153E-03   0.5788146058E-04   0.0000000000E+00  -0.4094507027E-05   0.8562981623E-02   0.0000000000E+00  -0.1840064083E-03   0.8597063552E+01  -0.2668889097E-01   0.8729043711E-02   0.1792932657E-02   0.2191807757E-02  -0.2063134033E-02
   0.1008585325E+01   0.9971291994E+00  -0.1623009181E-03   0.6485567150E-04  -0.1343923816E-04  -0.9223865467E-05   0.8520469390E-02  -0.2857361314E-02  -0.1530770526E-03   0.8593685406E+01  -0.3006703658E-01   0.1548533493E-01   0.1304237231E-01   0.6943567949E-02  -0.2633101011E-02
   0.0000000000E+00   0.9970184805E+00  -0.2019259007E-03   0.0000000000E+00  -0.2820256229E-04   0.1238075403E-06   0.0000000000E+00  -0.2953316929E-02  -0.2020497083E-03   0.8604158740E+01  -0.8360344294E-01  -0.1006273430E-01   0.1560795624E-01  -0.6408197034E-04  -0.9914799599E-02
   0.0000000000E+00   0.0000000000E+00   0.9969760340E+00   0.0000000000E+00   0.0000000000E+00  -0.2865828749E-04   0.0000000000E+00   0.0000000000E+00  -0.2995307676E-02   0.8637764656E+01  -0.6973267132E-01  -0.5753942185E-01   0.1458535411E-02  -0.2712381626E-02   0.7186166934E-02
   0.1008718224E+01   0.0000000000E+00   0.9969923321E+00   0.5638593059E-04   0.0000000000E+00  -0.2365056461E-04   0.8661837686E-02   0.0000000000E+00  -0.2984017291E-02   0.8597443530E+01  -0.2744884694E-01   0.9109021696E-02  -0.2406702679E-02   0.1466558003E-01   0.3004084380E-02
   0.1008676105E+01   0.9971241999E+00   0.9970197201E+00   0.6593972978E-04  -0.1154105923E-04  -0.1948725714E-04   0.8610165535E-02  -0.2864259085E-02  -0.2960792649E-02   0.8594065384E+01  -0.3082699255E-01   0.1586531291E-01   0.5192836932E-02   0.1244138887E-01   0.2434117402E-02
   0.0000000000E+00   0.9971022133E+00   0.9970592457E+00   0.0000000000E+00  -0.2902648727E-04  -0.3849835342E-04   0.0000000000E+00  -0.2868760218E-02  -0.2902255919E-02   0.8615168929E+01  -0.8232215588E-01  -0.2235421029E-01   0.7920191958E-02   0.1861473320E-02   0.1397254846E-01
   0.2017200000E+01   0.0000000000E+00  -0.2469055277E-03   0.1000000000E-03   0.0000000000E+00  -0.1073345751E-04   0.1710000000E-01   0.0000000000E+00  -0.2361720702E-03   0.8568025294E+01   0.2206443890E-01   0.5762511264E-01   0.7602521235E-02  -0.2985669683E-02  -0.1009480075E-01
   0.2017200000E+01   0.9972562740E+00  -0.2528833672E-03   0.1000000000E-03  -0.6916770236E-05  -0.1829722494E-04   0.1710000000E-01  -0.2736809248E-02  -0.2345861423E-03   0.8577007271E+01   0.2158990852E-01   0.4911766604E-01   0.1993329573E-01  -0.9350447076E-02  -0.1790801979E-01
   0.2017200000E+01   0.0000000000E+00   0.9970395461E+00   0.1000000000E-03   0.0000000000E+00  -0.2491363003E-04   0.1710000000E-01   0.0000000000E+00  -0.2935540255E-02   0.8557333173E+01   0.1959728018E-01   0.7078439201E-01   0.3734301662E-02   0.8192141663E-02  -0.1411125887E-01
   0.2017200000E+01   0.9971652495E+00   0.9969846973E+00   0.1000000000E-03  -0.6017306570E-05  -0.1440790555E-04   0.1710000000E-01  -0.2828733152E-02  -0.3000894802E-02   0.8566681640E+01   0.1893950478E-01   0.6209370038E-01   0.1247172434E-01  -0.2803605274E-03  -0.2192447791E-01
     1     2     3     4     5     6     7     8
     2     9    10     3     6    11    12     7
 VARIABLES = X,Y,Z,DU1,DU2,DU3,U1,U2,U3,S11,S22,S33,S12,S13,S23
 ZONE, T="0.1730D+01" F=FEPOINT, I=   12 J=    2 ET=BRICK
   0.0000000000E+00   0.0000000000E+00   0.0000000000E+00   0.0000000000E+00   0.0000000000E+00   0.0000000000E+00   0.0000000000E+00   0.0000000000E+00   0.0000000000E+00   0.8685329361E+01  -0.7311950153E-01  -0.5067926028E-01   0.8221254872E-02  -0.1697742472E-01  -0.1786384329E-01
   0.1008678607E+01   0.0000000000E+00  -0.1919457230E-03   0.5774385420E-04   0.0000000000E+00  -0.3844807617E-05   0.8620863084E-02   0.0000000000E+00  -0.1881009153E-03   0.8647495808E+01  -0.2426166288E-01   0.7859079653E-02   0.4940404053E-02   0.8512584865E-03  -0.2697831766E-02
   0.1008649944E+01   0.9971163385E+00  -0.1712503588E-03   0.6461905748E-04  -0.1286094802E-04  -0.8949440717E-05   0.8585325061E-02  -0.2870800553E-02  -0.1623009181E-03   0.8643518140E+01  -0.2823933055E-01   0.1581441500E-01   0.1738377353E-01   0.6002305023E-02  -0.3090431082E-02
   0.0000000000E+00   0.9969922095E+00  -0.2018129998E-03   0.0000000000E+00  -0.2627096843E-04   0.1129009349E-06   0.0000000000E+00  -0.2981519492E-02  -0.2019259007E-03   0.8664764515E+01  -0.8618138101E-01  -0.1705253542E-01   0.2019399225E-01  -0.2706659434E-03  -0.1108569564E-01
   0.0000000000E+00   0.0000000000E+00   0.9969487443E+00   0.0000000000E+00   0.0000000000E+00  -0.2728970997E-04   0.0000000000E+00   0.0000000000E+00  -0.3023965964E-02   0.8696499837E+01  -0.7192659226E-01  -0.6304264630E-01   0.4479334256E-02  -0.1444990145E-02   0.5480458877E-02
   0.1008773781E+01   0.0000000000E+00   0.9969686618E+00   0.5555745313E-04   0.0000000000E+00  -0.2367029967E-04   0.8718223616E-02   0.0000000000E+00  -0.3007667856E-02   0.8647757541E+01  -0.2478512863E-01   0.8120812530E-02   0.1032624245E-02   0.1457518132E-01   0.3268669744E-02
   0.1008741296E+01   0.9971132551E+00   0.9969998159E+00   0.6519093860E-04  -0.1094475850E-04  -0.1990416039E-04   0.8676105265E-02  -0.2875800144E-02  -0.2980279906E-02   0.8643779873E+01  -0.2876279630E-01   0.1607614788E-01   0.9887516278E-02   0.1336526975E-01   0.2876070428E-02
   0.0000000000E+00   0.9970748857E+00   0.9970211333E+00   0.0000000000E+00  -0.2732762269E-04  -0.3811245493E-04   0.0000000000E+00  -0.2897786705E-02  -0.2940754272E-02   0.8675722124E+01  -0.8488203768E-01  -0.2930948739E-01   0.1286980230E-01   0.4244926431E-02   0.1225860653E-01
   0.2017300000E+01   0.0000000000E+00  -0.2566252888E-03   0.1000000000E-03   0.0000000000E+00  -0.9719761102E-05   0.1720000000E-01   0.0000000000E+00  -0.2469055277E-03   0.8611446095E+01   0.2826254369E-01   0.6094721214E-01   0.9162519123E-02  -0.4853921084E-02  -0.1033635878E-01
   0.2017300000E+01   0.9972480778E+00  -0.2696106197E-03   0.1000000000E-03  -0.8196152695E-05  -0.1672725251E-04   0.1720000000E-01  -0.2743726019E-02  -0.2528833672E-03   0.8617847760E+01   0.2716124237E-01   0.5564684890E-01   0.2207652070E-01  -0.1093928463E-01  -0.1791212128E-01
   0.2017300000E+01   0.0000000000E+00   0.9970126738E+00   0.1000000000E-03   0.0000000000E+00  -0.2687236045E-04   0.1720000000E-01   0.0000000000E+00  -0.2960453885E-02   0.8600807362E+01   0.2600614796E-01   0.7384234140E-01   0.5408182289E-02   0.7061490014E-02  -0.1243588974E-01
   0.2017300000E+01   0.9971589376E+00   0.9969693277E+00   0.1000000000E-03  -0.6311892524E-05  -0.1536961912E-04   0.1720000000E-01  -0.2834750459E-02  -0.3015302707E-02   0.8607421894E+01   0.2479841258E-01   0.6843554410E-01   0.1472749831E-01  -0.7289475444E-03  -0.2001165224E-01
     1     2     3     4     5     6     7     8
     2     9    10     3     6    11    12     7
 VARIABLES = X,Y,Z,DU1,DU2,DU3,U1,U2,U3,S11,S22,S33,S12,S13,S23
 ZONE, T="0.1740D+01" F=FEPOINT, I=   12 J=    2 ET=BRICK
   0.0000000000E+00   0.0000000000E+00   0.0000000000E+00   0.0000000000E+00   0.0000000000E+00   0.0000000000E+00   0.0000000000E+00   0.0000000000E+00   0.0000000000E+00   0.8744343809E+01  -0.7382828287E-01  -0.5532283091E-01   0.1079109123E-01  -0.1764772724E-01  -0.1914441413E-01
   0.1008736125E+01   0.0000000000E+00  -0.1955889950E-03   0.5751780998E-04   0.0000000000E+00  -0.3643272000E-05   0.8678606938E-02   0.0000000000E+00  -0.1919457230E-03   0.8697762783E+01  -0.2163365026E-01   0.6413239326E-02   0.7838986576E-02  -0.6489590526E-03  -0.3320498992E-02
   0.1008714070E+01   0.9971039857E+00  -0.1799284490E-03   0.6412620533E-04  -0.1235282201E-04  -0.8678090201E-05   0.8649944119E-02  -0.2883661501E-02  -0.1712503588E-03   0.8693220942E+01  -0.2617549144E-01   0.1549692167E-01   0.2128328937E-01   0.4978493098E-02  -0.3518809875E-02
   0.0000000000E+00   0.9969679703E+00  -0.2018239054E-03   0.0000000000E+00  -0.2423921182E-04  -0.1090562042E-07   0.0000000000E+00  -0.3007790460E-02  -0.2018129998E-03   0.8725461021E+01  -0.8710575386E-01  -0.2316257213E-01   0.2438484027E-01  -0.6131150183E-03  -0.1238773715E-01
   0.0000000000E+00   0.0000000000E+00   0.9969229084E+00   0.0000000000E+00   0.0000000000E+00  -0.2583596000E-04   0.0000000000E+00   0.0000000000E+00  -0.3051255673E-02   0.8755216365E+01  -0.7250788397E-01  -0.6751578596E-01   0.7301364659E-02  -0.5522053381E-03   0.3574450757E-02
   0.1008828467E+01   0.0000000000E+00   0.9969449791E+00   0.5468586229E-04   0.0000000000E+00  -0.2368275305E-04   0.8773781070E-02   0.0000000000E+00  -0.3031338156E-02   0.8697894990E+01  -0.2189806478E-01   0.6545446582E-02   0.4256886406E-02   0.1406428963E-01   0.3492262769E-02
   0.1008805480E+01   0.9971028295E+00   0.9969794613E+00   0.6418393203E-04  -0.1042559055E-04  -0.2035464463E-04   0.8741296203E-02  -0.2886744903E-02  -0.3000184066E-02   0.8693353149E+01  -0.2643990595E-01   0.1562912893E-01   0.1419698168E-01   0.1396576967E-01   0.3293951884E-02
   0.0000000000E+00   0.9970494258E+00   0.9969836185E+00   0.0000000000E+00  -0.2545983155E-04  -0.3751481362E-04   0.0000000000E+00  -0.2925114328E-02  -0.2978866727E-02   0.8736281648E+01  -0.8575939080E-01  -0.3532956303E-01   0.1744433355E-01   0.6302276176E-02   0.1033112773E-01
   0.2017400000E+01   0.0000000000E+00  -0.2652500817E-03   0.1000000000E-03   0.0000000000E+00  -0.8624792955E-05   0.1730000000E-01   0.0000000000E+00  -0.2566252888E-03   0.8654557384E+01   0.3333882331E-01   0.6199584264E-01   0.1049219871E-01  -0.6715702064E-02  -0.1033986628E-01
   0.2017400000E+01   0.9972384686E+00  -0.2846301610E-03   0.1000000000E-03  -0.9609263551E-05  -0.1501954133E-04   0.1730000000E-01  -0.2751922171E-02  -0.2696106197E-03   0.8658417611E+01   0.3159373382E-01   0.5988070481E-01   0.2378705526E-01  -0.1241751753E-01  -0.1760001976E-01
   0.2017400000E+01   0.0000000000E+00   0.9969838683E+00   0.1000000000E-03   0.0000000000E+00  -0.2880548943E-04   0.1730000000E-01   0.0000000000E+00  -0.2987326246E-02   0.8644020479E+01   0.3134712240E-01   0.7452444869E-01   0.6895617403E-02   0.5615273394E-02  -0.1052489045E-01
   0.2017400000E+01   0.9971521426E+00   0.9969528626E+00   0.1000000000E-03  -0.6795039195E-05  -0.1646505396E-04   0.1730000000E-01  -0.2841062351E-02  -0.3030672326E-02   0.8647932634E+01   0.2957606876E-01   0.7238334671E-01   0.1663283906E-01  -0.1358355580E-02  -0.1778504393E-01
     1     2     3     4     5     6     7     8
     2     9    10     3     6    11    12     7
 VARIABLES = X,Y,Z,DU1,DU2,DU3,U1,U2,U3,S11,S22,S33,S12,S13,S23
 ZONE, T="0.1750D+01" F=FEPOINT, I=   12 J=    2 ET=BRICK
   0.0000000000E+00   0.0000000000E+00   0.0000000000E+00   0.0000000000E+00   0.0000000000E+00   0.0000000000E+00   0.0000000000E+00   0.0000000000E+00   0.0000000000E+00   0.8803271016E+01  -0.7298809309E-01  -0.5897030749E-01   0.1310870360E-01  -0.1850204042E-01  -0.2053924435E-01
   0.1008793309E+01   0.0000000000E+00  -0.1990880716E-03   0.5718409216E-04   0.0000000000E+00  -0.3499076632E-05   0.8736124748E-02   0.0000000000E+00  -0.1955889950E-03   0.8747862966E+01  -0.1884936062E-01   0.4427764869E-02   0.1043426226E-01  -0.2292052649E-02  -0.3930350171E-02
   0.1008777446E+01   0.9970920668E+00  -0.1883491759E-03   0.6337554547E-04  -0.1191887034E-04  -0.8420726881E-05   0.8714070324E-02  -0.2896014323E-02  -0.1799284490E-03   0.8742796535E+01  -0.2391579192E-01   0.1456062748E-01   0.2467408976E-01   0.3883849222E-02  -0.3917908913E-02
   0.0000000000E+00   0.9969458182E+00  -0.2020534644E-03   0.0000000000E+00  -0.2215209656E-04  -0.2295590113E-06   0.0000000000E+00  -0.3032029672E-02  -0.2018239054E-03   0.8786049281E+01  -0.8640426144E-01  -0.2833240488E-01   0.2812018945E-01  -0.1098357700E-02  -0.1381128640E-01
   0.0000000000E+00   0.0000000000E+00   0.9968985783E+00   0.0000000000E+00   0.0000000000E+00  -0.2433006151E-04   0.0000000000E+00   0.0000000000E+00  -0.3077091633E-02   0.8813756908E+01  -0.7150308126E-01  -0.7094121155E-01   0.9878358833E-02  -0.5305057893E-04   0.1487791128E-02
   0.1008882233E+01   0.0000000000E+00   0.9969213029E+00   0.5376576667E-04   0.0000000000E+00  -0.2367618458E-04   0.8828466932E-02   0.0000000000E+00  -0.3055020909E-02   0.8747854672E+01  -0.1883277227E-01   0.4419470697E-02   0.7204263831E-02   0.1313994074E-01   0.3669296786E-02
   0.1008868406E+01   0.9970928421E+00   0.9969586381E+00   0.6292587878E-04  -0.9987420445E-05  -0.2082319220E-04   0.8805480135E-02  -0.2897170493E-02  -0.3020538711E-02   0.8742788240E+01  -0.2389920358E-01   0.1455233330E-01   0.1804397731E-01   0.1423553741E-01   0.3681738044E-02
   0.0000000000E+00   0.9970259643E+00   0.9969468903E+00   0.0000000000E+00  -0.2346158830E-04  -0.3672814029E-04   0.0000000000E+00  -0.2950574160E-02  -0.3016381541E-02   0.8796648584E+01  -0.8497595486E-01  -0.4036001420E-01   0.2157444220E-01   0.8003549089E-02   0.8215749077E-02
   0.2017500000E+01   0.0000000000E+00  -0.2727400988E-03   0.1000000000E-03   0.0000000000E+00  -0.7490017069E-05   0.1740000000E-01   0.0000000000E+00  -0.2652500817E-03   0.8697506457E+01   0.3725427819E-01   0.6080939117E-01   0.1156538682E-01  -0.8538861182E-02  -0.1011655655E-01
   0.2017500000E+01   0.9972273517E+00  -0.2978595357E-03   0.1000000000E-03  -0.1111685405E-04  -0.1322937469E-04   0.1740000000E-01  -0.2761531435E-02  -0.2846301610E-03   0.8698906291E+01   0.3484854680E-01   0.6181528803E-01   0.2503355598E-01  -0.1376085593E-01  -0.1698905507E-01
   0.2017500000E+01   0.0000000000E+00   0.9969532145E+00   0.1000000000E-03   0.0000000000E+00  -0.3065375732E-04   0.1740000000E-01   0.0000000000E+00  -0.3016131735E-02   0.8687116925E+01   0.3557654560E-01   0.7287665562E-01   0.8165618961E-02   0.3876135769E-02  -0.8410742427E-02
   0.2017500000E+01   0.9971447003E+00   0.9969352155E+00   0.1000000000E-03  -0.7442348961E-05  -0.1764710101E-04   0.1740000000E-01  -0.2847857391E-02  -0.3047137380E-02   0.8688403348E+01   0.3322751947E-01   0.7393925773E-01   0.1814896255E-01  -0.2159386339E-02  -0.1528324095E-01
     1     2     3     4     5     6     7     8
     2     9    10     3     6    11    12     7
 VARIABLES = X,Y,Z,DU1,DU2,DU3,U1,U2,U3,S11,S22,S33,S12,S13,S23
 ZONE, T="0.1760D+01" F=FEPOINT, I=   12 J=    2 ET=BRICK
   0.0000000000E+00   0.0000000000E+00   0.0000000000E+00   0.0000000000E+00   0.0000000000E+00   0.0000000000E+00   0.0000000000E+00   0.0000000000E+00   0.0000000000E+00   0.8861928389E+01  -0.7067002232E-01  -0.6162736331E-01   0.1514081838E-01  -0.1954627126E-01  -0.2204042900E-01
   0.1008850035E+01   0.0000000000E+00  -0.2025079729E-03   0.5672607118E-04   0.0000000000E+00  -0.3419901307E-05   0.8793308840E-02   0.0000000000E+00  -0.1990880716E-03   0.8797811437E+01  -0.1593920137E-01   0.1973575489E-02   0.1268144670E-01  -0.4059574744E-02  -0.4526559662E-02
   0.1008839817E+01   0.9970805046E+00  -0.1965362267E-03   0.6237081648E-04  -0.1156216761E-04  -0.8187050842E-05   0.8777445870E-02  -0.2907933193E-02  -0.1883491759E-03   0.8792263972E+01  -0.2148666552E-01   0.1306850379E-01   0.2750386073E-01   0.2729667154E-02  -0.4287504993E-02
   0.0000000000E+00   0.9969257639E+00  -0.2025779386E-03   0.0000000000E+00  -0.2005430261E-04  -0.5244742038E-06   0.0000000000E+00  -0.3054181768E-02  -0.2020534644E-03   0.8846311599E+01  -0.8414584395E-01  -0.3253475199E-01   0.3135211997E-01  -0.1732285995E-02  -0.1534200230E-01
   0.0000000000E+00   0.0000000000E+00   0.9968757734E+00   0.0000000000E+00   0.0000000000E+00  -0.2280486387E-04   0.0000000000E+00   0.0000000000E+00  -0.3101421695E-02   0.8871943481E+01  -0.6897914134E-01  -0.7333333571E-01   0.1217104945E-01   0.4369470708E-04  -0.7562125210E-03
   0.1008935026E+01   0.0000000000E+00   0.9968976632E+00   0.5279349822E-04   0.0000000000E+00  -0.2363966483E-04   0.8882232699E-02   0.0000000000E+00  -0.3078697093E-02   0.8797652067E+01  -0.1562046181E-01   0.1814205709E-02   0.9821829225E-02   0.1181923379E-01   0.3794636564E-02
   0.1008929835E+01   0.9970832090E+00   0.9969373434E+00   0.6142924434E-04  -0.9633037110E-05  -0.2129473168E-04   0.8868406014E-02  -0.2907157914E-02  -0.3041361903E-02   0.8792104602E+01  -0.2116792596E-01   0.1290913401E-01   0.2136463543E-01   0.1417551004E-01   0.4033691233E-02
   0.0000000000E+00   0.9970045919E+00   0.9969111134E+00   0.0000000000E+00  -0.2137235704E-04  -0.3577692339E-04   0.0000000000E+00  -0.2974035748E-02  -0.3053109681E-02   0.8856606684E+01  -0.8259495980E-01  -0.4438072123E-01   0.2520258702E-01   0.9327625600E-02   0.5942214171E-02
   0.2017600000E+01   0.0000000000E+00  -0.2790960647E-03   0.1000000000E-03   0.0000000000E+00  -0.6355965948E-05   0.1750000000E-01   0.0000000000E+00  -0.2727400988E-03   0.8740494544E+01   0.4003612931E-01   0.5752994457E-01   0.1236304310E-01  -0.1029394206E-01  -0.9681855175E-02
   0.2017600000E+01   0.9972146722E+00  -0.3092706100E-03   0.1000000000E-03  -0.1267950044E-04  -0.1141107431E-04   0.1750000000E-01  -0.2772648289E-02  -0.2978595357E-03   0.8739553620E+01   0.3695423767E-01   0.6155275977E-01   0.2579656956E-01  -0.1494943404E-01  -0.1610186013E-01
   0.2017600000E+01   0.0000000000E+00   0.9969208533E+00   0.1000000000E-03   0.0000000000E+00  -0.3236120018E-04   0.1750000000E-01   0.0000000000E+00  -0.3046785493E-02   0.8730293838E+01   0.3871647731E-01   0.6905030248E-01   0.9193586560E-02   0.1873709047E-02  -0.6129501754E-02
   0.2017600000E+01   0.9971364725E+00   0.9969163462E+00   0.1000000000E-03  -0.8227717493E-05  -0.1886927362E-04   0.1750000000E-01  -0.2855299740E-02  -0.3064784481E-02   0.8729072921E+01   0.3577458251E-01   0.7321311452E-01   0.1924766140E-01  -0.3117659852E-02  -0.1254950671E-01
     1     2     3     4     5     6     7     8
     2     9    10     3     6    11    12     7
 VARIABLES = X,Y,Z,DU1,DU2,DU3,U1,U2,U3,S11,S22,S33,S12,S13,S23
 ZONE, T="0.1770D+01" F=FEPOINT, I=   12 J=    2 ET=BRICK
   0.0000000000E+00   0.0000000000E+00   0.0000000000E+00   0.0000000000E+00   0.0000000000E+00   0.0000000000E+00   0.0000000000E+00   0.0000000000E+00   0.0000000000E+00   0.8920116662E+01  -0.6698214839E-01  -0.6332861315E-01   0.1686182904E-01  -0.2078302346E-01  -0.2363612296E-01
   0.1008906166E+01   0.0000000000E+00  -0.2059192943E-03   0.5613088575E-04   0.0000000000E+00  -0.3411321399E-05   0.8850034911E-02   0.0000000000E+00  -0.2025079729E-03   0.8847637625E+01  -0.1292137589E-01  -0.8485819379E-03   0.1454588487E-01  -0.5931559008E-02  -0.5108238127E-02
   0.1008900938E+01   0.9970692195E+00  -0.2045211528E-03   0.6112161547E-04  -0.1128513181E-04  -0.7984926134E-05   0.8839816686E-02  -0.2919495361E-02  -0.1965362267E-03   0.8841656356E+01  -0.1890264471E-01   0.1111395570E-01   0.2973519003E-01   0.1526885244E-02  -0.4627435856E-02
   0.0000000000E+00   0.9969077747E+00  -0.2034551934E-03   0.0000000000E+00  -0.1798922716E-04  -0.8772547664E-06   0.0000000000E+00  -0.3074236071E-02  -0.2025779386E-03   0.8906017660E+01  -0.8043772877E-01  -0.3577403128E-01   0.3404536772E-01  -0.2519428135E-02  -0.1696125806E-01
   0.0000000000E+00   0.0000000000E+00   0.9968544813E+00   0.0000000000E+00   0.0000000000E+00  -0.2129213132E-04   0.0000000000E+00   0.0000000000E+00  -0.3124226559E-02   0.8929582982E+01  -0.6504044377E-01  -0.7473663834E-01   0.1414755381E-01  -0.2607972723E-03  -0.3131041831E-02
   0.1008986794E+01   0.0000000000E+00   0.9968740995E+00   0.5176799762E-04   0.0000000000E+00  -0.2356377135E-04   0.8935026197E-02   0.0000000000E+00  -0.3102336758E-02   0.8847317090E+01  -0.1228030620E-01  -0.1169116785E-02   0.1206618944E-01   0.1012868796E-01   0.3863665105E-02
   0.1008989547E+01   0.9970738446E+00   0.9969155880E+00   0.5971217607E-04  -0.9364441306E-05  -0.2175536579E-04   0.8929835258E-02  -0.2916790951E-02  -0.3062656635E-02   0.8841335820E+01  -0.1826157502E-01   0.1079342086E-01   0.2410907126E-01   0.1379456592E-01   0.4344467375E-02
   0.0000000000E+00   0.9969853603E+00   0.9968764268E+00   0.0000000000E+00  -0.1923160709E-04  -0.3468664181E-04   0.0000000000E+00  -0.2995408105E-02  -0.3088886604E-02   0.8915928466E+01  -0.7871826685E-01  -0.4740429915E-01   0.2828345337E-01   0.1026218665E-01   0.3543823069E-02
   0.2017700000E+01   0.0000000000E+00  -0.2843563212E-03   0.1000000000E-03   0.0000000000E+00  -0.5260256485E-05   0.1760000000E-01   0.0000000000E+00  -0.2790960647E-03   0.8783766871E+01   0.4177074618E-01   0.5239181606E-01   0.1287336179E-01  -0.1195444032E-01  -0.9054951955E-02
   0.2017700000E+01   0.9972004129E+00  -0.3188863575E-03   0.1000000000E-03  -0.1425926902E-04  -0.9615747416E-05   0.1760000000E-01  -0.2785327789E-02  -0.3092706100E-03   0.8780639274E+01   0.3799972879E-01   0.5929042974E-01   0.2606843344E-01  -0.1596787520E-01  -0.1496578076E-01
   0.2017700000E+01   0.0000000000E+00   0.9968869759E+00   0.1000000000E-03   0.0000000000E+00  -0.3387740476E-04   0.1760000000E-01   0.0000000000E+00  -0.3079146693E-02   0.8773791193E+01   0.4084775635E-01   0.6329048385E-01   0.9961518104E-02  -0.3561725616E-03  -0.3720136420E-02
   0.2017700000E+01   0.9971273478E+00   0.9968962584E+00   0.1000000000E-03  -0.9124775553E-05  -0.2008782849E-04   0.1760000000E-01  -0.2863527457E-02  -0.3083653755E-02   0.8770219111E+01   0.3729898165E-01   0.7041134022E-01   0.1991138218E-01  -0.4214128643E-02  -0.9630965225E-02
     1     2     3     4     5     6     7     8
     2     9    10     3     6    11    12     7
 VARIABLES = X,Y,Z,DU1,DU2,DU3,U1,U2,U3,S11,S22,S33,S12,S13,S23
 ZONE, T="0.1780D+01" F=FEPOINT, I=   12 J=    2 ET=BRICK
   0.0000000000E+00   0.0000000000E+00   0.0000000000E+00   0.0000000000E+00   0.0000000000E+00   0.0000000000E+00   0.0000000000E+00   0.0000000000E+00   0.0000000000E+00   0.8977626557E+01  -0.6206547591E-01  -0.6413499286E-01   0.1825384719E-01  -0.2221143054E-01  -0.2531098810E-01
   0.1008961556E+01   0.0000000000E+00  -0.2093956178E-03   0.5539041445E-04   0.0000000000E+00  -0.3476323472E-05   0.8906165797E-02   0.0000000000E+00  -0.2059192943E-03   0.8897382040E+01  -0.9804971997E-02  -0.3914887612E-02   0.1600324537E-01  -0.7886629895E-02  -0.5674426738E-02
   0.1008960582E+01   0.9970581298E+00  -0.2123410327E-03   0.5964374488E-04  -0.1108975256E-04  -0.7819879854E-05   0.8900938302E-02  -0.2930780492E-02  -0.2045211528E-03   0.8891017517E+01  -0.1616949434E-01   0.8814157074E-02   0.3134549860E-01   0.2862310252E-03  -0.4937573832E-02
   0.0000000000E+00   0.9968917768E+00  -0.2047255517E-03   0.0000000000E+00  -0.1599790432E-04  -0.1270358364E-05   0.0000000000E+00  -0.3092225298E-02  -0.2034551934E-03   0.8964931559E+01  -0.7542146423E-01  -0.3808400750E-01   0.3617719775E-01  -0.3462583723E-02  -0.1864670312E-01
   0.0000000000E+00   0.0000000000E+00   0.9968346596E+00   0.0000000000E+00   0.0000000000E+00  -0.1982170026E-04   0.0000000000E+00   0.0000000000E+00  -0.3145518690E-02   0.8986473764E+01  -0.5982479463E-01  -0.7522288153E-01   0.1578353466E-01  -0.9559855484E-03  -0.5607501258E-02
   0.1009037486E+01   0.0000000000E+00   0.9968506583E+00   0.5069153284E-04   0.0000000000E+00  -0.2344116731E-04   0.8986794194E-02   0.0000000000E+00  -0.3125900530E-02   0.8896890804E+01  -0.8822501455E-02  -0.4406122883E-02   0.1390384006E-01   0.8103329527E-02   0.3872356776E-02
   0.1009047346E+01   0.9970646615E+00   0.9968933950E+00   0.5779868889E-04  -0.9183086008E-05  -0.2219298690E-04   0.8989547434E-02  -0.2926155392E-02  -0.3084412000E-02   0.8890526282E+01  -0.1518702380E-01   0.8322921803E-02   0.2624154522E-01   0.1310894213E-01   0.4609209682E-02
   0.0000000000E+00   0.9969682824E+00   0.9968429437E+00   0.0000000000E+00  -0.1707787938E-04  -0.3348301117E-04   0.0000000000E+00  -0.3014639712E-02  -0.3123573246E-02   0.8974382195E+01  -0.7348249726E-01  -0.4947361047E-01   0.3078400138E-01   0.1080340643E-01   0.1056783715E-02
   0.2017800000E+01   0.0000000000E+00  -0.2885921980E-03   0.1000000000E-03   0.0000000000E+00  -0.4235876781E-05   0.1770000000E-01   0.0000000000E+00  -0.2843563212E-03   0.8827599634E+01   0.4259325313E-01   0.4570538588E-01   0.1309165225E-01  -0.1349692532E-01  -0.8258308526E-02
   0.2017800000E+01   0.9971845918E+00  -0.3267756788E-03   0.1000000000E-03  -0.1582118274E-04  -0.7889321326E-05   0.1770000000E-01  -0.2799587058E-02  -0.3188863575E-03   0.8822469310E+01   0.3812392141E-01   0.5530504061E-01   0.2585280815E-01  -0.1680519319E-01  -0.1361221614E-01
   0.2017800000E+01   0.0000000000E+00   0.9968518165E+00   0.1000000000E-03   0.0000000000E+00  -0.3515944217E-04   0.1770000000E-01   0.0000000000E+00  -0.3113024098E-02   0.8817878841E+01   0.4209974167E-01   0.5591968964E-01   0.1045801127E-01  -0.2772451468E-02  -0.1223815300E-02
   0.2017800000E+01   0.9971172396E+00   0.9968749948E+00   0.1000000000E-03  -0.1010816907E-04  -0.2126361234E-04   0.1770000000E-01  -0.2872652233E-02  -0.3103741583E-02   0.8812145089E+01   0.3793212425E-01   0.6582105867E-01   0.2013295487E-01  -0.5425761136E-02  -0.6577722912E-02
     1     2     3     4     5     6     7     8
     2     9    10     3     6    11    12     7
 VARIABLES = X,Y,Z,DU1,DU2,DU3,U1,U2,U3,S11,S22,S33,S12,S13,S23
 ZONE, T="0.1790D+01" F=FEPOINT, I=   12 J=    2 ET=BRICK
   0.0000000000E+00   0.0000000000E+00   0.0000000000E+00   0.0000000000E+00   0.0000000000E+00   0.0000000000E+00   0.0000000000E+00   0.0000000000E+00   0.0000000000E+00   0.9034246254E+01  -0.5608899100E-01  -0.6413040975E-01   0.1930654154E-01  -0.2382702825E-01  -0.2704675362E-01
   0.1009016058E+01   0.0000000000E+00  -0.2130105949E-03   0.5450200715E-04   0.0000000000E+00  -0.3614977111E-05   0.8961556212E-02   0.0000000000E+00  -0.2093956178E-03   0.8947092257E+01  -0.6593903797E-02  -0.7086589294E-02   0.1703943469E-01  -0.9902098767E-02  -0.6224107632E-02
   0.1009018541E+01   0.9970471520E+00  -0.2200357885E-03   0.5795932399E-04  -0.1097774746E-04  -0.7694755821E-05   0.8960582047E-02  -0.2941870245E-02  -0.2123410327E-03   0.8940397960E+01  -0.1328819983E-01   0.6302002770E-02   0.3232656147E-01  -0.9815787165E-03  -0.5217816269E-02
   0.0000000000E+00   0.9968776588E+00  -0.2064132384E-03   0.0000000000E+00  -0.1411803298E-04  -0.1687686641E-05   0.0000000000E+00  -0.3108223202E-02  -0.2047255517E-03   0.9022819504E+01  -0.6926804730E-01  -0.3952460418E-01   0.3773692853E-01  -0.4562443961E-02  -0.2037294865E-01
   0.0000000000E+00   0.0000000000E+00   0.9968162389E+00   0.0000000000E+00   0.0000000000E+00  -0.1842072731E-04   0.0000000000E+00   0.0000000000E+00  -0.3165340390E-02   0.9042412968E+01  -0.5349854314E-01  -0.7488757184E-01   0.1706215613E-01  -0.2022796230E-02  -0.8154322688E-02
   0.1009087056E+01   0.0000000000E+00   0.9968273913E+00   0.4957020712E-04   0.0000000000E+00  -0.2326702793E-04   0.9037485727E-02   0.0000000000E+00  -0.3149341697E-02   0.8946421395E+01  -0.5252181979E-02  -0.7757450203E-02   0.1531125120E-01   0.5785549583E-02   0.3817336416E-02
   0.1009103065E+01   0.9970555715E+00   0.9968707973E+00   0.5571862321E-04  -0.9090047257E-05  -0.2259774497E-04   0.9047346123E-02  -0.2935338478E-02  -0.3106604987E-02   0.8939727099E+01  -0.1194647801E-01   0.5631141861E-02   0.2774023142E-01   0.1214144954E-01   0.4823627779E-02
   0.0000000000E+00   0.9969533345E+00   0.9968107525E+00   0.0000000000E+00  -0.1494792869E-04  -0.3219128444E-04   0.0000000000E+00  -0.3031717591E-02  -0.3157056257E-02   0.9031739527E+01  -0.6705425384E-01  -0.5065842067E-01   0.3268317622E-01   0.1095542140E-01  -0.1480517715E-02
   0.2017900000E+01   0.0000000000E+00  -0.2919020284E-03   0.1000000000E-03   0.0000000000E+00  -0.3309830354E-05   0.1780000000E-01   0.0000000000E+00  -0.2885921980E-03   0.8872284718E+01   0.4267460110E-01   0.3783735497E-01   0.1302002080E-01  -0.1490104561E-01  -0.7317112671E-02
   0.2017900000E+01   0.9971672573E+00  -0.3330466353E-03   0.1000000000E-03  -0.1733441924E-04  -0.6270956544E-05   0.1780000000E-01  -0.2815408241E-02  -0.3267756788E-03   0.8865360546E+01   0.3750273657E-01   0.4993339105E-01   0.2516388738E-01  -0.1745455299E-01  -0.1207589426E-01
   0.2017900000E+01   0.0000000000E+00   0.9968156431E+00   0.1000000000E-03   0.0000000000E+00  -0.3617338991E-04   0.1780000000E-01   0.0000000000E+00  -0.3148183540E-02   0.8862841321E+01   0.4263751775E-01   0.4731783481E-01   0.1067807604E-01  -0.5329980927E-02   0.1316837631E-02
   0.2017900000E+01   0.9971060850E+00   0.9968526313E+00   0.1000000000E-03  -0.1115461057E-04  -0.2236354498E-04   0.1780000000E-01  -0.2882760402E-02  -0.3125005196E-02   0.8855163841E+01   0.3784230762E-01   0.5979052528E-01   0.1991501638E-01  -0.6726361834E-02  -0.3441943960E-02
     1     2     3     4     5     6     7     8
     2     9    10     3     6    11    12     7
 VARIABLES = X,Y,Z,DU1,DU2,DU3,U1,U2,U3,S11,S22,S33,S12,S13,S23
 ZONE, T="0.1800D+01" F=FEPOINT, I=   12 J=    2 ET=BRICK
   0.0000000000E+00   0.0000000000E+00   0.0000000000E+00   0.0000000000E+00   0.0000000000E+00   0.0000000000E+00   0.0000000000E+00   0.0000000000E+00   0.0000000000E+00   0.9089769371E+01  -0.4924396228E-01  -0.6341773192E-01   0.2001679250E-01  -0.2562168086E-01  -0.2882286809E-01
   0.1009069527E+01   0.0000000000E+00  -0.2168348792E-03   0.5346894027E-04   0.0000000000E+00  -0.3824284293E-05   0.9016058219E-02   0.0000000000E+00  -0.2130105949E-03   0.8996818481E+01  -0.3291313275E-02  -0.1021892962E-01   0.1765026135E-01  -0.1195406248E-01  -0.6756228252E-02
   0.1009074638E+01   0.9970362014E+00  -0.2276453323E-03   0.5609664518E-04  -0.1095063291E-04  -0.7609543779E-05   0.9018541371E-02  -0.2952847992E-02  -0.2200357885E-03   0.8989850378E+01  -0.1025941516E-01   0.3717274156E-02   0.3268367487E-01  -0.2265607050E-02  -0.5468090650E-02
   0.0000000000E+00   0.9968652756E+00  -0.2085283195E-03   0.0000000000E+00  -0.1238313880E-04  -0.2115081129E-05   0.0000000000E+00  -0.3122341235E-02  -0.2064132384E-03   0.9079457906E+01  -0.6217227385E-01  -0.4017795570E-01   0.3872516045E-01  -0.5817222048E-02  -0.2211235168E-01
   0.0000000000E+00   0.0000000000E+00   0.9967991258E+00   0.0000000000E+00   0.0000000000E+00  -0.1711304868E-04   0.0000000000E+00   0.0000000000E+00  -0.3183761118E-02   0.9097204358E+01  -0.4625093962E-01  -0.7384574207E-01   0.1797385967E-01  -0.3434665702E-02  -0.1073882420E-01
   0.1009135470E+01   0.0000000000E+00   0.9968043520E+00   0.4841422483E-04   0.0000000000E+00  -0.2303929120E-04   0.9087055934E-02   0.0000000000E+00  -0.3172608725E-02   0.8995959722E+01  -0.1573796472E-02  -0.1107768802E-01   0.1627471097E-01   0.3223780479E-02   0.3695924578E-02
   0.1009156572E+01   0.9970464854E+00   0.9968478349E+00   0.5350735797E-04  -0.9086111142E-05  -0.2296234429E-04   0.9103064747E-02  -0.2944428525E-02  -0.3129202732E-02   0.8988991620E+01  -0.8541898359E-02   0.2858515754E-02   0.2859664378E-01   0.1092052523E-01   0.4984062180E-02
   0.0000000000E+00   0.9969404585E+00   0.9967799168E+00   0.0000000000E+00  -0.1287596383E-04  -0.3083562637E-04   0.0000000000E+00  -0.3046665520E-02  -0.3189247542E-02   0.9087783513E+01  -0.5962456135E-01  -0.5105127601E-01   0.3397132968E-01   0.1072961283E-01  -0.4028307792E-02
   0.2018000000E+01   0.0000000000E+00  -0.2944042279E-03   0.1000000000E-03   0.0000000000E+00  -0.2502199582E-05   0.1790000000E-01   0.0000000000E+00  -0.2919020284E-03   0.8918113092E+01   0.4220702020E-01   0.2918868604E-01   0.1266688326E-01  -0.1614944176E-01  -0.6258691175E-02
   0.2018000000E+01   0.9971484841E+00  -0.3378385397E-03   0.1000000000E-03  -0.1877318967E-04  -0.4791904356E-05   0.1790000000E-01  -0.2832742660E-02  -0.3330466353E-03   0.8909623727E+01   0.3633450185E-01   0.4355056967E-01   0.2402534236E-01  -0.1791292017E-01  -0.1039409792E-01
   0.2018000000E+01   0.0000000000E+00   0.9967787477E+00   0.1000000000E-03   0.0000000000E+00  -0.3689537770E-04   0.1790000000E-01   0.0000000000E+00  -0.3184356930E-02   0.8908961365E+01   0.4264747709E-01   0.3789995643E-01   0.1062278488E-01  -0.7980771001E-02   0.3858509809E-02
   0.2018000000E+01   0.9970938413E+00   0.9968292696E+00   0.1000000000E-03  -0.1224365338E-04  -0.2336167428E-04   0.1790000000E-01  -0.2893915012E-02  -0.3147368741E-02   0.8899581379E+01   0.3722026889E-01   0.5270715020E-01   0.1926918050E-01  -0.8087490474E-02  -0.2768969383E-03
     1     2     3     4     5     6     7     8
     2     9    10     3     6    11    12     7
 VARIABLES = X,Y,Z,DU1,DU2,DU3,U1,U2,U3,S11,S22,S33,S12,S13,S23
 ZONE, T="0.1810D+01" F=FEPOINT, I=   12 J=    2 ET=BRICK
   0.0000000000E+00   0.0000000000E+00   0.0000000000E+00   0.0000000000E+00   0.0000000000E+00   0.0000000000E+00   0.0000000000E+00   0.0000000000E+00   0.0000000000E+00   0.9144003149E+01  -0.4173764121E-01  -0.6211420437E-01   0.2038819481E-01  -0.2758357556E-01  -0.3061721819E-01
   0.1009121828E+01   0.0000000000E+00  -0.2209330940E-03   0.5230057466E-04   0.0000000000E+00  -0.4098214851E-05   0.9069527159E-02   0.0000000000E+00  -0.2168348792E-03   0.9046609046E+01   0.9598520574E-04  -0.1317022628E-01   0.1784088663E-01  -0.1401752117E-01  -0.7269736505E-02
   0.1009128728E+01   0.9970251917E+00  -0.2352067247E-03   0.5408976758E-04  -0.1100970405E-04  -0.7561392416E-05   0.9074638016E-02  -0.2963798625E-02  -0.2276453323E-03   0.9039425108E+01  -0.7087952196E-02   0.1197648524E-02   0.3243453600E-01  -0.3554461561E-02  -0.5688371506E-02
   0.0000000000E+00   0.9968544537E+00  -0.2110690291E-03   0.0000000000E+00  -0.1082189190E-04  -0.2540709555E-05   0.0000000000E+00  -0.3134724374E-02  -0.2085283195E-03   0.9134641564E+01  -0.5434646249E-01  -0.4014379819E-01   0.3915277033E-01  -0.7222319674E-02  -0.2383587020E-01
   0.0000000000E+00   0.0000000000E+00   0.9967832072E+00   0.0000000000E+00   0.0000000000E+00  -0.1591866847E-04   0.0000000000E+00   0.0000000000E+00  -0.3200874166E-02   0.9150666334E+01  -0.3828788612E-01  -0.7222714525E-01   0.1851599000E-01  -0.5158739828E-02  -0.1332760446E-01
   0.1009182708E+01   0.0000000000E+00   0.9967815933E+00   0.4723789822E-04   0.0000000000E+00  -0.2275872280E-04   0.9135470159E-02   0.0000000000E+00  -0.3195648016E-02   0.9045554802E+01   0.2204471870E-02  -0.1422446961E-01   0.1678995934E-01   0.4710438228E-03   0.3506169598E-02
   0.1009207777E+01   0.9970373136E+00   0.9968245528E+00   0.5120527435E-04  -0.9171770974E-05  -0.2328215803E-04   0.9156572104E-02  -0.2953514636E-02  -0.3152165077E-02   0.9038370864E+01  -0.4979465531E-02   0.1434051914E-03   0.2881478088E-01   0.9479166720E-02   0.5087534596E-02
   0.0000000000E+00   0.9969295655E+00   0.9967504783E+00   0.0000000000E+00  -0.1089300446E-04  -0.2943857870E-04   0.0000000000E+00  -0.3059541484E-02  -0.3220083168E-02   0.9142316683E+01  -0.5140267428E-01  -0.5076270595E-01   0.3464941050E-01   0.1014374522E-01  -0.6546256472E-02
   0.2018100000E+01   0.0000000000E+00  -0.2962298906E-03   0.1000000000E-03   0.0000000000E+00  -0.1825662691E-05   0.1800000000E-01   0.0000000000E+00  -0.2944042279E-03   0.8965357872E+01   0.4138883620E-01   0.2017159802E-01   0.1204634206E-01  -0.1722759346E-01  -0.5111893614E-02
   0.2018100000E+01   0.9971283669E+00  -0.3413133863E-03   0.1000000000E-03  -0.2011726853E-04  -0.3474846625E-05   0.1800000000E-01  -0.2851515850E-02  -0.3378385397E-03   0.8955546469E+01   0.3482467050E-01   0.3654716581E-01   0.2246906527E-01  -0.1818063076E-01  -0.8605857200E-02
   0.2018100000E+01   0.0000000000E+00   0.9967414356E+00   0.1000000000E-03   0.0000000000E+00  -0.3731212113E-04   0.1800000000E-01   0.0000000000E+00  -0.3221252307E-02   0.8956503096E+01   0.4232226031E-01   0.2809294931E-01   0.1029879166E-01  -0.1067529921E-01   0.6357973125E-02
   0.2018100000E+01   0.9970804832E+00   0.9968050298E+00   0.1000000000E-03  -0.1335816012E-04  -0.2423976648E-04   0.1800000000E-01  -0.2906158666E-02  -0.3170730415E-02   0.8945679760E+01   0.3626406149E-01   0.4497448397E-01   0.1821501424E-01  -0.9479439093E-02   0.2864009539E-02
     1     2     3     4     5     6     7     8
     2     9    10     3     6    11    12     7
 VARIABLES = X,Y,Z,DU1,DU2,DU3,U1,U2,U3,S11,S22,S33,S12,S13,S23
 ZONE, T="0.1820D+01" F=FEPOINT, I=   12 J=    2 ET=BRICK
   0.0000000000E+00   0.0000000000E+00   0.0000000000E+00   0.0000000000E+00   0.0000000000E+00   0.0000000000E+00   0.0000000000E+00   0.0000000000E+00   0.0000000000E+00   0.9196776511E+01  -0.3378653755E-01  -0.6034640518E-01   0.2043044390E-01  -0.2969729724E-01  -0.3240688736E-01
   0.1009172840E+01   0.0000000000E+00  -0.2253610177E-03   0.5101221076E-04   0.0000000000E+00  -0.4427923691E-05   0.9121827734E-02   0.0000000000E+00  -0.2209330940E-03   0.9096506182E+01   0.3553425558E-02  -0.1581048131E-01   0.1762510256E-01  -0.1606653131E-01  -0.7763623110E-02
   0.1009180706E+01   0.9970140357E+00  -0.2427515264E-03   0.5197785401E-04  -0.1115592709E-04  -0.7544801710E-05   0.9128727783E-02  -0.2974808329E-02  -0.2352067247E-03   0.9089165855E+01  -0.3786901562E-02  -0.1129827065E-02   0.3160790754E-01  -0.4836080916E-02  -0.5878705605E-02
   0.0000000000E+00   0.9968449961E+00  -0.2140243593E-03   0.0000000000E+00  -0.9457596468E-05  -0.2955330217E-05   0.0000000000E+00  -0.3145546266E-02  -0.2110690291E-03   0.9188191619E+01  -0.4601372599E-01  -0.3953432504E-01   0.3903973834E-01  -0.8770054603E-02  -0.2551395860E-01
   0.0000000000E+00   0.0000000000E+00   0.9967683538E+00   0.0000000000E+00   0.0000000000E+00  -0.1485338993E-04   0.0000000000E+00   0.0000000000E+00  -0.3216792835E-02   0.9202639800E+01  -0.2982525367E-01  -0.7017097883E-01   0.1869230364E-01  -0.7157174466E-02  -0.1588725307E-01
   0.1009228767E+01   0.0000000000E+00   0.9967591645E+00   0.4605939264E-04   0.0000000000E+00  -0.2242879769E-04   0.9182708057E-02   0.0000000000E+00  -0.3218406739E-02   0.9095249570E+01   0.6066648897E-02  -0.1706709297E-01   0.1686164919E-01  -0.2416574267E-02   0.3246867570E-02
   0.1009256634E+01   0.9970279665E+00   0.9968009976E+00   0.4885697847E-04  -0.9347137329E-05  -0.2355516276E-04   0.9207777379E-02  -0.2962686407E-02  -0.3175447235E-02   0.9087909243E+01  -0.1273678223E-02  -0.2386438734E-02   0.2841005576E-01   0.7853794854E-02   0.5131785074E-02
   0.0000000000E+00   0.9969205391E+00   0.9967224576E+00   0.0000000000E+00  -0.9026369351E-05  -0.2802063093E-04   0.0000000000E+00  -0.3070434488E-02  -0.3249521747E-02   0.9195168872E+01  -0.4260942381E-01  -0.4991588039E-01   0.3472798534E-01   0.9221005886E-02  -0.8994324306E-02
   0.2018200000E+01   0.0000000000E+00  -0.2975153607E-03   0.1000000000E-03   0.0000000000E+00  -0.1285470080E-05   0.1810000000E-01   0.0000000000E+00  -0.2962298906E-03   0.9014258060E+01   0.4040963775E-01   0.1118698658E-01   0.1117746449E-01  -0.1812362881E-01  -0.3906459776E-02
   0.2018200000E+01   0.9971070147E+00  -0.3436471126E-03   0.1000000000E-03  -0.2135216695E-04  -0.2333726324E-05   0.1810000000E-01  -0.2871633119E-02  -0.3413133863E-03   0.9003376989E+01   0.3317086393E-01   0.2930683093E-01   0.2053378001E-01  -0.1826091576E-01  -0.6751124879E-02
   0.2018200000E+01   0.0000000000E+00   0.9967040146E+00   0.1000000000E-03   0.0000000000E+00  -0.3742093665E-04   0.1810000000E-01   0.0000000000E+00  -0.3258564428E-02   0.9005695928E+01   0.4184603875E-01   0.1831271779E-01   0.9717752891E-02  -0.1336383748E-01   0.8772849306E-02
   0.2018200000E+01   0.9970659987E+00   0.9967800424E+00   0.1000000000E-03  -0.1448445868E-04  -0.2498742392E-04   0.1810000000E-01  -0.2919516826E-02  -0.3194970181E-02   0.8993700893E+01   0.3516424664E-01   0.3698954385E-01   0.1677888434E-01  -0.1087222471E-01   0.5928184202E-02
     1     2     3     4     5     6     7     8
     2     9    10     3     6    11    12     7
 VARIABLES = X,Y,Z,DU1,DU2,DU3,U1,U2,U3,S11,S22,S33,S12,S13,S23
 ZONE, T="0.1830D+01" F=FEPOINT, I=   12 J=    2 ET=BRICK
   0.0000000000E+00   0.0000000000E+00   0.0000000000E+00   0.0000000000E+00   0.0000000000E+00   0.0000000000E+00   0.0000000000E+00   0.0000000000E+00   0.0000000000E+00   0.9247947669E+01  -0.2560946776E-01  -0.5824488287E-01   0.2015864230E-01  -0.3194399263E-01  -0.3416892606E-01
   0.1009222465E+01   0.0000000000E+00  -0.2301631508E-03   0.4962465113E-04   0.0000000000E+00  -0.4802133101E-05   0.9172839944E-02   0.0000000000E+00  -0.2253610177E-03   0.9146542366E+01   0.7055344928E-02  -0.1802894871E-01   0.1702447981E-01  -0.1807440800E-01  -0.8236967099E-02
   0.1009230510E+01   0.9970026460E+00  -0.2503035044E-03   0.4980427007E-04  -0.1138975525E-04  -0.7551977937E-05   0.9180705637E-02  -0.2985964257E-02  -0.2427515264E-03   0.9139106006E+01  -0.3810142500E-03  -0.3156230355E-02   0.3024214083E-01  -0.6097567931E-02  -0.6039241439E-02
   0.0000000000E+00   0.9968366883E+00  -0.2173767853E-03   0.0000000000E+00  -0.8307863062E-05  -0.3352425976E-05   0.0000000000E+00  -0.3155003863E-02  -0.2140243593E-03   0.9239962968E+01  -0.3740098667E-01  -0.3846866303E-01   0.3841387452E-01  -0.1044947186E-01  -0.2711747196E-01
   0.0000000000E+00   0.0000000000E+00   0.9967544252E+00   0.0000000000E+00   0.0000000000E+00  -0.1392859945E-04   0.0000000000E+00   0.0000000000E+00  -0.3231646225E-02   0.9252995566E+01  -0.2108196232E-01  -0.6782028564E-01   0.1851239382E-01  -0.9388481790E-02  -0.1838505669E-01
   0.1009273668E+01   0.0000000000E+00   0.9967371091E+00   0.4490022250E-04   0.0000000000E+00  -0.2205541343E-04   0.9228767450E-02   0.0000000000E+00  -0.3240835536E-02   0.9145077215E+01   0.9985645807E-02  -0.1949409915E-01   0.1650267343E-01  -0.5381464833E-02   0.2917571668E-02
   0.1009303145E+01   0.9970183547E+00   0.9967772159E+00   0.4651030402E-04  -0.9611771768E-05  -0.2378170731E-04   0.9256634357E-02  -0.2972033545E-02  -0.3199002397E-02   0.9137640856E+01   0.2549286629E-02  -0.4621380795E-02   0.2740807905E-01   0.6083092229E-02   0.5115297327E-02
   0.0000000000E+00   0.9969132398E+00   0.9966958577E+00   0.0000000000E+00  -0.7299306454E-05  -0.2659990730E-04   0.0000000000E+00  -0.3079460858E-02  -0.3277542378E-02   0.9246204498E+01  -0.3347029759E-01  -0.4864088216E-01   0.3422615312E-01   0.7988991406E-02  -0.1133360258E-01
   0.2018300000E+01   0.0000000000E+00  -0.2983952187E-03   0.1000000000E-03   0.0000000000E+00  -0.8798579961E-06   0.1820000000E-01   0.0000000000E+00  -0.2975153607E-03   0.9065003914E+01   0.3943672463E-01   0.2603566603E-02   0.1008349935E-01  -0.1882812348E-01  -0.2672383515E-02
   0.2018300000E+01   0.9970845458E+00  -0.3450211614E-03   0.1000000000E-03  -0.2246896369E-04  -0.1374048766E-05   0.1820000000E-01  -0.2892985286E-02  -0.3436471126E-03   0.9053309544E+01   0.3154917243E-01   0.2218548898E-01   0.1826358916E-01  -0.1815941319E-01  -0.4869951226E-02
   0.2018300000E+01   0.0000000000E+00   0.9966667854E+00   0.1000000000E-03   0.0000000000E+00  -0.3722926041E-04   0.1820000000E-01   0.0000000000E+00  -0.3295985365E-02   0.9056720092E+01   0.4138106771E-01   0.8943045111E-02   0.8895685970E-02  -0.1599774798E-01   0.1106235377E-01
   0.2018300000E+01   0.9970503865E+00   0.9967544406E+00   0.1000000000E-03  -0.1561219934E-04  -0.2560175053E-04   0.1820000000E-01  -0.2934001284E-02  -0.3219957605E-02   0.9043832089E+01   0.3409033187E-01   0.2912178384E-01   0.1499273793E-01  -0.1223655613E-01   0.8864786058E-02
     1     2     3     4     5     6     7     8
     2     9    10     3     6    11    12     7
 VARIABLES = X,Y,Z,DU1,DU2,DU3,U1,U2,U3,S11,S22,S33,S12,S13,S23
 ZONE, T="0.1840D+01" F=FEPOINT, I=   12 J=    2 ET=BRICK
   0.0000000000E+00   0.0000000000E+00   0.0000000000E+00   0.0000000000E+00   0.0000000000E+00   0.0000000000E+00   0.0000000000E+00   0.0000000000E+00   0.0000000000E+00   0.9297410960E+01  -0.1742059291E-01  -0.5593864530E-01   0.1959256188E-01  -0.3430162896E-01  -0.3588110466E-01
   0.1009270628E+01   0.0000000000E+00  -0.2353708036E-03   0.4816349559E-04   0.0000000000E+00  -0.5207652737E-05   0.9222464596E-02   0.0000000000E+00  -0.2301631508E-03   0.9196737511E+01   0.1056267668E-01  -0.1974018094E-01   0.1606742804E-01  -0.2001398698E-01  -0.8688980255E-02
   0.1009278125E+01   0.9969909351E+00  -0.2578768285E-03   0.4761547616E-04  -0.1171088664E-04  -0.7573324104E-05   0.9230509907E-02  -0.2997354012E-02  -0.2503035044E-03   0.9189265795E+01   0.3090961538E-02  -0.4796750658E-02   0.2838362930E-01  -0.7325090428E-02  -0.6170258821E-02
   0.0000000000E+00   0.9968293038E+00  -0.2211049892E-03   0.0000000000E+00  -0.7384468022E-05  -0.3728203898E-05   0.0000000000E+00  -0.3163311726E-02  -0.2173767853E-03   0.9289850828E+01  -0.2873195105E-01  -0.3706715505E-01   0.3730950969E-01  -0.1224625704E-01  -0.2861854695E-01
   0.0000000000E+00   0.0000000000E+00   0.9967412740E+00   0.0000000000E+00   0.0000000000E+00  -0.1315120846E-04   0.0000000000E+00   0.0000000000E+00  -0.3245574824E-02   0.9301640968E+01  -0.1227303923E-01  -0.6531620703E-01   0.1799106483E-01  -0.1180886850E-01  -0.2078968047E-01
   0.1009317452E+01   0.0000000000E+00   0.9967154626E+00   0.4378452402E-04   0.0000000000E+00  -0.2164646149E-04   0.9273667673E-02   0.0000000000E+00  -0.3262890950E-02   0.9195058363E+01   0.1392097192E-01  -0.2141932856E-01   0.1573339680E-01  -0.8366000947E-02   0.2518592455E-02
   0.1009347360E+01   0.9970083902E+00   0.9967532518E+00   0.4421512711E-04  -0.9964462065E-05  -0.2396414131E-04   0.9303144661E-02  -0.2981645317E-02  -0.3222784105E-02   0.9187586647E+01   0.6449256782E-02  -0.6475898280E-02   0.2584336153E-01   0.4206862130E-02   0.5037313888E-02
   0.0000000000E+00   0.9969075091E+00   0.9966706657E+00   0.0000000000E+00  -0.5730770100E-05  -0.2519197736E-04   0.0000000000E+00  -0.3086760164E-02  -0.3304142285E-02   0.9295328972E+01  -0.2420846582E-01  -0.4706878523E-01   0.3317041301E-01   0.6478685414E-02  -0.1352712276E-01
   0.2018400000E+01   0.0000000000E+00  -0.2989960708E-03   0.1000000000E-03   0.0000000000E+00  -0.6008521159E-06   0.1830000000E-01   0.0000000000E+00  -0.2983952187E-03   0.9117724756E+01   0.3860365468E-01  -0.5260119632E-02   0.8791068183E-02  -0.1933391480E-01  -0.1439285649E-02
   0.2018400000E+01   0.9970610819E+00  -0.3456147687E-03   0.1000000000E-03  -0.2346382768E-04  -0.5936073095E-06   0.1830000000E-01  -0.2915454249E-02  -0.3450211614E-03   0.9105472412E+01   0.3010253650E-01   0.1549334275E-01   0.1570652288E-01  -0.1788369895E-01  -0.3001674259E-02
   0.2018400000E+01   0.0000000000E+00   0.9966300317E+00   0.1000000000E-03   0.0000000000E+00  -0.3675372016E-04   0.1830000000E-01   0.0000000000E+00  -0.3333214625E-02   0.9109694635E+01   0.4105632646E-01   0.3173293737E-03   0.7852297399E-02  -0.1853070319E-01   0.1318800463E-01
   0.2018400000E+01   0.9970336526E+00   0.9967283540E+00   0.1000000000E-03  -0.1673394582E-04  -0.2608661134E-04   0.1830000000E-01  -0.2949613484E-02  -0.3245559356E-02   0.9096194154E+01   0.3317927673E-01   0.2169486020E-01   0.1289287869E-01  -0.1354473629E-01   0.1162561602E-01
     1     2     3     4     5     6     7     8
     2     9    10     3     6    11    12     7
 VARIABLES = X,Y,Z,DU1,DU2,DU3,U1,U2,U3,S11,S22,S33,S12,S13,S23
 ZONE, T="0.1850D+01" F=FEPOINT, I=   12 J=    2 ET=BRICK
   0.0000000000E+00   0.0000000000E+00   0.0000000000E+00   0.0000000000E+00   0.0000000000E+00   0.0000000000E+00   0.0000000000E+00   0.0000000000E+00   0.0000000000E+00   0.9345102600E+01  -0.9422677320E-02  -0.5354969713E-01   0.1875589485E-01  -0.3674534697E-01  -0.3752262094E-01
   0.1009317286E+01   0.0000000000E+00  -0.2410008049E-03   0.4665820681E-04   0.0000000000E+00  -0.5630001317E-05   0.9270628091E-02   0.0000000000E+00  -0.2353708036E-03   0.9247097193E+01   0.1402189863E-01  -0.2088819571E-01   0.1478820861E-01  -0.2185795266E-01  -0.9119046271E-02
   0.1009323585E+01   0.9969788171E+00  -0.2654748586E-03   0.4545975372E-04  -0.1211798739E-04  -0.7598030161E-05   0.9278125384E-02  -0.3009064898E-02  -0.2578768285E-03   0.9239650501E+01   0.6575207132E-02  -0.5994812712E-02   0.2608525841E-01  -0.8503866505E-02  -0.6272194388E-02
   0.0000000000E+00   0.9968226104E+00  -0.2251864507E-03   0.0000000000E+00  -0.6693398112E-05  -0.4081461544E-05   0.0000000000E+00  -0.3170696194E-02  -0.2211049892E-03   0.9337796161E+01  -0.2022027366E-01  -0.3544566256E-01   0.3576620964E-01  -0.1414276518E-01  -0.2999142791E-01
   0.0000000000E+00   0.0000000000E+00   0.9967287502E+00   0.0000000000E+00   0.0000000000E+00  -0.1252375299E-04   0.0000000000E+00   0.0000000000E+00  -0.3258726033E-02   0.9348525400E+01  -0.3602884583E-02  -0.6279229045E-01   0.1714768598E-01  -0.1437351590E-01  -0.2307180548E-01
   0.1009360190E+01   0.0000000000E+00   0.9966942513E+00   0.4273814281E-04   0.0000000000E+00  -0.2121129103E-04   0.9317452197E-02   0.0000000000E+00  -0.3284537411E-02   0.9245199291E+01   0.1781770114E-01  -0.2278609696E-01   0.1458082870E-01  -0.1131395637E-01   0.2050990977E-02
   0.1009389382E+01   0.9969979873E+00   0.9967291454E+00   0.4202203593E-04  -0.1040296232E-04  -0.2410633747E-04   0.9347359788E-02  -0.2991609779E-02  -0.3246748246E-02   0.9237752599E+01   0.1037100964E-01  -0.7892713967E-02   0.2375799705E-01   0.2264949016E-02   0.4897842859E-02
   0.0000000000E+00   0.9969031737E+00   0.9966468559E+00   0.0000000000E+00  -0.4335345725E-05  -0.2380979264E-04   0.0000000000E+00  -0.3092490934E-02  -0.3329334262E-02   0.9342493963E+01  -0.1503798145E-01  -0.4532575641E-01   0.3159354118E-01   0.4723468449E-02  -0.1554061246E-01
   0.2018500000E+01   0.0000000000E+00  -0.2994314629E-03   0.1000000000E-03   0.0000000000E+00  -0.4353920672E-06   0.1840000000E-01   0.0000000000E+00  -0.2989960708E-03   0.9172479918E+01   0.3800154765E-01  -0.1214990038E-01   0.7329364255E-02  -0.1963595227E-01  -0.2358081309E-03
   0.2018500000E+01   0.9970367446E+00  -0.3455983337E-03   0.1000000000E-03  -0.2433728306E-04   0.1643499168E-07   0.1840000000E-01  -0.2938918077E-02  -0.3456147687E-03   0.9159919084E+01   0.2893187209E-01   0.9480608839E-02   0.1291314906E-01  -0.1744286334E-01  -0.1184141109E-02
   0.2018500000E+01   0.0000000000E+00   0.9965940128E+00   0.1000000000E-03   0.0000000000E+00  -0.3601883155E-04   0.1840000000E-01   0.0000000000E+00  -0.3369968346E-02   0.9164668544E+01   0.4095890164E-01  -0.7295880427E-02   0.6610311714E-02  -0.2091979075E-01   0.1511428426E-01
   0.2018500000E+01   0.9970158080E+00   0.9967019025E+00   0.1000000000E-03  -0.1784454937E-04  -0.2645155404E-04   0.1840000000E-01  -0.2966347430E-02  -0.3271645967E-02   0.9150832709E+01   0.3252672662E-01   0.1497212933E-01   0.1051879322E-01  -0.1477146592E-01   0.1416595128E-01
     1     2     3     4     5     6     7     8
     2     9    10     3     6    11    12     7
 VARIABLES = X,Y,Z,DU1,DU2,DU3,U1,U2,U3,S11,S22,S33,S12,S13,S23
 ZONE, T="0.1860D+01" F=FEPOINT, I=   12 J=    2 ET=BRICK
   0.0000000000E+00   0.0000000000E+00   0.0000000000E+00   0.0000000000E+00   0.0000000000E+00   0.0000000000E+00   0.0000000000E+00   0.0000000000E+00   0.0000000000E+00   0.9391005102E+01  -0.1800805490E-02  -0.5118784381E-01   0.1767552232E-01  -0.3924790335E-01  -0.3907473559E-01
   0.1009362427E+01   0.0000000000E+00  -0.2470548931E-03   0.4514099547E-04   0.0000000000E+00  -0.6054088224E-05   0.9317286298E-02   0.0000000000E+00  -0.2410008049E-03   0.9297612015E+01   0.1736535316E-01  -0.2144854722E-01   0.1322593571E-01  -0.2357923323E-01  -0.9526750713E-02
   0.1009366971E+01   0.9969662087E+00  -0.2730895803E-03   0.4338581511E-04  -0.1260840731E-04  -0.7614721665E-05   0.9323585137E-02  -0.3021182886E-02  -0.2654748586E-03   0.9290249803E+01   0.1000314178E-01  -0.6724124465E-02   0.2340490979E-01  -0.9618245217E-02  -0.6345659102E-02
   0.0000000000E+00   0.9968163753E+00  -0.2295997770E-03   0.0000000000E+00  -0.6235072011E-05  -0.4413326259E-05   0.0000000000E+00  -0.3177389592E-02  -0.2251864507E-03   0.9383789721E+01  -0.1206314708E-01  -0.3371012164E-01   0.3382756319E-01  -0.1611817255E-01  -0.3121320872E-01
   0.0000000000E+00   0.0000000000E+00   0.9967167056E+00   0.0000000000E+00   0.0000000000E+00  -0.1204464495E-04   0.0000000000E+00   0.0000000000E+00  -0.3271249786E-02   0.9393644509E+01   0.4741017780E-02  -0.6036907427E-01   0.1600555193E-01  -0.1703775779E-01  -0.2520470371E-01
   0.1009401978E+01   0.0000000000E+00   0.9966734912E+00   0.4178758408E-04   0.0000000000E+00  -0.2076010616E-04   0.9360190339E-02   0.0000000000E+00  -0.3305748702E-02   0.9295491287E+01   0.2160680863E-01  -0.2356927496E-01   0.1307776978E-01  -0.1417179484E-01   0.1516566356E-02
   0.1009429363E+01   0.9969870635E+00   0.9967049323E+00   0.3998090536E-04  -0.1092372484E-04  -0.2421314769E-04   0.9389381824E-02  -0.3002012741E-02  -0.3270854584E-02   0.9288129075E+01   0.1424459726E-01  -0.8844852205E-02   0.2120037867E-01   0.2962559299E-03   0.4697657966E-02
   0.0000000000E+00   0.9969000504E+00   0.9966243922E+00   0.0000000000E+00  -0.3123317028E-05  -0.2246374683E-04   0.0000000000E+00  -0.3096826280E-02  -0.3353144055E-02   0.9387701261E+01  -0.6157390248E-02  -0.4352741854E-01   0.2953352283E-01   0.2758195418E-02  -0.1734317684E-01
   0.2018600000E+01   0.0000000000E+00  -0.2997981543E-03   0.1000000000E-03   0.0000000000E+00  -0.3666913770E-06   0.1850000000E-01   0.0000000000E+00  -0.2994314629E-03   0.9229253293E+01   0.3767360991E-01  -0.1788571403E-01   0.5729388091E-02  -0.1973120078E-01   0.9109588960E-03
   0.2018600000E+01   0.9970116514E+00  -0.3451281401E-03   0.1000000000E-03  -0.2509328082E-04   0.4701936206E-06   0.1850000000E-01  -0.2963255360E-02  -0.3455983337E-03   0.9216623130E+01   0.2809040827E-01   0.4327650253E-02   0.9935295369E-02  -0.1684715487E-01   0.5470248042E-03
   0.2018600000E+01   0.0000000000E+00   0.9965589574E+00   0.1000000000E-03   0.0000000000E+00  -0.3505540820E-04   0.1850000000E-01   0.0000000000E+00  -0.3405987177E-02   0.9221615491E+01   0.4112857701E-01  -0.1370287875E-01   0.5194827313E-02  -0.2312646956E-01   0.1680924186E-01
   0.2018600000E+01   0.9969968677E+00   0.9966751920E+00   0.1000000000E-03  -0.1894036711E-04  -0.2671047769E-04   0.1850000000E-01  -0.2984191979E-02  -0.3298097521E-02   0.9207713195E+01   0.3218144180E-01   0.9146551974E-02   0.7912074184E-02  -0.1589452054E-01   0.1644530776E-01
     1     2     3     4     5     6     7     8
     2     9    10     3     6    11    12     7
 VARIABLES = X,Y,Z,DU1,DU2,DU3,U1,U2,U3,S11,S22,S33,S12,S13,S23
 ZONE, T="0.1870D+01" F=FEPOINT, I=   12 J=    2 ET=BRICK
   0.0000000000E+00   0.0000000000E+00   0.0000000000E+00   0.0000000000E+00   0.0000000000E+00   0.0000000000E+00   0.0000000000E+00   0.0000000000E+00   0.0000000000E+00   0.9435150129E+01   0.5283206778E-02  -0.4894599205E-01   0.1638082400E-01  -0.4178019202E-01  -0.4052131176E-01
   0.1009406073E+01   0.0000000000E+00  -0.2535198036E-03   0.4364558185E-04   0.0000000000E+00  -0.6464910472E-05   0.9362427293E-02   0.0000000000E+00  -0.2470548931E-03   0.9348258146E+01   0.2051294842E-01  -0.2142823807E-01   0.1142359643E-01  -0.2515145849E-01  -0.9911898327E-02
   0.1009408412E+01   0.9969530308E+00  -0.2807017033E-03   0.4144135290E-04  -0.1317791618E-04  -0.7612122982E-05   0.9366970952E-02  -0.3033791293E-02  -0.2730895803E-03   0.9341038321E+01   0.1329312320E-01  -0.6988587621E-02   0.2040406636E-01  -0.1065188733E-01  -0.6391444349E-02
   0.0000000000E+00   0.9968103706E+00  -0.2343266563E-03   0.0000000000E+00  -0.6004723947E-05  -0.4726879333E-05   0.0000000000E+00  -0.3183624664E-02  -0.2295997770E-03   0.9427874494E+01  -0.4435553455E-02  -0.3195159753E-01   0.3154008415E-01  -0.1814875248E-01  -0.3226446405E-01
   0.0000000000E+00   0.0000000000E+00   0.9967049970E+00   0.0000000000E+00   0.0000000000E+00  -0.1170856351E-04   0.0000000000E+00   0.0000000000E+00  -0.3283294431E-02   0.9437042818E+01   0.1259370967E-01  -0.5814918457E-01   0.1459127075E-01  -0.1975811968E-01  -0.2716473439E-01
   0.1009442937E+01   0.0000000000E+00   0.9966531879E+00   0.4095888031E-04   0.0000000000E+00  -0.2030334040E-04   0.9401977923E-02   0.0000000000E+00  -0.3326508809E-02   0.9345911176E+01   0.2520688706E-01  -0.2377520738E-01   0.1126195976E-01  -0.1688979454E-01   0.9178395062E-03
   0.1009467502E+01   0.9969755419E+00   0.9966806424E+00   0.3813943228E-04  -0.1152165210E-04  -0.2428983594E-04   0.9429362730E-02  -0.3012936466E-02  -0.3295067731E-02   0.9338691351E+01   0.1798706183E-01  -0.9335556939E-02   0.1822399050E-01  -0.1662112684E-02   0.4438293483E-02
   0.0000000000E+00   0.9968979495E+00   0.9966032303E+00   0.0000000000E+00  -0.2100865363E-05  -0.2116185199E-04   0.0000000000E+00  -0.3099949597E-02  -0.3375607802E-02   0.9431005052E+01   0.2256015246E-02  -0.4177372425E-01   0.2703257646E-01   0.6183695790E-03  -0.1890788668E-01
   0.2018700000E+01   0.0000000000E+00  -0.3001738909E-03   0.1000000000E-03   0.0000000000E+00  -0.3757366599E-06   0.1860000000E-01   0.0000000000E+00  -0.2997981543E-03   0.9287951762E+01   0.3761312733E-01  -0.2236651948E-01   0.4023242908E-02  -0.1961860713E-01   0.1976006370E-02
   0.2018700000E+01   0.9969859132E+00  -0.3443426022E-03   0.1000000000E-03  -0.2573814974E-04   0.7855379356E-06   0.1860000000E-01  -0.2988348641E-02  -0.3451281401E-03   0.9275476997E+01   0.2758148915E-01   0.1398828195E-03   0.6824922624E-02  -0.1610770692E-01   0.2159097131E-02
   0.2018700000E+01   0.0000000000E+00   0.9965250586E+00   0.1000000000E-03   0.0000000000E+00  -0.3389878626E-04   0.1860000000E-01   0.0000000000E+00  -0.3441042585E-02   0.9280432446E+01   0.4155587573E-01  -0.1878995260E-01   0.3632720245E-02  -0.2511735156E-01   0.1824502661E-01
   0.2018700000E+01   0.9969768493E+00   0.9966483119E+00   0.1000000000E-03  -0.2001839403E-04  -0.2688014469E-04   0.1860000000E-01  -0.3003132346E-02  -0.3324807999E-02   0.9266719813E+01   0.3214317174E-01   0.4335383889E-02   0.5115476036E-02  -0.1689527968E-01   0.1842811737E-01
     1     2     3     4     5     6     7     8
     2     9    10     3     6    11    12     7
 VARIABLES = X,Y,Z,DU1,DU2,DU3,U1,U2,U3,S11,S22,S33,S12,S13,S23
 ZONE, T="0.1880D+01" F=FEPOINT, I=   12 J=    2 ET=BRICK
   0.0000000000E+00   0.0000000000E+00   0.0000000000E+00   0.0000000000E+00   0.0000000000E+00   0.0000000000E+00   0.0000000000E+00   0.0000000000E+00   0.0000000000E+00   0.9477619606E+01   0.1169548449E-01  -0.4689617774E-01   0.1490304653E-01  -0.4431182938E-01  -0.4184923866E-01
   0.1009448279E+01   0.0000000000E+00  -0.2603680244E-03   0.4220589576E-04   0.0000000000E+00  -0.6848220874E-05   0.9406072875E-02   0.0000000000E+00  -0.2535198036E-03   0.9398998960E+01   0.2337514417E-01  -0.2086356019E-01   0.9427113600E-02  -0.2654947094E-01  -0.1027451502E-01
   0.1009448084E+01   0.9969392103E+00  -0.2882813949E-03   0.3967158684E-04  -0.1382048812E-04  -0.7579691581E-05   0.9408412305E-02  -0.3046969209E-02  -0.2807017033E-03   0.9391977260E+01   0.1635344464E-01  -0.6820161130E-02   0.1714655301E-01  -0.1158804427E-01  -0.6410514024E-02
   0.0000000000E+00   0.9968043777E+00  -0.2393533386E-03   0.0000000000E+00  -0.5992928908E-05  -0.5026682349E-05   0.0000000000E+00  -0.3189629388E-02  -0.2343266563E-03   0.9470146394E+01   0.2514599614E-02  -0.3024208171E-01   0.2895225540E-01  -0.2020826970E-01  -0.3312974781E-01
   0.0000000000E+00   0.0000000000E+00   0.9966934900E+00   0.0000000000E+00   0.0000000000E+00  -0.1150696886E-04   0.0000000000E+00   0.0000000000E+00  -0.3295002994E-02   0.9478814626E+01   0.1981746528E-01  -0.5621317867E-01   0.1293419556E-01  -0.2249319179E-01  -0.2893174821E-01
   0.1009483213E+01   0.0000000000E+00   0.9966333368E+00   0.4027643546E-04   0.0000000000E+00  -0.1985105187E-04   0.9442936804E-02   0.0000000000E+00  -0.3346812149E-02   0.9396422959E+01   0.2852714550E-01  -0.2343956085E-01   0.9175247870E-02  -0.1942298129E-01   0.2580342717E-03
   0.1009504044E+01   0.9969633520E+00   0.9966563009E+00   0.3654168994E-04  -0.1218989631E-04  -0.2434153069E-04   0.9467502162E-02  -0.3024458118E-02  -0.3319357567E-02   0.9389401259E+01   0.2150544597E-01  -0.9396161795E-02   0.1488630614E-01  -0.3575562197E-02   0.4122035270E-02
   0.0000000000E+00   0.9968966792E+00   0.9965833203E+00   0.0000000000E+00  -0.1270386137E-05  -0.1991001777E-04   0.0000000000E+00  -0.3102050462E-02  -0.3396769654E-02   0.9472512424E+01   0.1005107524E-01  -0.4014458780E-01   0.2413629581E-01  -0.1660565737E-02  -0.2021225735E-01
   0.2018800000E+01   0.0000000000E+00  -0.3006167164E-03   0.1000000000E-03   0.0000000000E+00  -0.4428254594E-06   0.1870000000E-01   0.0000000000E+00  -0.3001738909E-03   0.9348407538E+01   0.3776494922E-01  -0.2557031120E-01   0.2243506939E-02  -0.1929913356E-01   0.2936882125E-02
   0.2018800000E+01   0.9969596337E+00  -0.3433601063E-03   0.1000000000E-03  -0.2627950310E-04   0.9824959069E-06   0.1870000000E-01  -0.3014086791E-02  -0.3443426022E-03   0.9336294782E+01   0.2735986697E-01  -0.3052472962E-02   0.3633176892E-02  -0.1523635539E-01   0.3622848196E-02
   0.2018800000E+01   0.0000000000E+00   0.9964924717E+00   0.1000000000E-03   0.0000000000E+00  -0.3258696940E-04   0.1870000000E-01   0.0000000000E+00  -0.3474941372E-02   0.9340942213E+01   0.4218357767E-01  -0.2252361489E-01   0.1952110982E-02  -0.2686479185E-01   0.1939834237E-01
   0.2018800000E+01   0.9969557739E+00   0.9966213332E+00   0.1000000000E-03  -0.2107538131E-04  -0.2697863694E-04   0.1870000000E-01  -0.3023150740E-02  -0.3351688144E-02   0.9327658446E+01   0.3236400057E-01   0.5797285047E-03   0.2172127258E-02  -0.1775909520E-01   0.2008430844E-01
     1     2     3     4     5     6     7     8
     2     9    10     3     6    11    12     7
 VARIABLES = X,Y,Z,DU1,DU2,DU3,U1,U2,U3,S11,S22,S33,S12,S13,S23
 ZONE, T="0.1890D+01" F=FEPOINT, I=   12 J=    2 ET=BRICK
   0.0000000000E+00   0.0000000000E+00   0.0000000000E+00   0.0000000000E+00   0.0000000000E+00   0.0000000000E+00   0.0000000000E+00   0.0000000000E+00   0.0000000000E+00   0.9518545011E+01   0.1733365069E-01  -0.4508653859E-01   0.1327474139E-01  -0.4681178433E-01  -0.4304872378E-01
   0.1009489134E+01   0.0000000000E+00  -0.2675591511E-03   0.4085477825E-04   0.0000000000E+00  -0.7191126672E-05   0.9448278771E-02   0.0000000000E+00  -0.2603680244E-03   0.9449787651E+01   0.2585702827E-01  -0.1981609404E-01   0.7284468619E-02  -0.2774987543E-01  -0.1061483275E-01
   0.1009486202E+01   0.9969246821E+00  -0.2957895783E-03   0.3811786775E-04  -0.1452815839E-04  -0.7508183493E-05   0.9448083892E-02  -0.3060789697E-02  -0.2882813949E-03   0.9443017057E+01   0.1908643514E-01  -0.6274907776E-02   0.1369743407E-01  -0.1240992691E-01  -0.6403980978E-02
   0.0000000000E+00   0.9967981914E+00  -0.2446715668E-03   0.0000000000E+00  -0.6186243668E-05  -0.5318228118E-05   0.0000000000E+00  -0.3195622317E-02  -0.2393533386E-03   0.9510753122E+01   0.8670259827E-02  -0.2863125966E-01   0.2611373067E-01  -0.2226848151E-01  -0.3379794182E-01
   0.0000000000E+00   0.0000000000E+00   0.9966820613E+00   0.0000000000E+00   0.0000000000E+00  -0.1142871548E-04   0.0000000000E+00   0.0000000000E+00  -0.3306509963E-02   0.9519103082E+01   0.2630539678E-01  -0.5461635641E-01   0.1106590928E-01  -0.2520431802E-01  -0.3048938889E-01
   0.1009522975E+01   0.0000000000E+00   0.9966139244E+00   0.3976190503E-04   0.0000000000E+00  -0.1941237975E-04   0.9483213239E-02   0.0000000000E+00  -0.3366663201E-02   0.9446980416E+01   0.3147149730E-01  -0.2262332855E-01   0.6862800991E-02  -0.2173185350E-01  -0.4589430588E-03
   0.1009539271E+01   0.9969504323E+00   0.9966319282E+00   0.3522675971E-04  -0.1291973104E-04  -0.2437273664E-04   0.9504043852E-02  -0.3036648014E-02  -0.3343699098E-02   0.9440209822E+01   0.2470090417E-01  -0.9082142292E-02   0.1124781187E-01  -0.5412560801E-02   0.3751908715E-02
   0.0000000000E+00   0.9968960482E+00   0.9965646079E+00   0.0000000000E+00  -0.6309025894E-06  -0.1871241572E-04   0.0000000000E+00  -0.3103320849E-02  -0.3416679672E-02   0.9512382052E+01   0.1710657692E-01  -0.3869650649E-01   0.2089292305E-01  -0.4043804633E-02  -0.2123860693E-01
   0.2018900000E+01   0.0000000000E+00  -0.3011657605E-03   0.1000000000E-03   0.0000000000E+00  -0.5490440700E-06   0.1880000000E-01   0.0000000000E+00  -0.3006167164E-03   0.9410384249E+01   0.3803026814E-01  -0.2754946938E-01   0.4226930453E-03  -0.1877585608E-01   0.3774104636E-02
   0.2018900000E+01   0.9969329085E+00  -0.3422784170E-03   0.1000000000E-03  -0.2672517681E-04   0.1081689249E-05   0.1880000000E-01  -0.3040366294E-02  -0.3433601063E-03   0.9398818772E+01   0.2733629461E-01  -0.5290019508E-02   0.4096346669E-03  -0.1424554886E-01   0.4913068083E-02
   0.2018900000E+01   0.0000000000E+00   0.9964613129E+00   0.1000000000E-03   0.0000000000E+00  -0.3115879904E-04   0.1880000000E-01   0.0000000000E+00  -0.3507528341E-02   0.9402899680E+01   0.4291151592E-01  -0.2494614849E-01   0.1819028924E-03  -0.2834727852E-01   0.2025081634E-01
   0.2018900000E+01   0.9969336669E+00   0.9965943094E+00   0.1000000000E-03  -0.2210701167E-04  -0.2702385574E-04   0.1880000000E-01  -0.3044226121E-02  -0.3378666781E-02   0.9390263345E+01   0.3275297139E-01  -0.2151269621E-02  -0.8750891310E-03  -0.1847549352E-01   0.2138977978E-01
     1     2     3     4     5     6     7     8
     2     9    10     3     6    11    12     7
 VARIABLES = X,Y,Z,DU1,DU2,DU3,U1,U2,U3,S11,S22,S33,S12,S13,S23
 ZONE, T="0.1900D+01" F=FEPOINT, I=   12 J=    2 ET=BRICK
   0.0000000000E+00   0.0000000000E+00   0.0000000000E+00   0.0000000000E+00   0.0000000000E+00   0.0000000000E+00   0.0000000000E+00   0.0000000000E+00   0.0000000000E+00   0.9558104788E+01   0.2212910729E-01  -0.4353942135E-01   0.1152927697E-01  -0.4924903111E-01  -0.4411344389E-01
   0.1009528756E+01   0.0000000000E+00  -0.2750417351E-03   0.3962274714E-04   0.0000000000E+00  -0.7482584021E-05   0.9489133549E-02   0.0000000000E+00  -0.2675591511E-03   0.9500570606E+01   0.2786320861E-01  -0.1836721503E-01   0.5044894037E-02  -0.2873160883E-01  -0.1093325669E-01
   0.1009523018E+01   0.9969093912E+00  -0.3031796945E-03   0.3681639465E-04  -0.1529097213E-04  -0.7390116150E-05   0.9486201760E-02  -0.3075317856E-02  -0.2957895783E-03   0.9494100785E+01   0.2139338776E-01  -0.5427573340E-02   0.1012207604E-01  -0.1310115002E-01  -0.6373067391E-02
   0.0000000000E+00   0.9967916235E+00  -0.2502789097E-03   0.0000000000E+00  -0.6567933658E-05  -0.5607342977E-05   0.0000000000E+00  -0.3201808560E-02  -0.2446715668E-03   0.9549891156E+01   0.1394776437E-01  -0.2714444726E-01   0.2307469745E-01  -0.2429972889E-01  -0.3426244401E-01
   0.0000000000E+00   0.0000000000E+00   0.9966706006E+00   0.0000000000E+00   0.0000000000E+00  -0.1146073725E-04   0.0000000000E+00   0.0000000000E+00  -0.3317938679E-02   0.9558097409E+01   0.3198379652E-01  -0.5338673187E-01   0.9019766319E-02  -0.2785609320E-01  -0.3182528538E-01
   0.1009562408E+01   0.0000000000E+00   0.9965949293E+00   0.3943316966E-04   0.0000000000E+00  -0.1899509628E-04   0.9522975144E-02   0.0000000000E+00  -0.3386075581E-02   0.9497530480E+01   0.3394346100E-01  -0.2140734123E-01   0.4372357681E-02  -0.2378289174E-01  -0.1228525421E-02
   0.1009573498E+01   0.9969367317E+00   0.9966075412E+00   0.3422749551E-04  -0.1370051475E-04  -0.2438693933E-04   0.9539270612E-02  -0.3049567745E-02  -0.3368071834E-02   0.9491060658E+01   0.2747364016E-01  -0.8467699539E-02   0.7371160965E-02  -0.7145030500E-02   0.3331663879E-02
   0.0000000000E+00   0.9968958697E+00   0.9965470360E+00   0.0000000000E+00  -0.1785536029E-06  -0.1757190616E-04   0.0000000000E+00  -0.3103951751E-02  -0.3435392087E-02   0.9550821005E+01   0.2333383944E-01  -0.3746037192E-01   0.1735275505E-01  -0.6497620714E-02  -0.2197428550E-01
   0.2019000000E+01   0.0000000000E+00  -0.3018433550E-03   0.1000000000E-03   0.0000000000E+00  -0.6775945405E-06   0.1890000000E-01   0.0000000000E+00  -0.3011657605E-03   0.9473586370E+01   0.3827430176E-01  -0.2842194627E-01  -0.1407200655E-02  -0.1805411837E-01   0.4471507420E-02
   0.2019000000E+01   0.9969058263E+00  -0.3411755244E-03   0.1000000000E-03  -0.2708226859E-04   0.1102892625E-05   0.1890000000E-01  -0.3067091470E-02  -0.3422784170E-03   0.9462729383E+01   0.2738502680E-01  -0.6675684575E-02  -0.2798257112E-02  -0.1314834539E-01   0.6008992176E-02
   0.2019000000E+01   0.0000000000E+00   0.9964316606E+00   0.1000000000E-03   0.0000000000E+00  -0.2965224740E-04   0.1890000000E-01   0.0000000000E+00  -0.3538687140E-02   0.9466001426E+01   0.4360425871E-01  -0.2616695883E-01  -0.1648605155E-02  -0.2954962209E-01   0.2078927575E-01
   0.2019000000E+01   0.9969105597E+00   0.9965672772E+00   0.1000000000E-03  -0.2310719703E-04  -0.2703215694E-04   0.1890000000E-01  -0.3066333133E-02  -0.3405690636E-02   0.9454207210E+01   0.3318359789E-01  -0.3952082994E-02  -0.3983987321E-02  -0.1903821454E-01   0.2232676050E-01
     1     2     3     4     5     6     7     8
     2     9    10     3     6    11    12     7
 VARIABLES = X,Y,Z,DU1,DU2,DU3,U1,U2,U3,S11,S22,S33,S12,S13,S23
 ZONE, T="0.1910D+01" F=FEPOINT, I=   12 J=    2 ET=BRICK
   0.0000000000E+00   0.0000000000E+00   0.0000000000E+00   0.0000000000E+00   0.0000000000E+00   0.0000000000E+00   0.0000000000E+00   0.0000000000E+00   0.0000000000E+00   0.9596519948E+01   0.2604792588E-01  -0.4225077076E-01   0.9700423199E-02  -0.5159320153E-01  -0.4504055101E-01
   0.1009567293E+01   0.0000000000E+00  -0.2827554971E-03   0.3853688324E-04   0.0000000000E+00  -0.7713761995E-05   0.9528756296E-02   0.0000000000E+00  -0.2750417351E-03   0.9551291293E+01   0.2930318454E-01  -0.1661154858E-01   0.2758139142E-02  -0.2947650782E-01  -0.1123031528E-01
   0.1009558815E+01   0.9968932941E+00  -0.3103997976E-03   0.3579709642E-04  -0.1609703829E-04  -0.7220103111E-05   0.9523018155E-02  -0.3090608828E-02  -0.3031796945E-03   0.9545168087E+01   0.2317997962E-01  -0.4365138729E-02   0.6485371414E-02  -0.1364623314E-01  -0.6319049889E-02
   0.0000000000E+00   0.9967845048E+00  -0.2561784804E-03   0.0000000000E+00  -0.7118752682E-05  -0.5899570629E-05   0.0000000000E+00  -0.3208376494E-02  -0.2502789097E-03   0.9587800939E+01   0.1829801095E-01  -0.2578184759E-01   0.1988539253E-01  -0.2627159590E-01  -0.3452119172E-01
   0.0000000000E+00   0.0000000000E+00   0.9966590118E+00   0.0000000000E+00   0.0000000000E+00  -0.1158877286E-04   0.0000000000E+00   0.0000000000E+00  -0.3329399416E-02   0.9596028317E+01   0.3681310057E-01  -0.5252431464E-01   0.6830488949E-02  -0.3041667072E-01  -0.3293113197E-01
   0.1009601712E+01   0.0000000000E+00   0.9965763240E+00   0.3930345394E-04   0.0000000000E+00  -0.1860528094E-04   0.9562408314E-02   0.0000000000E+00  -0.3405070677E-02   0.9548017115E+01   0.3585153839E-01  -0.1988572550E-01   0.1753530462E-02  -0.2554885527E-01  -0.2045507889E-02
   0.1009607068E+01   0.9969222120E+00   0.9965831549E+00   0.3356947064E-04  -0.1451975965E-04  -0.2438632820E-04   0.9573498107E-02  -0.3063268260E-02  -0.3392458774E-02   0.9541893910E+01   0.2972833347E-01  -0.7639315653E-02   0.3320453410E-02  -0.8748580319E-02   0.2865757498E-02
   0.0000000000E+00   0.9968959626E+00   0.9965305455E+00   0.0000000000E+00   0.9287052820E-07  -0.1649050183E-04   0.0000000000E+00  -0.3104130305E-02  -0.3452963994E-02   0.9588079775E+01   0.2867795207E-01  -0.3644062505E-01   0.1356767382E-01  -0.8989677079E-02  -0.2241177268E-01
   0.2019100000E+01   0.0000000000E+00  -0.3026582482E-03   0.1000000000E-03   0.0000000000E+00  -0.8148931718E-06   0.1900000000E-01   0.0000000000E+00  -0.3018433550E-03   0.9537671458E+01   0.3833631540E-01  -0.2835901901E-01  -0.3215051610E-02  -0.1714172717E-01   0.5016508244E-02
   0.2019100000E+01   0.9968784699E+00  -0.3401117265E-03   0.1000000000E-03  -0.2735633867E-04   0.1063797934E-05   0.1900000000E-01  -0.3094173739E-02  -0.3411755244E-03   0.9527657906E+01   0.2735367080E-01  -0.7362823127E-02  -0.5945556393E-02  -0.1195848417E-01   0.6894630000E-02
   0.2019100000E+01   0.0000000000E+00   0.9964035577E+00   0.1000000000E-03   0.0000000000E+00  -0.2810291824E-04   0.1900000000E-01   0.0000000000E+00  -0.3568339387E-02   0.9529898101E+01   0.4410111543E-01  -0.2635046249E-01  -0.3510035449E-02  -0.3046295288E-01   0.2100592848E-01
   0.2019100000E+01   0.9968864921E+00   0.9965402600E+00   0.1000000000E-03  -0.2406755295E-04  -0.2701720080E-04   0.1900000000E-01  -0.3089440330E-02  -0.3432722793E-02   0.9519114082E+01   0.3350370441E-01  -0.4969033032E-02  -0.7113374422E-02  -0.1944509735E-01   0.2288405024E-01
     1     2     3     4     5     6     7     8
     2     9    10     3     6    11    12     7
 VARIABLES = X,Y,Z,DU1,DU2,DU3,U1,U2,U3,S11,S22,S33,S12,S13,S23
 ZONE, T="0.1920D+01" F=FEPOINT, I=   12 J=    2 ET=BRICK
   0.0000000000E+00   0.0000000000E+00   0.0000000000E+00   0.0000000000E+00   0.0000000000E+00   0.0000000000E+00   0.0000000000E+00   0.0000000000E+00   0.0000000000E+00   0.9634047973E+01   0.2909029208E-01  -0.4119089127E-01   0.7822001806E-02  -0.5381521285E-01  -0.4583053621E-01
   0.1009604913E+01   0.0000000000E+00  -0.2906337568E-03   0.3761988703E-04   0.0000000000E+00  -0.7878259631E-05   0.9567293180E-02   0.0000000000E+00  -0.2827554971E-03   0.9601894360E+01   0.3009682620E-01  -0.1464987268E-01   0.4738057311E-03  -0.2996985126E-01  -0.1150659507E-01
   0.1009593898E+01   0.9968763614E+00  -0.3173948426E-03   0.3508272186E-04  -0.1693269460E-04  -0.6995044947E-05   0.9558815251E-02  -0.3106705866E-02  -0.3103997976E-03   0.9596159344E+01   0.2436181114E-01  -0.3179842569E-02   0.2851108650E-02  -0.1403113461E-01  -0.6243191614E-02
   0.0000000000E+00   0.9967766870E+00  -0.2623780502E-03   0.0000000000E+00  -0.7817740872E-05  -0.6199569842E-05   0.0000000000E+00  -0.3215495247E-02  -0.2561784804E-03   0.9624760388E+01   0.2170620548E-01  -0.2451922080E-01   0.1659575182E-01  -0.2815361269E-01  -0.3457652329E-01
   0.0000000000E+00   0.0000000000E+00   0.9966472137E+00   0.0000000000E+00   0.0000000000E+00  -0.1179809773E-04   0.0000000000E+00   0.0000000000E+00  -0.3340988189E-02   0.9633161750E+01   0.4078741590E-01  -0.5200179329E-01   0.4533811489E-02  -0.3285789220E-01  -0.3380265767E-01
   0.1009641092E+01   0.0000000000E+00   0.9965580769E+00   0.3938063475E-04   0.0000000000E+00  -0.1824713314E-04   0.9601711768E-02   0.0000000000E+00  -0.3423675958E-02   0.9598385424E+01   0.3711469747E-01  -0.1815880831E-01  -0.9428469335E-03  -0.2700887677E-01  -0.2904072482E-02
   0.1009640338E+01   0.9969068487E+00   0.9965587832E+00   0.3327014937E-04  -0.1536331186E-04  -0.2437165413E-04   0.9607067578E-02  -0.3077788020E-02  -0.3416845102E-02   0.9592650408E+01   0.3137968241E-01  -0.6688778203E-02  -0.8393743399E-03  -0.1020259324E-01   0.2359330970E-02
   0.0000000000E+00   0.9968961539E+00   0.9965150757E+00   0.0000000000E+00   0.1913720711E-06  -0.1546983956E-04   0.0000000000E+00  -0.3104037434E-02  -0.3469454495E-02   0.9624445618E+01   0.3311760337E-01  -0.3561584874E-01   0.9590782486E-02  -0.1148921493E-01  -0.2254864475E-01
   0.2019200000E+01   0.0000000000E+00  -0.3036096284E-03   0.1000000000E-03   0.0000000000E+00  -0.9513801800E-06   0.1910000000E-01   0.0000000000E+00  -0.3026582482E-03   0.9602264471E+01   0.3804129626E-01  -0.2757051439E-01  -0.4970893079E-02  -0.1604916989E-01   0.5400298837E-02
   0.2019200000E+01   0.9968509191E+00  -0.3391326787E-03   0.1000000000E-03  -0.2755081879E-04   0.9790477573E-06   0.1910000000E-01  -0.3121530078E-02  -0.3401117265E-03   0.9593201372E+01   0.2707469973E-01  -0.7540818584E-02  -0.8990037258E-02  -0.1069051451E-01   0.7558990210E-02
   0.2019200000E+01   0.0000000000E+00   0.9963770149E+00   0.1000000000E-03   0.0000000000E+00  -0.2654282319E-04   0.1910000000E-01   0.0000000000E+00  -0.3596442306E-02   0.9594208890E+01   0.4422777817E-01  -0.2570141523E-01  -0.5373185851E-02  -0.3108454156E-01   0.2089844500E-01
   0.2019200000E+01   0.9968615150E+00   0.9965132709E+00   0.1000000000E-03  -0.2497709171E-04  -0.2698907819E-04   0.1910000000E-01  -0.3113507883E-02  -0.3459739994E-02   0.9584574338E+01   0.3354690755E-01  -0.5385993506E-02  -0.1022321166E-01  -0.1969782953E-01   0.2305713638E-01
     1     2     3     4     5     6     7     8
     2     9    10     3     6    11    12     7
 VARIABLES = X,Y,Z,DU1,DU2,DU3,U1,U2,U3,S11,S22,S33,S12,S13,S23
 ZONE, T="0.1930D+01" F=FEPOINT, I=   12 J=    2 ET=BRICK
   0.0000000000E+00   0.0000000000E+00   0.0000000000E+00   0.0000000000E+00   0.0000000000E+00   0.0000000000E+00   0.0000000000E+00   0.0000000000E+00   0.0000000000E+00   0.9670975217E+01   0.3128851190E-01  -0.4030660582E-01   0.5927590989E-02  -0.5588784896E-01  -0.4648696026E-01
   0.1009641802E+01   0.0000000000E+00  -0.2986059269E-03   0.3688934551E-04   0.0000000000E+00  -0.7972170177E-05   0.9604913067E-02   0.0000000000E+00  -0.2906337568E-03   0.9652329668E+01   0.3017958112E-01  -0.1258198871E-01  -0.1759253648E-02  -0.3020085299E-01  -0.1176266352E-01
   0.1009628586E+01   0.9968585787E+00  -0.3241090137E-03   0.3468817259E-04  -0.1778278188E-04  -0.6714171099E-05   0.9593897973E-02  -0.3123638561E-02  -0.3173948426E-03   0.9647019769E+01   0.2486968279E-01  -0.1962192037E-02  -0.7185352197E-03  -0.1424379314E-01  -0.6146664690E-02
   0.0000000000E+00   0.9967680440E+00  -0.2688886091E-03   0.0000000000E+00  -0.8643006217E-05  -0.6510558864E-05   0.0000000000E+00  -0.3223312988E-02  -0.2623780502E-03   0.9661076922E+01   0.2419018936E-01  -0.2330998869E-01   0.1325516769E-01  -0.2991597575E-01  -0.3443488772E-01
   0.0000000000E+00   0.0000000000E+00   0.9966351395E+00   0.0000000000E+00   0.0000000000E+00  -0.1207422764E-04   0.0000000000E+00   0.0000000000E+00  -0.3352786286E-02   0.9669791152E+01   0.4393261698E-01  -0.5176664582E-01   0.2166161410E-02  -0.3515525882E-01  -0.3443949043E-01
   0.1009680759E+01   0.0000000000E+00   0.9965401540E+00   0.3966677301E-04   0.0000000000E+00  -0.1792293000E-04   0.9641092403E-02   0.0000000000E+00  -0.3441923091E-02   0.9648585668E+01   0.3766757956E-01  -0.1632598793E-01  -0.3665334900E-02  -0.2814837412E-01  -0.3797816009E-02
   0.1009673676E+01   0.9968906330E+00   0.9965344410E+00   0.3333831529E-04  -0.1621564142E-04  -0.2434222684E-04   0.9640337727E-02  -0.3093151331E-02  -0.3441216756E-02   0.9643275769E+01   0.3235768122E-01  -0.5706191254E-02  -0.5043072986E-02  -0.1149018455E-01   0.1818182817E-02
   0.0000000000E+00   0.9968962801E+00   0.9965005640E+00   0.0000000000E+00   0.1261975654E-06  -0.1451163064E-04   0.0000000000E+00  -0.3103846062E-02  -0.3484924335E-02   0.9660234440E+01   0.3666350265E-01  -0.3494082048E-01   0.5476121042E-02  -0.1396713769E-01  -0.2238741789E-01
   0.2019300000E+01   0.0000000000E+00  -0.3046916289E-03   0.1000000000E-03   0.0000000000E+00  -0.1082000566E-05   0.1920000000E-01   0.0000000000E+00  -0.3036096284E-03   0.9666973411E+01   0.3721250999E-01  -0.2628852397E-01  -0.6646126228E-02  -0.1478983194E-01   0.5617952419E-02
   0.2019300000E+01   0.9968232524E+00  -0.3382730968E-03   0.1000000000E-03  -0.2766666125E-04   0.8595819057E-06   0.1920000000E-01  -0.3149080896E-02  -0.3391326787E-03   0.9658938733E+01   0.2637786012E-01  -0.7419196280E-02  -0.1189226607E-01  -0.9359960815E-02   0.7996198638E-02
   0.2019300000E+01   0.0000000000E+00   0.9963520154E+00   0.1000000000E-03   0.0000000000E+00  -0.2499948143E-04   0.1920000000E-01   0.0000000000E+00  -0.3622985129E-02   0.9658537263E+01   0.4380882992E-01  -0.2444869648E-01  -0.7209234532E-02  -0.3141746434E-01   0.2046994120E-01
   0.2019300000E+01   0.9968356929E+00   0.9964863172E+00   0.1000000000E-03  -0.2582215988E-04  -0.2695375510E-04   0.1920000000E-01  -0.3138484975E-02  -0.3486729072E-02   0.9650161002E+01   0.3314497184E-01  -0.5408576996E-02  -0.1327467034E-01  -0.1980158170E-01   0.2284818742E-01
     1     2     3     4     5     6     7     8
     2     9    10     3     6    11    12     7
 VARIABLES = X,Y,Z,DU1,DU2,DU3,U1,U2,U3,S11,S22,S33,S12,S13,S23
 ZONE, T="0.1940D+01" F=FEPOINT, I=   12 J=    2 ET=BRICK
   0.0000000000E+00   0.0000000000E+00   0.0000000000E+00   0.0000000000E+00   0.0000000000E+00   0.0000000000E+00   0.0000000000E+00   0.0000000000E+00   0.0000000000E+00   0.9707608086E+01   0.3270365671E-01  -0.3952476107E-01   0.4050270002E-02  -0.5778627502E-01  -0.4701606682E-01
   0.1009678160E+01   0.0000000000E+00  -0.3065999243E-03   0.3635723748E-04   0.0000000000E+00  -0.7993997371E-05   0.9641802412E-02   0.0000000000E+00  -0.2986059269E-03   0.9702555954E+01   0.2950704595E-01  -0.1050006490E-01  -0.3893486351E-02  -0.3016308181E-01  -0.1199898407E-01
   0.1009663206E+01   0.9968399476E+00  -0.3304879517E-03   0.3462010235E-04  -0.1863101814E-04  -0.6378938021E-05   0.9628586145E-02  -0.3141421343E-02  -0.3241090137E-03   0.9697703152E+01   0.2465424498E-01  -0.7944629655E-03  -0.4163409624E-02  -0.1427464992E-01  -0.6030467769E-02
   0.0000000000E+00   0.9967584715E+00  -0.2757224475E-03   0.0000000000E+00  -0.9572456527E-05  -0.6833838395E-05   0.0000000000E+00  -0.3231955994E-02  -0.2688886091E-03   0.9697078283E+01   0.2579741687E-01  -0.2208871844E-01   0.9912321269E-02  -0.3153025833E-01  -0.3410641924E-01
   0.0000000000E+00   0.0000000000E+00   0.9966227359E+00   0.0000000000E+00   0.0000000000E+00  -0.1240356013E-04   0.0000000000E+00   0.0000000000E+00  -0.3364860514E-02   0.9706228522E+01   0.4630308647E-01  -0.5174462645E-01  -0.2356363060E-03  -0.3728777094E-01  -0.3484492559E-01
   0.1009720917E+01   0.0000000000E+00   0.9965225209E+00   0.4015789133E-04   0.0000000000E+00  -0.1763312438E-04   0.9680759176E-02   0.0000000000E+00  -0.3459846021E-02   0.9698576943E+01   0.3746506768E-01  -0.1447907577E-01  -0.6362476512E-02  -0.2895880451E-01  -0.4719782620E-02
   0.1009707450E+01   0.9968735728E+00   0.9965101450E+00   0.3377377814E-04  -0.1706023241E-04  -0.2429604699E-04   0.9673676042E-02  -0.3109366973E-02  -0.3465558983E-02   0.9693724141E+01   0.3261226672E-01  -0.4773473834E-02  -0.9225546496E-02  -0.1259805412E-01   0.1248733682E-02
   0.0000000000E+00   0.9968961875E+00   0.9964869460E+00   0.0000000000E+00  -0.9267575850E-07  -0.1361806074E-04   0.0000000000E+00  -0.3103719865E-02  -0.3499435966E-02   0.9695781490E+01   0.3935546108E-01  -0.3434996939E-01   0.1278430540E-02  -0.1639601255E-01  -0.2193527801E-01
   0.2019400000E+01   0.0000000000E+00  -0.3058979672E-03   0.1000000000E-03   0.0000000000E+00  -0.1206338256E-05   0.1930000000E-01   0.0000000000E+00  -0.3046916289E-03   0.9731405423E+01   0.3568413878E-01  -0.2475067407E-01  -0.8213679739E-02  -0.1338018960E-01   0.5668448009E-02
   0.2019400000E+01   0.9967955502E+00  -0.3375607775E-03   0.1000000000E-03  -0.2770224300E-04   0.7123192434E-06   0.1930000000E-01  -0.3176747558E-02  -0.3382730968E-03   0.9724447521E+01   0.2510267429E-01  -0.7211308064E-02  -0.1461557755E-01  -0.7983499184E-02   0.8205508459E-02
   0.2019400000E+01   0.0000000000E+00   0.9963285200E+00   0.1000000000E-03   0.0000000000E+00  -0.2349536834E-04   0.1930000000E-01   0.0000000000E+00  -0.3647984610E-02   0.9722487182E+01   0.4268031971E-01  -0.2282861404E-01  -0.8989910439E-02  -0.3147013907E-01   0.1972886326E-01
   0.2019400000E+01   0.9968091062E+00   0.9964594043E+00   0.1000000000E-03  -0.2658662946E-04  -0.2691285541E-04   0.1930000000E-01  -0.3164307135E-02  -0.3513682827E-02   0.9715446509E+01   0.3214024079E-01  -0.5247862470E-02  -0.1623011725E-01  -0.1976455337E-01   0.2226592370E-01
     1     2     3     4     5     6     7     8
     2     9    10     3     6    11    12     7
 VARIABLES = X,Y,Z,DU1,DU2,DU3,U1,U2,U3,S11,S22,S33,S12,S13,S23
 ZONE, T="0.1950D+01" F=FEPOINT, I=   12 J=    2 ET=BRICK
   0.0000000000E+00   0.0000000000E+00   0.0000000000E+00   0.0000000000E+00   0.0000000000E+00   0.0000000000E+00   0.0000000000E+00   0.0000000000E+00   0.0000000000E+00   0.9744263309E+01   0.3342099259E-01  -0.3875695112E-01   0.2222387500E-02  -0.5948846982E-01  -0.4742629918E-01
   0.1009714189E+01   0.0000000000E+00  -0.3145443628E-03   0.3602969279E-04   0.0000000000E+00  -0.7944438538E-05   0.9678159650E-02   0.0000000000E+00  -0.3065999243E-03   0.9752543881E+01   0.2805858366E-01  -0.8482906404E-02  -0.5883152674E-02  -0.2985478778E-01  -0.1221582884E-01
   0.1009698083E+01   0.9968204872E+00  -0.3364807504E-03   0.3487679465E-04  -0.1946045610E-04  -0.5992798708E-05   0.9663206248E-02  -0.3160052361E-02  -0.3304879517E-03   0.9748174996E+01   0.2368969980E-01   0.2548613014E-03  -0.7425746785E-02  -0.1411712502E-01  -0.5895344244E-02
   0.0000000000E+00   0.9967478871E+00  -0.2828908695E-03   0.0000000000E+00  -0.1058445189E-04  -0.7168422052E-05   0.0000000000E+00  -0.3241528450E-02  -0.2757224475E-03   0.9733102479E+01   0.2660072046E-01  -0.2077584850E-01   0.6615054061E-02  -0.3297008540E-01  -0.3360439957E-01
   0.0000000000E+00   0.0000000000E+00   0.9966099620E+00   0.0000000000E+00   0.0000000000E+00  -0.1277392231E-04   0.0000000000E+00   0.0000000000E+00  -0.3377264074E-02   0.9742794608E+01   0.4797724286E-01  -0.5184450006E-01  -0.2634646576E-02  -0.3923766775E-01  -0.3502561180E-01
   0.1009761761E+01   0.0000000000E+00   0.9965051443E+00   0.4084400747E-04   0.0000000000E+00  -0.1737656922E-04   0.9720917067E-02   0.0000000000E+00  -0.3477479145E-02   0.9748330224E+01   0.3648589644E-01  -0.1269656280E-01  -0.8983371575E-02  -0.2943729068E-01  -0.5662503057E-02
   0.1009742017E+01   0.9968556927E+00   0.9964859149E+00   0.3456736863E-04  -0.1788005678E-04  -0.2423005818E-04   0.9707449821E-02  -0.3126427205E-02  -0.3489855030E-02   0.9743961340E+01   0.3211701259E-01  -0.3958795093E-02  -0.1332229263E-01  -0.1351625839E-01   0.6579815355E-03
   0.0000000000E+00   0.9968957325E+00   0.9964741539E+00   0.0000000000E+00  -0.4549942925E-06  -0.1279211240E-04   0.0000000000E+00  -0.3103812540E-02  -0.3513054026E-02   0.9731431182E+01   0.4125826800E-01  -0.3376210018E-01  -0.2947067931E-02  -0.1875001446E-01  -0.2120371220E-01
   0.2019500000E+01   0.0000000000E+00  -0.3072263750E-03   0.1000000000E-03   0.0000000000E+00  -0.1328407836E-05   0.1940000000E-01   0.0000000000E+00  -0.3058979672E-03   0.9795182539E+01   0.3331321956E-01  -0.2318399406E-01  -0.9648134485E-02  -0.1183995334E-01   0.5554612122E-02
   0.2019500000E+01   0.9967678967E+00  -0.3370206028E-03   0.1000000000E-03  -0.2765352234E-04   0.5401747705E-06   0.1940000000E-01  -0.3204449801E-02  -0.3375607775E-03   0.9789320134E+01   0.2311025644E-01  -0.7118626187E-02  -0.1712598927E-01  -0.6579120442E-02   0.8191203643E-02
   0.2019500000E+01   0.0000000000E+00   0.9963064723E+00   0.1000000000E-03   0.0000000000E+00  -0.2204771676E-04   0.1940000000E-01   0.0000000000E+00  -0.3671479979E-02   0.9785678913E+01   0.4070162412E-01  -0.2106877254E-01  -0.1068764641E-01  -0.3125576121E-01   0.1868877762E-01
   0.2019500000E+01   0.9967818539E+00   0.9964325405E+00   0.1000000000E-03  -0.2725233504E-04  -0.2686377966E-04   0.1940000000E-01  -0.3190893764E-02  -0.3540595683E-02   0.9780019102E+01   0.3039736374E-01  -0.5104701932E-02  -0.1905306717E-01  -0.1959745814E-01   0.2132536914E-01
     1     2     3     4     5     6     7     8
     2     9    10     3     6    11    12     7
 VARIABLES = X,Y,Z,DU1,DU2,DU3,U1,U2,U3,S11,S22,S33,S12,S13,S23
 ZONE, T="0.1960D+01" F=FEPOINT, I=   12 J=    2 ET=BRICK
   0.0000000000E+00   0.0000000000E+00   0.0000000000E+00   0.0000000000E+00   0.0000000000E+00   0.0000000000E+00   0.0000000000E+00   0.0000000000E+00   0.0000000000E+00   0.9781257687E+01   0.3354440448E-01  -0.3790525557E-01   0.4753370435E-03  -0.6097556445E-01  -0.4772774647E-01
   0.1009750096E+01   0.0000000000E+00  -0.3223704207E-03   0.3590700831E-04   0.0000000000E+00  -0.7826057889E-05   0.9714189342E-02   0.0000000000E+00  -0.3145443628E-03   0.9802278260E+01   0.2583973201E-01  -0.6591524924E-02  -0.7684815376E-02  -0.2927911734E-01  -0.1241319490E-01
   0.1009733531E+01   0.9968002332E+00  -0.3420416174E-03   0.3544831890E-04  -0.2025400182E-04  -0.5560867015E-05   0.9698083042E-02  -0.3179512817E-02  -0.3364807504E-03   0.9798414825E+01   0.2197629730E-01   0.1135344501E-02  -0.1045049394E-01  -0.1376802323E-01  -0.5741707444E-02
   0.0000000000E+00   0.9967362287E+00  -0.2904016683E-03   0.0000000000E+00  -0.1165835228E-04  -0.7510798746E-05   0.0000000000E+00  -0.3252112902E-02  -0.2828908695E-03   0.9769487211E+01   0.2669306587E-01  -0.1928344184E-01   0.3410242325E-02  -0.3421174958E-01  -0.3294463585E-01
   0.0000000000E+00   0.0000000000E+00   0.9965967870E+00   0.0000000000E+00   0.0000000000E+00  -0.1317499804E-04   0.0000000000E+00   0.0000000000E+00  -0.3390037996E-02   0.9779808591E+01   0.4905206269E-01  -0.5196381860E-01  -0.4994118491E-02  -0.4099010148E-01  -0.3499117030E-01
   0.1009803470E+01   0.0000000000E+00   0.9964879934E+00   0.4170942071E-04   0.0000000000E+00  -0.1715084502E-04   0.9761761074E-02   0.0000000000E+00  -0.3494855715E-02   0.9797830601E+01   0.3473504862E-01  -0.1103918323E-01  -0.1147824860E-01  -0.2958615217E-01  -0.6618042829E-02
   0.1009777718E+01   0.9968370346E+00   0.9964617744E+00   0.3570121878E-04  -0.1865810922E-04  -0.2414049523E-04   0.9742017189E-02  -0.3144307262E-02  -0.3514085088E-02   0.9793967166E+01   0.3087161390E-01  -0.3312313802E-02  -0.1726985003E-01  -0.1423792940E-01   0.5344462468E-04
   0.0000000000E+00   0.9968947819E+00   0.9964621161E+00   0.0000000000E+00  -0.9506022312E-06  -0.1203778705E-04   0.0000000000E+00  -0.3104267535E-02  -0.3525846139E-02   0.9767526442E+01   0.4245656081E-01  -0.3308616813E-01  -0.7144913357E-02  -0.2100483936E-01  -0.2020805968E-01
   0.2019600000E+01   0.0000000000E+00  -0.3086825044E-03   0.1000000000E-03   0.0000000000E+00  -0.1456129340E-05   0.1950000000E-01   0.0000000000E+00  -0.3072263750E-03   0.9857956275E+01   0.2999016635E-01  -0.2179034327E-01  -0.1092583127E-01  -0.1019213806E-01   0.5282980140E-02
   0.2019600000E+01   0.9967403822E+00  -0.3366782119E-03   0.1000000000E-03  -0.2751442980E-04   0.3423908443E-06   0.1950000000E-01  -0.3232103323E-02  -0.3370206028E-03   0.9853178972E+01   0.2029372699E-01  -0.7316601082E-02  -0.1939209369E-01  -0.5166254526E-02   0.7962399005E-02
   0.2019600000E+01   0.0000000000E+00   0.9962858037E+00   0.1000000000E-03   0.0000000000E+00  -0.2066865259E-04   0.1950000000E-01   0.0000000000E+00  -0.3693527695E-02   0.9847763684E+01   0.3776588078E-01  -0.1937346657E-01  -0.1227573200E-01  -0.3079167069E-01   0.1736807091E-01
   0.2019600000E+01   0.9967540542E+00   0.9964057404E+00   0.1000000000E-03  -0.2779973279E-04  -0.2680013667E-04   0.1950000000E-01  -0.3218146099E-02  -0.3567459462E-02   0.9843498054E+01   0.2781360469E-01  -0.5155561109E-02  -0.2170813999E-01  -0.1931297709E-01   0.2004748978E-01
     1     2     3     4     5     6     7     8
     2     9    10     3     6    11    12     7
 VARIABLES = X,Y,Z,DU1,DU2,DU3,U1,U2,U3,S11,S22,S33,S12,S13,S23
 ZONE, T="0.1970D+01" F=FEPOINT, I=   12 J=    2 ET=BRICK
   0.0000000000E+00   0.0000000000E+00   0.0000000000E+00   0.0000000000E+00   0.0000000000E+00   0.0000000000E+00   0.0000000000E+00   0.0000000000E+00   0.0000000000E+00   0.9818897722E+01   0.3319008242E-01  -0.3686871881E-01  -0.1160675807E-02  -0.6223208141E-01  -0.4793154875E-01
   0.1009786080E+01   0.0000000000E+00  -0.3300133008E-03   0.3598391039E-04   0.0000000000E+00  -0.7642880022E-05   0.9750096351E-02   0.0000000000E+00  -0.3223704207E-03   0.9851759307E+01   0.2288323004E-01  -0.4866275946E-02  -0.9257818949E-02  -0.2844420430E-01  -0.1259073073E-01
   0.1009769848E+01   0.9967792382E+00  -0.3471311240E-03   0.3631695305E-04  -0.2099496780E-04  -0.5089506615E-05   0.9733531361E-02  -0.3199766819E-02  -0.3420416174E-03   0.9848417527E+01   0.1954145063E-01   0.1817282884E-02  -0.1318565417E-01  -0.1322784799E-01  -0.5569579419E-02
   0.0000000000E+00   0.9967234538E+00  -0.2982565135E-03   0.0000000000E+00  -0.1277494104E-04  -0.7854845252E-05   0.0000000000E+00  -0.3263771254E-02  -0.2904016683E-03   0.9806559210E+01   0.2618155496E-01  -0.1752168052E-01   0.3436401338E-03  -0.3523474819E-01  -0.3214478592E-01
   0.0000000000E+00   0.0000000000E+00   0.9965831884E+00   0.0000000000E+00   0.0000000000E+00  -0.1359861349E-04   0.0000000000E+00   0.0000000000E+00  -0.3403212994E-02   0.9817577687E+01   0.4963686221E-01  -0.5199546467E-01  -0.7277800267E-02  -0.4253278236E-01  -0.3475376587E-01
   0.1009846204E+01   0.0000000000E+00   0.9964710408E+00   0.4273323612E-04   0.0000000000E+00  -0.1695266118E-04   0.9803470495E-02   0.0000000000E+00  -0.3512006560E-02   0.9847078539E+01   0.3224476512E-01  -0.9547043487E-02  -0.1379904588E-01  -0.2941237516E-01  -0.7578061609E-02
   0.1009814868E+01   0.9968176567E+00   0.9964377511E+00   0.3714931399E-04  -0.1937797589E-04  -0.2402329884E-04   0.9777718408E-02  -0.3162965371E-02  -0.3538225583E-02   0.9843736759E+01   0.2890298571E-01  -0.2863484657E-02  -0.2100628147E-01  -0.1475896830E-01  -0.5569102968E-03
   0.0000000000E+00   0.9968932121E+00   0.9964507559E+00   0.0000000000E+00  -0.1569719602E-05  -0.1136020856E-04   0.0000000000E+00  -0.3105218137E-02  -0.3537883926E-02   0.9804397959E+01   0.4304894353E-01  -0.3222781760E-01  -0.1125969528E-01  -0.2313761342E-01  -0.1896700304E-01
   0.2019700000E+01   0.0000000000E+00  -0.3102830347E-03   0.1000000000E-03   0.0000000000E+00  -0.1600530328E-05   0.1960000000E-01   0.0000000000E+00  -0.3086825044E-03   0.9919420386E+01   0.2564726776E-01  -0.2073421793E-01  -0.1202497872E-01  -0.8463039128E-02   0.4863581222E-02
   0.2019700000E+01   0.9967131048E+00  -0.3365630693E-03   0.1000000000E-03  -0.2727746031E-04   0.1151425822E-06   0.1960000000E-01  -0.3259617753E-02  -0.3366782119E-03   0.9915689718E+01   0.1658661663E-01  -0.7942899048E-02  -0.2138496510E-01  -0.3765833375E-02   0.7532742188E-02
   0.2019700000E+01   0.0000000000E+00   0.9962664380E+00   0.1000000000E-03   0.0000000000E+00  -0.1936562798E-04   0.1960000000E-01   0.0000000000E+00  -0.3714196348E-02   0.9908436471E+01   0.3380838636E-01  -0.1791142126E-01  -0.1372848177E-01  -0.3009867989E-01   0.1578956622E-01
   0.2019700000E+01   0.9967258454E+00   0.9963790280E+00   0.1000000000E-03  -0.2820874335E-04  -0.2671244611E-04   0.1960000000E-01  -0.3245945832E-02  -0.3594259599E-02   0.9905547020E+01   0.2432712645E-01  -0.5540711162E-02  -0.2416105795E-01  -0.1892520877E-01   0.1845872719E-01
     1     2     3     4     5     6     7     8
     2     9    10     3     6    11    12     7
 VARIABLES = X,Y,Z,DU1,DU2,DU3,U1,U2,U3,S11,S22,S33,S12,S13,S23
 ZONE, T="0.1980D+01" F=FEPOINT, I=   12 J=    2 ET=BRICK
   0.0000000000E+00   0.0000000000E+00   0.0000000000E+00   0.0000000000E+00   0.0000000000E+00   0.0000000000E+00   0.0000000000E+00   0.0000000000E+00   0.0000000000E+00   0.9857469552E+01   0.3247978240E-01  -0.3555024029E-01  -0.2656888155E-02  -0.6324607372E-01  -0.4804929244E-01
   0.1009822330E+01   0.0000000000E+00  -0.3374132387E-03   0.3625004184E-04   0.0000000000E+00  -0.7399937911E-05   0.9786080261E-02   0.0000000000E+00  -0.3300133008E-03   0.9901002845E+01   0.1924858157E-01  -0.3325711346E-02  -0.1056476962E-01  -0.2736312884E-01  -0.1274767914E-01
   0.1009807306E+01   0.9967575706E+00  -0.3517170024E-03   0.3745785066E-04  -0.2166763129E-04  -0.4585878407E-05   0.9769848314E-02  -0.3220761787E-02  -0.3471311240E-03   0.9898193649E+01   0.1643938610E-01   0.2292679576E-02  -0.1558266400E-01  -0.1250100604E-01  -0.5378549820E-02
   0.0000000000E+00   0.9967095371E+00  -0.3064484133E-03   0.0000000000E+00  -0.1391671186E-04  -0.8191899767E-05   0.0000000000E+00  -0.3276546196E-02  -0.2982565135E-03   0.9844623873E+01   0.2518097858E-01  -0.1540575784E-01  -0.2540338760E-02  -0.3602222566E-01  -0.3122366499E-01
   0.0000000000E+00   0.0000000000E+00   0.9965691495E+00   0.0000000000E+00   0.0000000000E+00  -0.1403886728E-04   0.0000000000E+00   0.0000000000E+00  -0.3416811608E-02   0.9856387076E+01   0.4984664799E-01  -0.5183462959E-01  -0.9450286236E-02  -0.4385562893E-01  -0.3432764930E-01
   0.1009890094E+01   0.0000000000E+00   0.9964542625E+00   0.4389010006E-04   0.0000000000E+00  -0.1677829713E-04   0.9846203731E-02   0.0000000000E+00  -0.3528959221E-02   0.9896090092E+01   0.2907408732E-01  -0.8238464223E-02  -0.1590001016E-01  -0.2892705392E-01  -0.8533885944E-02
   0.1009853746E+01   0.9967976322E+00   0.9964138766E+00   0.3887829190E-04  -0.2002440712E-04  -0.2387456231E-04   0.9814867722E-02  -0.3182343347E-02  -0.3562248882E-02   0.9893280896E+01   0.2626489186E-01  -0.2620073301E-02  -0.2447171813E-01  -0.1507773899E-01  -0.1164756629E-02
   0.0000000000E+00   0.9968909090E+00   0.9964399903E+00   0.0000000000E+00  -0.2303113895E-05  -0.1076559701E-04   0.0000000000E+00  -0.3106787857E-02  -0.3549244134E-02   0.9842353779E+01   0.4314165307E-01  -0.3109633823E-01  -0.1523642120E-01  -0.2512682288E-01  -0.1750202185E-01
   0.2019800000E+01   0.0000000000E+00  -0.3120577695E-03   0.1000000000E-03   0.0000000000E+00  -0.1774734788E-05   0.1970000000E-01   0.0000000000E+00  -0.3102830347E-03   0.9979321222E+01   0.2026469050E-01  -0.2013357704E-01  -0.1292577626E-01  -0.6682096978E-02   0.4309652156E-02
   0.2019800000E+01   0.9966861704E+00  -0.3367107074E-03   0.1000000000E-03  -0.2693442146E-04  -0.1476380072E-06   0.1970000000E-01  -0.3286895213E-02  -0.3365630693E-03   0.9976572197E+01   0.1196879120E-01  -0.9088653265E-02  -0.2307811442E-01  -0.2400272713E-02   0.6920024875E-02
   0.2019800000E+01   0.0000000000E+00   0.9962482959E+00   0.1000000000E-03   0.0000000000E+00  -0.1814209882E-04   0.1970000000E-01   0.0000000000E+00  -0.3733561976E-02   0.9967446365E+01   0.2881249179E-01  -0.1680652118E-01  -0.1502143256E-01  -0.2920039194E-01   0.1398006369E-01
   0.2019800000E+01   0.9966973857E+00   0.9963524389E+00   0.1000000000E-03  -0.2845972891E-04  -0.2658905462E-04   0.1970000000E-01  -0.3274154575E-02  -0.3620972045E-02   0.9965884957E+01   0.1992278359E-01  -0.6355406313E-02  -0.2637871353E-01  -0.1844914140E-01   0.1659043641E-01
     1     2     3     4     5     6     7     8
     2     9    10     3     6    11    12     7
 VARIABLES = X,Y,Z,DU1,DU2,DU3,U1,U2,U3,S11,S22,S33,S12,S13,S23
 ZONE, T="0.1990D+01" F=FEPOINT, I=   12 J=    2 ET=BRICK
   0.0000000000E+00   0.0000000000E+00   0.0000000000E+00   0.0000000000E+00   0.0000000000E+00   0.0000000000E+00   0.0000000000E+00   0.0000000000E+00   0.0000000000E+00   0.9897229610E+01   0.3153400368E-01  -0.3386350470E-01  -0.3986266154E-02  -0.6400916893E-01  -0.4809242816E-01
   0.1009859021E+01   0.0000000000E+00  -0.3445160501E-03   0.3669064141E-04   0.0000000000E+00  -0.7102811391E-05   0.9822330303E-02   0.0000000000E+00  -0.3374132387E-03   0.9950039468E+01   0.1502017128E-01  -0.1967167782E-02  -0.1157202365E-01  -0.2605374233E-01  -0.1288284276E-01
   0.1009846146E+01   0.9967353128E+00  -0.3557744841E-03   0.3883992027E-04  -0.2225776816E-04  -0.4057481701E-05   0.9807306165E-02  -0.3242429418E-02  -0.3517170024E-03   0.9947768637E+01   0.1274934079E-01   0.2574493196E-02  -0.1759682954E-01  -0.1159589070E-01  -0.5167760871E-02
   0.0000000000E+00   0.9966944691E+00  -0.3149594122E-03   0.0000000000E+00  -0.1506801461E-04  -0.8510998885E-05   0.0000000000E+00  -0.3290462907E-02  -0.3064484133E-03   0.9883955641E+01   0.2380725157E-01  -0.1286278321E-01  -0.5198923451E-02  -0.3656131071E-01  -0.3020056805E-01
   0.0000000000E+00   0.0000000000E+00   0.9965546574E+00   0.0000000000E+00   0.0000000000E+00  -0.1449209985E-04   0.0000000000E+00   0.0000000000E+00  -0.3430850475E-02   0.9896490585E+01   0.4979537630E-01  -0.5138585230E-01  -0.1147740375E-01  -0.4495045579E-01  -0.3372869136E-01
   0.1009935245E+01   0.0000000000E+00   0.9964376384E+00   0.4515111106E-04   0.0000000000E+00  -0.1662404783E-04   0.9890093831E-02   0.0000000000E+00  -0.3545737518E-02   0.9944896080E+01   0.2530694713E-01  -0.7110555709E-02  -0.1773831802E-01  -0.2814483421E-01  -0.9476597027E-02
   0.1009894594E+01   0.9967770484E+00   0.9963901856E+00   0.4084845409E-04  -0.2058386347E-04  -0.2369097444E-04   0.9853746014E-02  -0.3202367754E-02  -0.3586123445E-02   0.9942625249E+01   0.2303611664E-01  -0.2568894730E-02  -0.2760898250E-01  -0.1519478474E-01  -0.1761515137E-02
   0.0000000000E+00   0.9968877669E+00   0.9964297292E+00   0.0000000000E+00  -0.3142161444E-05  -0.1026110896E-04   0.0000000000E+00  -0.3109090970E-02  -0.3560009731E-02   0.9881669658E+01   0.4284210270E-01  -0.2961165229E-01  -0.1902098048E-01  -0.2695228640E-01  -0.1583683125E-01
   0.2019900000E+01   0.0000000000E+00  -0.3140505790E-03   0.1000000000E-03   0.0000000000E+00  -0.1992809577E-05   0.1980000000E-01   0.0000000000E+00  -0.3120577695E-03   0.1003746526E+02   0.1387368264E-01  -0.2005411276E-01  -0.1361056386E-01  -0.4881638311E-02   0.3637286955E-02
   0.2019900000E+01   0.9966596931E+00  -0.3371639933E-03   0.1000000000E-03  -0.2647728430E-04  -0.4532859738E-06   0.1980000000E-01  -0.3313829635E-02  -0.3367107074E-03   0.1003560839E+02   0.6469591555E-02  -0.1079314788E-01  -0.2444751834E-01  -0.1093357742E-02   0.6145712325E-02
   0.2019900000E+01   0.0000000000E+00   0.9962312975E+00   0.1000000000E-03   0.0000000000E+00  -0.1699838212E-04   0.1980000000E-01   0.0000000000E+00  -0.3751704075E-02   0.1002460410E+02   0.2281269065E-01  -0.1613195548E-01  -0.1613157949E-01  -0.2812253519E-01   0.1196981493E-01
   0.2019900000E+01   0.9966688511E+00   0.9963260217E+00   0.1000000000E-03  -0.2853454649E-04  -0.2641719709E-04   0.1980000000E-01  -0.3302614304E-02  -0.3647561100E-02   0.1002429418E+02   0.1463512106E-01  -0.7644469114E-02  -0.2832933170E-01  -0.1790017013E-01   0.1447824030E-01
     1     2     3     4     5     6     7     8
     2     9    10     3     6    11    12     7
 VARIABLES = X,Y,Z,DU1,DU2,DU3,U1,U2,U3,S11,S22,S33,S12,S13,S23
 ZONE, T="0.2000D+01" F=FEPOINT, I=   12 J=    2 ET=BRICK
   0.0000000000E+00   0.0000000000E+00   0.0000000000E+00   0.0000000000E+00   0.0000000000E+00   0.0000000000E+00   0.0000000000E+00   0.0000000000E+00   0.0000000000E+00   0.9938396387E+01   0.3046543684E-01  -0.3173956039E-01  -0.5123828944E-02  -0.6451652749E-01  -0.4807174175E-01
   0.1009896308E+01   0.0000000000E+00  -0.3512732413E-03   0.3728737493E-04   0.0000000000E+00  -0.6757191200E-05   0.9859020944E-02   0.0000000000E+00  -0.3445160501E-03   0.9998912721E+01   0.1030404252E-01  -0.7689862076E-03  -0.1225018727E-01  -0.2453836150E-01  -0.1299457752E-01
   0.1009886573E+01   0.9967125597E+00  -0.3592862074E-03   0.4042687755E-04  -0.2275313365E-04  -0.3511723315E-05   0.9846146085E-02  -0.3264687186E-02  -0.3557744841E-03   0.9997181092E+01   0.8572413977E-02   0.2694270869E-02  -0.1918783444E-01  -0.1052483715E-01  -0.4935923442E-02
   0.0000000000E+00   0.9966782540E+00  -0.3237586836E-03   0.0000000000E+00  -0.1621506345E-04  -0.8799271408E-05   0.0000000000E+00  -0.3305530922E-02  -0.3149594122E-03   0.9924789484E+01   0.2217107416E-01  -0.9838295460E-02  -0.7591387824E-02  -0.3684334261E-01  -0.2909464142E-01
   0.0000000000E+00   0.0000000000E+00   0.9965397007E+00   0.0000000000E+00   0.0000000000E+00  -0.1495670557E-04   0.0000000000E+00   0.0000000000E+00  -0.3445342575E-02   0.9938102514E+01   0.4958947325E-01  -0.5056972464E-01  -0.1332664362E-01  -0.4581072610E-01  -0.3297392795E-01
   0.1009981730E+01   0.0000000000E+00   0.9964211518E+00   0.4648486207E-04   0.0000000000E+00  -0.1648663871E-04   0.9935244942E-02   0.0000000000E+00  -0.3562361566E-02   0.9993540284E+01   0.2104891461E-01  -0.6141422256E-02  -0.1927472015E-01  -0.2708338493E-01  -0.1039713471E-01
   0.1009937609E+01   0.9967560034E+00   0.9963667154E+00   0.4301494921E-04  -0.2104500573E-04  -0.2347022358E-04   0.9894594468E-02  -0.3222951618E-02  -0.3609814419E-02   0.9991808656E+01   0.1931728607E-01  -0.2678165179E-02  -0.3036429938E-01  -0.1511258609E-01  -0.2338480634E-02
   0.0000000000E+00   0.9968836881E+00   0.9964198746E+00   0.0000000000E+00  -0.4078801414E-05  -0.9854548347E-05   0.0000000000E+00  -0.3112233132E-02  -0.3570270840E-02   0.9922580545E+01   0.4225264408E-01  -0.2771092620E-01  -0.2256071648E-01  -0.2859518659E-01  -0.1399682762E-01
   0.2020000000E+01   0.0000000000E+00  -0.3163191245E-03   0.1000000000E-03   0.0000000000E+00  -0.2268545462E-05   0.1990000000E-01   0.0000000000E+00  -0.3140505790E-03   0.1009372361E+02   0.6556845814E-02  -0.2050716044E-01  -0.1406400601E-01  -0.3096487609E-02   0.2865030319E-02
   0.2020000000E+01   0.9966337940E+00  -0.3379733423E-03   0.1000000000E-03  -0.2589907768E-04  -0.8093489669E-06   0.1990000000E-01  -0.3340306919E-02  -0.3371639933E-03   0.1009264736E+02   0.1680582882E-03  -0.1304212497E-01  -0.2547174148E-01   0.1299767516E-03   0.5234401965E-02
   0.2020000000E+01   0.0000000000E+00   0.9962153649E+00   0.1000000000E-03   0.0000000000E+00  -0.1593262126E-04   0.1990000000E-01   0.0000000000E+00  -0.3768702457E-02   0.1007978650E+02   0.1589477204E-01  -0.1590797751E-01  -0.1703765658E-01  -0.2689233583E-01   0.9791941820E-02
   0.2020000000E+01   0.9966404335E+00   0.9962998376E+00   0.1000000000E-03  -0.2841761481E-04  -0.2618412821E-04   0.1990000000E-01  -0.3331148851E-02  -0.3673978297E-02   0.1008062531E+02   0.8548451004E-02  -0.9400475542E-02  -0.2998274219E-01  -0.1729367715E-01   0.1216131347E-01
     1     2     3     4     5     6     7     8
     2     9    10     3     6    11    12     7
