 VARIABLES = X,Y,Z,DU1,DU2,DU3,U1,U2,U3,S11,S22,S33,S12,S13,S23,Vf
 ZONE, T="0.1000D+00" F=FEPOINT, I=   12 J=    2 ET=BRICK
   0.0000000000E+00   0.0000000000E+00   0.0000000000E+00   0.0000000000E+00   0.0000000000E+00   0.0000000000E+00   0.0000000000E+00   0.0000000000E+00   0.0000000000E+00   0.1599092102E+00   0.1406968438E-01  -0.2216366542E-03  -0.8672830232E-02   0.8672357174E-02  -0.6791129026E-05   0.0000000000E+00
   0.1000215362E+01   0.0000000000E+00   0.8649445366E-04   0.4951905379E-04   0.0000000000E+00   0.1728624275E-04   0.1658428230E-03   0.0000000000E+00   0.6920821091E-04   0.5105389229E+00   0.1156644154E+00   0.6821665356E-01  -0.8280264574E-02   0.8676220848E-02  -0.1168740831E-05   0.0000000000E+00
   0.1000220346E+01   0.9999038516E+00   0.8649657940E-04   0.5136443724E-04  -0.2082637078E-04   0.1728681646E-04   0.1689812588E-03  -0.7532201414E-04   0.6920976294E-04   0.5105383374E+00   0.1156641512E+00   0.6821750323E-01  -0.1734665646E-01   0.8678227342E-02  -0.1018439043E-05   0.0000000000E+00
   0.0000000000E+00   0.9999949764E+00   0.2489551328E-06   0.0000000000E+00  -0.2046060529E-05   0.3009749300E-06   0.0000000000E+00  -0.2977493690E-05  -0.5201979715E-07   0.1604294210E+00   0.1380411436E-01  -0.4762774114E-03  -0.1773882991E-01   0.8676098826E-02  -0.6339394360E-05   0.0000000000E+00
   0.0000000000E+00   0.0000000000E+00   0.9999997247E+00   0.0000000000E+00   0.0000000000E+00  -0.3142993161E-06   0.0000000000E+00   0.0000000000E+00   0.3897248544E-07   0.1599092538E+00   0.1407020100E-01  -0.2221968731E-03  -0.8673071223E-02  -0.8681144085E-02  -0.1003397655E-05   0.0000000000E+00
   0.1000215366E+01   0.0000000000E+00   0.9999135077E+00   0.4952019150E-04   0.0000000000E+00  -0.1728559906E-04   0.1658457118E-03   0.0000000000E+00  -0.6920670258E-04   0.5105387648E+00   0.1156647315E+00   0.6821649558E-01  -0.8280504498E-02  -0.8680077434E-02  -0.2748409395E-06   0.0000000000E+00
   0.1000220348E+01   0.9999038535E+00   0.9999135074E+00   0.5136502099E-04  -0.2082584540E-04  -0.1728568751E-04   0.1689827159E-03  -0.7532060707E-04  -0.6920688184E-04   0.5105381794E+00   0.1156644672E+00   0.6821734520E-01  -0.1734701672E-01  -0.8680062852E-02   0.4906521407E-07   0.0000000000E+00
   0.0000000000E+00   0.9999949844E+00   0.9999997551E+00   0.0000000000E+00  -0.2043825961E-05  -0.2998365340E-06   0.0000000000E+00  -0.2971750987E-05   0.5490888971E-07   0.1604293850E+00   0.1380467085E-01  -0.4767978880E-03  -0.1773925198E-01  -0.8680311342E-02  -0.3780332592E-06   0.0000000000E+00
   0.2001000000E+01   0.0000000000E+00   0.1727109149E-03   0.1000000000E-03   0.0000000000E+00   0.3425710106E-04   0.9000000000E-03   0.0000000000E+00   0.1384538138E-03   0.8611728000E+00   0.2172616594E+00   0.1366482663E+00  -0.8673826592E-02   0.8679480677E-02   0.1231368365E-05   0.0000000000E+00
   0.2001000000E+01   0.9998127235E+00   0.1727382059E-03   0.1000000000E-03  -0.3960760312E-04   0.3427069488E-04   0.9000000000E-03  -0.1476688662E-03   0.1384675110E-03   0.8606501867E+00   0.2175254692E+00   0.1369070698E+00  -0.1774061067E-01   0.8679871330E-02   0.1201739636E-05   0.0000000000E+00
   0.2001000000E+01   0.0000000000E+00   0.9998272891E+00   0.1000000000E-03   0.0000000000E+00  -0.3425709232E-04   0.9000000000E-03   0.0000000000E+00  -0.1384538063E-03   0.8611723592E+00   0.2172619369E+00   0.1366484296E+00  -0.8673945945E-02  -0.8679614881E-02  -0.9486673989E-06   0.0000000000E+00
   0.2001000000E+01   0.9998127235E+00   0.9998272618E+00   0.1000000000E-03  -0.3960762573E-04  -0.3427070286E-04   0.9000000000E-03  -0.1476688857E-03  -0.1384675182E-03   0.8606498256E+00   0.2175257069E+00   0.1369071932E+00  -0.1774078962E-01  -0.8680298948E-02  -0.8047191989E-06   0.0000000000E+00
     1     2     3     4     5     6     7     8
     2     9    10     3     6    11    12     7
 VARIABLES = X,Y,Z,DU1,DU2,DU3,U1,U2,U3,S11,S22,S33,S12,S13,S23,Vf
 ZONE, T="0.2000D+00" F=FEPOINT, I=   12 J=    2 ET=BRICK
   0.0000000000E+00   0.0000000000E+00   0.0000000000E+00   0.0000000000E+00   0.0000000000E+00   0.0000000000E+00   0.0000000000E+00   0.0000000000E+00   0.0000000000E+00   0.8985194420E+00   0.1397020703E+00   0.1358328771E+00  -0.1778355329E-01   0.2702950861E-01   0.8514263140E-02   0.0000000000E+00
   0.1000882082E+01   0.0000000000E+00   0.2013984181E-03   0.6625701849E-04   0.0000000000E+00   0.2826268034E-05   0.8158249528E-03   0.0000000000E+00   0.1985721500E-03   0.8488104229E+00  -0.3531812619E-01  -0.9119984517E-01  -0.9638560257E-02   0.2174743210E-01   0.2048010792E-02   0.0000000000E+00
   0.1000952608E+01   0.9996700643E+00   0.2004650633E-03   0.7658774430E-04  -0.2110449901E-04   0.2490955601E-05   0.8760207043E-03  -0.3088312207E-03   0.1979741077E-03   0.8519464759E+00  -0.3568902133E-01  -0.9396500302E-01  -0.3385224524E-01   0.1967662877E-01   0.1979849011E-02   0.0000000000E+00
   0.0000000000E+00   0.9998678549E+00   0.6837649775E-04   0.0000000000E+00  -0.2592703738E-04   0.1664381984E-04   0.0000000000E+00  -0.1062180830E-03   0.5173267791E-04   0.9112834166E+00   0.1375393777E+00   0.1252315951E+00  -0.4311286227E-01   0.2264718455E-01   0.8359646975E-02   0.0000000000E+00
   0.0000000000E+00   0.0000000000E+00   0.9999294163E+00   0.0000000000E+00   0.0000000000E+00  -0.1723769736E-04   0.0000000000E+00   0.0000000000E+00  -0.5334599954E-04   0.8985119943E+00   0.1395527432E+00   0.1359896520E+00  -0.1771435249E-01  -0.1394312913E-01   0.4293212453E-02   0.0000000000E+00
   0.1000880794E+01   0.0000000000E+00   0.9997979101E+00   0.6579754131E-04   0.0000000000E+00  -0.3078340959E-05   0.8149965272E-03   0.0000000000E+00  -0.1990115903E-03   0.8488328069E+00  -0.3539719898E-01  -0.9114315641E-01  -0.9571107234E-02  -0.1535524367E-01   0.1014689740E-02   0.0000000000E+00
   0.1000951954E+01   0.9996694492E+00   0.9997982552E+00   0.7635296911E-04  -0.2132058184E-04  -0.2946418244E-05   0.8756008563E-03  -0.3092302341E-03  -0.1987983666E-03   0.8519738794E+00  -0.3577037008E-01  -0.9391105780E-01  -0.3375046265E-01  -0.1651025679E-01   0.9480259850E-03   0.0000000000E+00
   0.0000000000E+00   0.9998653118E+00   0.9999303366E+00   0.0000000000E+00  -0.2683012003E-04  -0.1710280771E-04   0.0000000000E+00  -0.1078580664E-03  -0.5256057592E-04   0.9112970328E+00   0.1373792962E+00   0.1253780604E+00  -0.4299205002E-01  -0.1615619796E-01   0.4139911929E-02   0.0000000000E+00
   0.2002000000E+01   0.0000000000E+00   0.3414762104E-03   0.1000000000E-03   0.0000000000E+00  -0.8758272214E-05   0.1900000000E-02   0.0000000000E+00   0.3502344826E-03   0.7604507883E+00  -0.1995667643E+00  -0.2903535104E+00  -0.1511028865E-01   0.1578339542E-01   0.2020465236E-04   0.0000000000E+00
   0.2002000000E+01   0.9994663211E+00   0.3426988384E-03   0.1000000000E-03  -0.1808806199E-04  -0.8521737105E-05   0.1900000000E-02  -0.5155908610E-03   0.3512205755E-03   0.7560572708E+00  -0.1968407670E+00  -0.2886859902E+00  -0.3723157450E-01   0.1599381191E-01   0.4656758249E-05   0.0000000000E+00
   0.2002000000E+01   0.0000000000E+00   0.9996585179E+00   0.1000000000E-03   0.0000000000E+00   0.8755516853E-05   0.1900000000E-02   0.0000000000E+00  -0.3502376002E-03   0.7605163403E+00  -0.1996188824E+00  -0.2903669443E+00  -0.1507740851E-01  -0.1574306388E-01  -0.9431876349E-04   0.0000000000E+00
   0.2002000000E+01   0.9994663334E+00   0.9996573062E+00   0.1000000000E-03  -0.1808243069E-04   0.8523971748E-05   0.1900000000E-02  -0.5155842096E-03  -0.3512177911E-03   0.7561149332E+00  -0.1968879803E+00  -0.2886964393E+00  -0.3718171370E-01  -0.1587640969E-01  -0.1093805588E-03   0.0000000000E+00
     1     2     3     4     5     6     7     8
     2     9    10     3     6    11    12     7
 VARIABLES = X,Y,Z,DU1,DU2,DU3,U1,U2,U3,S11,S22,S33,S12,S13,S23,Vf
 ZONE, T="0.3000D+00" F=FEPOINT, I=   12 J=    2 ET=BRICK
   0.0000000000E+00   0.0000000000E+00   0.0000000000E+00   0.0000000000E+00   0.0000000000E+00   0.0000000000E+00   0.0000000000E+00   0.0000000000E+00   0.0000000000E+00   0.1135025178E+01   0.5115587108E-01   0.7610226799E-01   0.1493698074E-01   0.3096319989E-01   0.4063691135E-01   0.0000000000E+00
   0.1001432691E+01   0.0000000000E+00   0.2468964372E-03   0.5355921018E-04   0.0000000000E+00   0.1269500871E-04   0.1379131377E-02   0.0000000000E+00   0.2342014285E-03   0.1145353867E+01   0.7061545705E-01   0.1313846268E+00   0.3010938574E-01   0.8273574701E-02   0.8720527825E-02   0.0000000000E+00
   0.1001592066E+01   0.9994465490E+00   0.2346172743E-03   0.5791079642E-04  -0.2705559623E-04   0.1079492768E-04   0.1534154749E-02  -0.5263953635E-03   0.2238223466E-03   0.1145985659E+01   0.7507595563E-01   0.1262923362E+00   0.3029994094E-01  -0.2177870350E-02   0.7297758690E-02   0.0000000000E+00
   0.0000000000E+00   0.9994607600E+00   0.3753627117E-03   0.0000000000E+00  -0.4690426034E-04   0.3746415898E-04   0.0000000000E+00  -0.4923357502E-03   0.3378985527E-03   0.1141325917E+01   0.6990102308E-01   0.5105637744E-01   0.1532426299E-01   0.8114837378E-02   0.3672777030E-01   0.0000000000E+00
   0.0000000000E+00   0.0000000000E+00   0.9996084948E+00   0.0000000000E+00   0.0000000000E+00  -0.3945571063E-04   0.0000000000E+00   0.0000000000E+00  -0.3520495014E-03   0.1136086991E+01   0.4782712362E-01   0.7836920217E-01   0.1621843270E-01   0.3320714610E-01   0.1857511371E-01   0.0000000000E+00
   0.1001409135E+01   0.0000000000E+00   0.9997385673E+00   0.4923667598E-04   0.0000000000E+00  -0.1554799354E-04   0.1359898373E-02   0.0000000000E+00  -0.2458847451E-03   0.1145889415E+01   0.6918801737E-01   0.1322765188E+00   0.3138340311E-01   0.2094994880E-01   0.3871442316E-02   0.0000000000E+00
   0.1001579705E+01   0.9994367420E+00   0.9997426626E+00   0.5560185932E-04  -0.2872545508E-04  -0.1490029444E-04   0.1524102921E-02  -0.5345325829E-03  -0.2424371071E-03   0.1146348865E+01   0.7374764763E-01   0.1272574390E+00   0.3220506682E-01   0.1601299370E-01   0.2572265701E-02   0.0000000000E+00
   0.0000000000E+00   0.9994166121E+00   0.9996011163E+00   0.0000000000E+00  -0.5474094302E-04  -0.4174045632E-04   0.0000000000E+00  -0.5286469203E-03  -0.3571432936E-03   0.1142137814E+01   0.6678562228E-01   0.5335988064E-01   0.1751294814E-01   0.2238380786E-01   0.1528413172E-01   0.0000000000E+00
   0.2003000000E+01   0.0000000000E+00   0.1603955979E-03   0.1000000000E-03   0.0000000000E+00  -0.7853371762E-05   0.2900000000E-02   0.0000000000E+00   0.1682489696E-03   0.1146437883E+01   0.7066508247E-01   0.2153216197E+00   0.1589780209E-01  -0.1149375636E-01  -0.5184070230E-03   0.0000000000E+00
   0.2003000000E+01   0.9994135126E+00   0.1658749803E-03   0.1000000000E-03  -0.6586703223E-05  -0.7254891103E-05   0.2900000000E-02  -0.5799007247E-03   0.1731298714E-03   0.1142508146E+01   0.7251836546E-01   0.2173980739E+00   0.1619012956E-01  -0.1021457096E-01  -0.7888967802E-03   0.0000000000E+00
   0.2003000000E+01   0.0000000000E+00   0.9998392708E+00   0.1000000000E-03   0.0000000000E+00   0.7771406416E-05   0.2900000000E-02   0.0000000000E+00  -0.1685005863E-03   0.1147419362E+01   0.7002200717E-01   0.2149832166E+00   0.1653449985E-01   0.1255671400E-01  -0.6746989630E-03   0.0000000000E+00
   0.2003000000E+01   0.9994141128E+00   0.9998343274E+00   0.1000000000E-03  -0.6445441607E-05   0.7299655654E-05   0.2900000000E-02  -0.5794417757E-03  -0.1729722074E-03   0.1143331777E+01   0.7193371490E-01   0.2171590935E+00   0.1717044903E-01   0.1279579278E-01  -0.9486399991E-03   0.0000000000E+00
     1     2     3     4     5     6     7     8
     2     9    10     3     6    11    12     7
 VARIABLES = X,Y,Z,DU1,DU2,DU3,U1,U2,U3,S11,S22,S33,S12,S13,S23,Vf
 ZONE, T="0.4000D+00" F=FEPOINT, I=   12 J=    2 ET=BRICK
   0.0000000000E+00   0.0000000000E+00   0.0000000000E+00   0.0000000000E+00   0.0000000000E+00   0.0000000000E+00   0.0000000000E+00   0.0000000000E+00   0.0000000000E+00   0.9619341601E+00  -0.1198661614E+00  -0.1193256374E+00   0.1414585393E-01   0.3170006780E-01   0.4014469271E-01   0.0000000000E+00
   0.1002104504E+01   0.0000000000E+00   0.4199423189E-03   0.7665197661E-04   0.0000000000E+00   0.1355209715E-04   0.2027851942E-02   0.0000000000E+00   0.4063902218E-03   0.9927564042E+00  -0.7044548540E-01  -0.7637450633E-01   0.2221031224E-01   0.4569307755E-02   0.6244575477E-02   0.0000000000E+00
   0.1002214680E+01   0.9991592973E+00   0.3819447241E-03   0.6507466384E-04  -0.2513470304E-04   0.1083186098E-04   0.2149605022E-02  -0.8155680395E-03   0.3711128631E-03   0.9926799852E+00  -0.6588004284E-01  -0.8086352995E-01   0.3274890406E-01  -0.5873968662E-02   0.2206162051E-02   0.0000000000E+00
   0.0000000000E+00   0.9991101977E+00   0.6236144250E-03   0.0000000000E+00  -0.2162299453E-04   0.9611312788E-05   0.0000000000E+00  -0.8681793550E-03   0.6140031122E-03   0.9622095974E+00  -0.9279732740E-01  -0.1466699088E+00   0.2327932885E-01   0.5543806468E-02   0.2976509624E-01   0.0000000000E+00
   0.0000000000E+00   0.0000000000E+00   0.9993270880E+00   0.0000000000E+00   0.0000000000E+00  -0.1449214258E-04   0.0000000000E+00   0.0000000000E+00  -0.6584198501E-03   0.9628206397E+00  -0.1295694371E+00  -0.1105088414E+00   0.1863401351E-01   0.3313533473E-01   0.1257653997E-01   0.0000000000E+00
   0.1002007889E+01   0.0000000000E+00   0.9995086324E+00   0.6741269524E-04   0.0000000000E+00  -0.2167125997E-04   0.1940475888E-02   0.0000000000E+00  -0.4696963271E-03   0.9935902832E+00  -0.7456171130E-01  -0.7309215952E-01   0.2660743402E-01   0.1780917760E-01   0.1602981133E-02   0.0000000000E+00
   0.1002161011E+01   0.9991258761E+00   0.9995273789E+00   0.5959402054E-04  -0.2766537079E-04  -0.1933535377E-04   0.2101416619E-02  -0.8464585575E-03  -0.4532857653E-03   0.9930987870E+00  -0.6976266289E-01  -0.7739971175E-01   0.3930949839E-01   0.1429767040E-01  -0.2315669110E-02   0.0000000000E+00
   0.0000000000E+00   0.9989424608E+00   0.9992805290E+00   0.0000000000E+00  -0.3644221311E-04  -0.1893026886E-04   0.0000000000E+00  -0.1021096973E-02  -0.7005406946E-03   0.9627707028E+00  -0.1021752010E+00  -0.1378531405E+00   0.3101425148E-01   0.2269384495E-01   0.2888625513E-02   0.0000000000E+00
   0.2004000000E+01   0.0000000000E+00   0.3164455984E-03   0.1000000000E-03   0.0000000000E+00   0.2467639528E-04   0.3900000000E-02   0.0000000000E+00   0.2917692032E-03   0.1020073013E+01  -0.4462708897E-01  -0.6315460549E-02   0.1936367335E-01  -0.1064942414E-01  -0.1444949099E-02   0.0000000000E+00
   0.2004000000E+01   0.9992259870E+00   0.3293502705E-03   0.1000000000E-03  -0.2314392363E-04   0.2546308444E-04   0.3900000000E-02  -0.7508690304E-03   0.3038871860E-03   0.1021465178E+01  -0.4607437205E-01  -0.6260342431E-02   0.3148860071E-01  -0.7243539036E-02  -0.2181756710E-02   0.0000000000E+00
   0.2004000000E+01   0.0000000000E+00   0.9996810978E+00   0.1000000000E-03   0.0000000000E+00  -0.2501638641E-04   0.3900000000E-02   0.0000000000E+00  -0.2938858457E-03   0.1022087574E+01  -0.4582060487E-01  -0.7136505370E-02   0.2142609059E-01   0.1590258752E-01  -0.1070879529E-02   0.0000000000E+00
   0.2004000000E+01   0.9992297606E+00   0.9996715322E+00   0.1000000000E-03  -0.2268141955E-04  -0.2541371374E-04   0.3900000000E-02  -0.7475579716E-03  -0.3030541255E-03   0.1022928811E+01  -0.4706265869E-01  -0.6735689123E-02   0.3457141468E-01   0.1699383164E-01  -0.1806577469E-02   0.0000000000E+00
     1     2     3     4     5     6     7     8
     2     9    10     3     6    11    12     7
 VARIABLES = X,Y,Z,DU1,DU2,DU3,U1,U2,U3,S11,S22,S33,S12,S13,S23,Vf
 ZONE, T="0.5000D+00" F=FEPOINT, I=   12 J=    2 ET=BRICK
   0.0000000000E+00   0.0000000000E+00   0.0000000000E+00   0.0000000000E+00   0.0000000000E+00   0.0000000000E+00   0.0000000000E+00   0.0000000000E+00   0.0000000000E+00   0.1176724933E+01   0.9704517722E-01   0.1320782047E+00  -0.1894225195E-02   0.1382419100E-01   0.1633814919E-01   0.0000000000E+00
   0.1002822235E+01   0.0000000000E+00   0.4623708891E-03   0.6301858879E-04   0.0000000000E+00   0.1566628142E-05   0.2759216310E-02   0.0000000000E+00   0.4608042610E-03   0.1069845709E+01   0.2490831320E-01   0.2180264158E-01  -0.8284731337E-02  -0.2852626344E-02   0.7906055170E-03   0.0000000000E+00
   0.1002789289E+01   0.9989723592E+00   0.4073226337E-03   0.4847548196E-04  -0.1753289008E-04   0.9803624354E-06   0.2740813154E-02  -0.1010107930E-02   0.4063422712E-03   0.1069972997E+01   0.2496212529E-01   0.2162154137E-01   0.1631977361E-02  -0.6868713027E-02  -0.4579387598E-02   0.0000000000E+00
   0.0000000000E+00   0.9989314405E+00   0.6612765079E-03   0.0000000000E+00  -0.2333899829E-04   0.8343024754E-05   0.0000000000E+00  -0.1045220511E-02   0.6529334831E-03   0.1174018602E+01   0.1159302544E+00   0.1158994579E+00   0.5706698264E-02  -0.1265135574E-02   0.1937405383E-02   0.0000000000E+00
   0.0000000000E+00   0.0000000000E+00   0.9992087941E+00   0.0000000000E+00   0.0000000000E+00  -0.1935904347E-04   0.0000000000E+00   0.0000000000E+00  -0.7718468511E-03   0.1175673244E+01   0.8356493867E-01   0.1466101321E+00   0.5225697575E-02   0.1073955892E-01  -0.1218083673E-02   0.0000000000E+00
   0.1002633628E+01   0.0000000000E+00   0.9993628081E+00   0.5474451745E-04   0.0000000000E+00  -0.1318177814E-04   0.2578883856E-02   0.0000000000E+00  -0.6240101351E-03   0.1070596292E+01   0.1922164668E-01   0.2673872541E-01  -0.1485996747E-02  -0.1378613087E-02   0.6167195099E-03   0.0000000000E+00
   0.1002674292E+01   0.9989228808E+00   0.9994163513E+00   0.4223487344E-04  -0.1817111788E-04  -0.8975926037E-05   0.2632057209E-02  -0.1058948121E-02  -0.5746727453E-03   0.1070434016E+01   0.1942766287E-01   0.2669498523E-01   0.1189678786E-01  -0.9755145817E-03  -0.4790331851E-02   0.0000000000E+00
   0.0000000000E+00   0.9986330559E+00   0.9991393124E+00   0.0000000000E+00  -0.3340154740E-04  -0.1912021758E-04   0.0000000000E+00  -0.1333542586E-02  -0.8415673592E-03   0.1172760237E+01   0.1024871614E+00   0.1306009159E+00   0.1842162798E-01   0.8022346527E-02  -0.1557743653E-01   0.0000000000E+00
   0.2005000000E+01   0.0000000000E+00   0.4422593663E-03   0.1000000000E-03   0.0000000000E+00   0.2548522474E-05   0.4900000000E-02   0.0000000000E+00   0.4397108439E-03   0.9626065789E+00  -0.5414949106E-01  -0.8119207418E-01   0.4083565101E-02   0.3782428062E-02  -0.6732915167E-03   0.0000000000E+00
   0.2005000000E+01   0.9990824949E+00   0.4614867112E-03   0.1000000000E-03  -0.7816513252E-05   0.2974252762E-05   0.4900000000E-02  -0.9096885748E-03   0.4585124584E-03   0.9666989011E+00  -0.5794618187E-01  -0.8148770558E-01   0.1633963228E-01   0.7500967106E-02  -0.1373554360E-02   0.0000000000E+00
   0.2005000000E+01   0.0000000000E+00   0.9995499929E+00   0.1000000000E-03   0.0000000000E+00  -0.3255406265E-05   0.4900000000E-02   0.0000000000E+00  -0.4467517088E-03   0.9651666425E+00  -0.5592267684E-01  -0.8197895203E-01   0.7104671007E-02   0.1062622469E-01   0.6612186899E-03   0.0000000000E+00
   0.2005000000E+01   0.9990912641E+00   0.9995368534E+00   0.1000000000E-03  -0.7407581519E-05  -0.3668690764E-05   0.4900000000E-02  -0.9013283234E-03  -0.4594778593E-03   0.9687717575E+00  -0.5948118454E-01  -0.8202555934E-01   0.2058070703E-01   0.1057275638E-01  -0.4514170413E-04   0.0000000000E+00
     1     2     3     4     5     6     7     8
     2     9    10     3     6    11    12     7
 VARIABLES = X,Y,Z,DU1,DU2,DU3,U1,U2,U3,S11,S22,S33,S12,S13,S23,Vf
 ZONE, T="0.6000D+00" F=FEPOINT, I=   12 J=    2 ET=BRICK
   0.0000000000E+00   0.0000000000E+00   0.0000000000E+00   0.0000000000E+00   0.0000000000E+00   0.0000000000E+00   0.0000000000E+00   0.0000000000E+00   0.0000000000E+00   0.1051120118E+01  -0.2508792030E-01  -0.1500585670E-01  -0.2250673631E-02   0.1715663829E-01   0.2925062378E-01   0.0000000000E+00
   0.1003393527E+01   0.0000000000E+00   0.5491147337E-03   0.5752708364E-04   0.0000000000E+00   0.1335986764E-04   0.3335999810E-02   0.0000000000E+00   0.5357548660E-03   0.1097278037E+01   0.3985800108E-01   0.2623613728E-01  -0.1836652700E-01  -0.3760300272E-02   0.7698946616E-02   0.0000000000E+00
   0.1003232325E+01   0.9987284647E+00   0.4969645369E-03   0.4622360433E-04  -0.2917848122E-04   0.1386859767E-04   0.3186101222E-02  -0.1242356785E-02   0.4830959392E-03   0.1097675520E+01   0.3954263866E-01   0.2615401647E-01  -0.1478719918E-02  -0.1134211679E-01   0.3382671173E-02   0.0000000000E+00
   0.0000000000E+00   0.9985946304E+00   0.8383389285E-03   0.0000000000E+00  -0.3615829940E-04   0.1839930432E-04   0.0000000000E+00  -0.1369211268E-02   0.8199396242E-03   0.1049700444E+01  -0.6367788845E-02  -0.3230631404E-01   0.1286024372E-01  -0.1298802176E-02   0.1689286981E-01   0.0000000000E+00
   0.0000000000E+00   0.0000000000E+00   0.9988863726E+00   0.0000000000E+00   0.0000000000E+00  -0.3543607454E-04   0.0000000000E+00   0.0000000000E+00  -0.1078191332E-02   0.1050100631E+01  -0.3699257823E-01  -0.2081712296E-02   0.4187009528E-02   0.2444887053E-01   0.1132553760E-01   0.0000000000E+00
   0.1003136670E+01   0.0000000000E+00   0.9991560515E+00   0.5140381082E-04   0.0000000000E+00  -0.2539370310E-04   0.3085266402E-02   0.0000000000E+00  -0.8185547661E-03   0.1097698220E+01   0.3523244823E-01   0.3044150701E-01  -0.1261842686E-01   0.9295879453E-02   0.7761291972E-02   0.0000000000E+00
   0.1003056854E+01   0.9986767885E+00   0.9992498949E+00   0.4021485738E-04  -0.2964004061E-04  -0.2197711291E-04   0.3016638896E-02  -0.1293571457E-02  -0.7281279531E-03   0.1097921307E+01   0.3500291138E-01   0.3044795622E-01   0.7465692045E-02   0.6444209091E-02   0.3317859296E-02   0.0000000000E+00
   0.0000000000E+00   0.9982312722E+00   0.9988431683E+00   0.0000000000E+00  -0.4095737560E-04  -0.3187779997E-04   0.0000000000E+00  -0.1727770381E-02  -0.1124953915E-02   0.1048282377E+01  -0.1818501940E-01  -0.1907101684E-01   0.2483082187E-01   0.1906565438E-01  -0.1315367036E-02   0.0000000000E+00
   0.2006000000E+01   0.0000000000E+00   0.4978994231E-03   0.1000000000E-03   0.0000000000E+00   0.1223056343E-04   0.5900000000E-02   0.0000000000E+00   0.4856688597E-03   0.1141604406E+01   0.9637296473E-01   0.7774063815E-01   0.1263795336E-02   0.2094791276E-02   0.7288338166E-03   0.0000000000E+00
   0.2006000000E+01   0.9989495633E+00   0.5178752972E-03   0.1000000000E-03  -0.2169393606E-04   0.1205008546E-04   0.5900000000E-02  -0.1028742737E-02   0.5058252118E-03   0.1144735518E+01   0.9280023449E-01   0.7818225704E-01   0.1996301216E-01   0.3054557835E-02   0.2350306038E-03   0.0000000000E+00
   0.2006000000E+01   0.0000000000E+00   0.9994832562E+00   0.1000000000E-03   0.0000000000E+00  -0.1380804830E-04   0.5900000000E-02   0.0000000000E+00  -0.5029357884E-03   0.1143099012E+01   0.9516250904E-01   0.7745648826E-01   0.3516207376E-02   0.2154002104E-01   0.2298180166E-02   0.0000000000E+00
   0.2006000000E+01   0.9989581048E+00   0.9994632467E+00   0.1000000000E-03  -0.2212328360E-04  -0.1472779777E-04   0.5900000000E-02  -0.1019771940E-02  -0.5220254626E-03   0.1146106028E+01   0.9168633696E-01   0.7792564478E-01   0.2281326150E-01   0.1834600961E-01   0.1778565934E-02   0.0000000000E+00
     1     2     3     4     5     6     7     8
     2     9    10     3     6    11    12     7
 VARIABLES = X,Y,Z,DU1,DU2,DU3,U1,U2,U3,S11,S22,S33,S12,S13,S23,Vf
 ZONE, T="0.7000D+00" F=FEPOINT, I=   12 J=    2 ET=BRICK
   0.0000000000E+00   0.0000000000E+00   0.0000000000E+00   0.0000000000E+00   0.0000000000E+00   0.0000000000E+00   0.0000000000E+00   0.0000000000E+00   0.0000000000E+00   0.1004371597E+01  -0.6695804598E-01  -0.5433186533E-01  -0.8355760849E-02   0.2028275461E-01   0.2247182186E-01   0.0000000000E+00
   0.1004016658E+01   0.0000000000E+00   0.6376439228E-03   0.6352399434E-04   0.0000000000E+00   0.3246257447E-05   0.3953133547E-02   0.0000000000E+00   0.6343976653E-03   0.1008078983E+01  -0.4076259667E-01  -0.5957669622E-01  -0.2655645315E-01   0.5624317595E-03   0.6174470947E-02   0.0000000000E+00
   0.1003770631E+01   0.9984610726E+00   0.5866005372E-03   0.5811790977E-04  -0.2284983806E-04   0.3135179013E-05   0.3712512758E-02  -0.1516077542E-02   0.5834653582E-03   0.1008487640E+01  -0.4191872154E-01  -0.5882922781E-01  -0.1620321020E-01  -0.6017325685E-02   0.2126795867E-02   0.0000000000E+00
   0.0000000000E+00   0.9983341577E+00   0.8845950562E-03   0.0000000000E+00  -0.1832361594E-04  -0.5436200222E-05   0.0000000000E+00  -0.1647518658E-02   0.8900312565E-03   0.1002803551E+01  -0.5487437117E-01  -0.6484749357E-01   0.1055590681E-02   0.6435674554E-02   0.1243120500E-01   0.0000000000E+00
   0.0000000000E+00   0.0000000000E+00   0.9986519813E+00   0.0000000000E+00   0.0000000000E+00  -0.1434039747E-04   0.0000000000E+00   0.0000000000E+00  -0.1333678338E-02   0.1003559200E+01  -0.7693000631E-01  -0.4354750789E-01  -0.3665887268E-02   0.2040814523E-01   0.1147998882E-01   0.0000000000E+00
   0.1003697662E+01   0.0000000000E+00   0.9989485767E+00   0.5727030566E-04   0.0000000000E+00  -0.1505050403E-04   0.3640391890E-02   0.0000000000E+00  -0.1036372780E-02   0.1008703581E+01  -0.4533053928E-01  -0.5563335138E-01  -0.2254608962E-01   0.5349478729E-02   0.7106619510E-02   0.0000000000E+00
   0.1003533544E+01   0.9983953254E+00   0.9990637335E+00   0.5192519190E-04  -0.2484113842E-04  -0.1392662731E-04   0.3481619203E-02  -0.1579833428E-02  -0.9223398342E-03   0.1009048022E+01  -0.4644810201E-01  -0.5486022968E-01  -0.9708010113E-02   0.1660411208E-02   0.2912459527E-02   0.0000000000E+00
   0.0000000000E+00   0.9979231330E+00   0.9986371503E+00   0.0000000000E+00  -0.2290865222E-04  -0.1220312508E-04   0.0000000000E+00  -0.2053958349E-02  -0.1350646597E-02   0.1001653910E+01  -0.6477598279E-01  -0.5379624134E-01   0.1014877371E-01   0.1551366538E-01   0.1020280434E-02   0.0000000000E+00
   0.2007000000E+01   0.0000000000E+00   0.6427859485E-03   0.1000000000E-03   0.0000000000E+00   0.1167110438E-04   0.6900000000E-02   0.0000000000E+00   0.6311148441E-03   0.1012234546E+01  -0.2309339484E-01  -0.5674345702E-01  -0.7523055966E-02   0.8032307272E-02  -0.4665386677E-03   0.0000000000E+00
   0.2007000000E+01   0.9986763555E+00   0.6607516721E-03   0.1000000000E-03  -0.2737717375E-04   0.1161325911E-04   0.6900000000E-02  -0.1296267334E-02   0.6491384129E-03   0.1014337724E+01  -0.2577571632E-01  -0.5616431339E-01   0.3817927041E-02   0.7319275155E-02  -0.1598452101E-02   0.0000000000E+00
   0.2007000000E+01   0.0000000000E+00   0.9993125948E+00   0.1000000000E-03   0.0000000000E+00  -0.1523467242E-04   0.6900000000E-02   0.0000000000E+00  -0.6721705513E-03   0.1013883605E+01  -0.2520926732E-01  -0.5627664326E-01  -0.5918272704E-02   0.1784491904E-01   0.6630045581E-03   0.0000000000E+00
   0.2007000000E+01   0.9986782552E+00   0.9992831993E+00   0.1000000000E-03  -0.2802949014E-04  -0.1602234425E-04   0.6900000000E-02  -0.1293715296E-02  -0.7007783745E-03   0.1016009555E+01  -0.2784787340E-01  -0.5576398766E-01   0.5798301327E-02   0.1356971606E-01  -0.4934221738E-03   0.0000000000E+00
     1     2     3     4     5     6     7     8
     2     9    10     3     6    11    12     7
 VARIABLES = X,Y,Z,DU1,DU2,DU3,U1,U2,U3,S11,S22,S33,S12,S13,S23,Vf
 ZONE, T="0.8000D+00" F=FEPOINT, I=   12 J=    2 ET=BRICK
   0.0000000000E+00   0.0000000000E+00   0.0000000000E+00   0.0000000000E+00   0.0000000000E+00   0.0000000000E+00   0.0000000000E+00   0.0000000000E+00   0.0000000000E+00   0.1149479825E+01   0.7153996910E-01   0.1098631026E+00  -0.6683211025E-02   0.1600227073E-01   0.9728779309E-02   0.0000000000E+00
   0.1004582664E+01   0.0000000000E+00   0.6674633520E-03   0.5012038554E-04   0.0000000000E+00   0.6313129751E-05   0.4532543453E-02   0.0000000000E+00   0.6611502222E-03   0.1100244878E+01   0.3601235245E-01   0.5532183641E-01  -0.1937205038E-01  -0.1014199214E-02   0.2182896310E-02   0.0000000000E+00
   0.1004329284E+01   0.9982387834E+00   0.6189069197E-03   0.5269910973E-04  -0.2431716645E-04   0.6970985252E-05   0.4276584855E-02  -0.1736899483E-02   0.6119359345E-03   0.1100492847E+01   0.3456849858E-01   0.5651772078E-01  -0.1368211987E-01  -0.4583165754E-02  -0.1956738549E-02   0.0000000000E+00
   0.0000000000E+00   0.9981181699E+00   0.8716551859E-03   0.0000000000E+00  -0.2808058248E-04   0.7044321351E-05   0.0000000000E+00  -0.1853749500E-02   0.8646108646E-03   0.1150107060E+01   0.7534492549E-01   0.1054309103E+00  -0.1721447567E-02   0.8729146139E-02   0.1263917681E-02   0.0000000000E+00
   0.0000000000E+00   0.0000000000E+00   0.9984646470E+00   0.0000000000E+00   0.0000000000E+00  -0.2699075640E-04   0.0000000000E+00   0.0000000000E+00  -0.1508362289E-02   0.1147995358E+01   0.6341380701E-01   0.1194737307E+00  -0.3565179974E-02   0.1558945147E-01   0.5784782560E-02   0.0000000000E+00
   0.1004206900E+01   0.0000000000E+00   0.9988002568E+00   0.4500553416E-04   0.0000000000E+00  -0.1832268584E-04   0.4161894847E-02   0.0000000000E+00  -0.1181420537E-02   0.1100524035E+01   0.3154024392E-01   0.5951478839E-01  -0.1650427250E-01   0.1218174434E-02   0.3467950859E-02   0.0000000000E+00
   0.1004034094E+01   0.9981552535E+00   0.9989187622E+00   0.4727634484E-04  -0.2568108428E-04  -0.1843910764E-04   0.3986818138E-02  -0.1819065397E-02  -0.1062798740E-02   0.1100778884E+01   0.3010675989E-01   0.6069342304E-01  -0.8889203154E-02  -0.1440762388E-02  -0.7819467972E-03   0.0000000000E+00
   0.0000000000E+00   0.9976784864E+00   0.9984687849E+00   0.0000000000E+00  -0.2934241223E-04  -0.2517655290E-04   0.0000000000E+00  -0.2292171149E-02  -0.1506038565E-02   0.1148469189E+01   0.6719704412E-01   0.1152166634E+00   0.4524951613E-02   0.1247278542E-01  -0.3044809952E-02   0.0000000000E+00
   0.2008000000E+01   0.0000000000E+00   0.7052212708E-03   0.1000000000E-03   0.0000000000E+00   0.4407974636E-05   0.7900000000E-02   0.0000000000E+00   0.7008132962E-03   0.1050844541E+01  -0.4045667265E-02   0.5476363354E-02  -0.6785631221E-02   0.9862816414E-02  -0.6375579878E-03   0.0000000000E+00
   0.2008000000E+01   0.9984462665E+00   0.7269886721E-03   0.1000000000E-03  -0.2077219394E-04   0.5153898209E-05   0.7900000000E-02  -0.1532961347E-02   0.7218347739E-03   0.1050813529E+01  -0.4706744858E-02   0.6168453271E-02  -0.3630458853E-03   0.9175217589E-02  -0.2140868456E-02   0.0000000000E+00
   0.2008000000E+01   0.0000000000E+00   0.9992003014E+00   0.1000000000E-03   0.0000000000E+00  -0.1054025820E-04   0.7900000000E-02   0.0000000000E+00  -0.7891583692E-03   0.1052454437E+01  -0.6492046619E-02   0.6312846544E-02  -0.5232288048E-02   0.1487292136E-01  -0.3137806325E-03   0.0000000000E+00
   0.2008000000E+01   0.9984455648E+00   0.9991676557E+00   0.1000000000E-03  -0.2067596715E-04  -0.1046736945E-04   0.7900000000E-02  -0.1533759249E-02  -0.8218769514E-03   0.1052484273E+01  -0.7129043655E-02   0.6920008261E-02   0.1826769818E-02   0.1166371649E-01  -0.1820890031E-02   0.0000000000E+00
     1     2     3     4     5     6     7     8
     2     9    10     3     6    11    12     7
 VARIABLES = X,Y,Z,DU1,DU2,DU3,U1,U2,U3,S11,S22,S33,S12,S13,S23,Vf
 ZONE, T="0.9000D+00" F=FEPOINT, I=   12 J=    2 ET=BRICK
   0.0000000000E+00   0.0000000000E+00   0.0000000000E+00   0.0000000000E+00   0.0000000000E+00   0.0000000000E+00   0.0000000000E+00   0.0000000000E+00   0.0000000000E+00   0.1008147869E+01  -0.5732812489E-01  -0.5504360423E-01   0.3003148535E-02   0.2326682148E-01   0.1975853273E-01   0.0000000000E+00
   0.1005068371E+01   0.0000000000E+00   0.7615494523E-03   0.5058961262E-04   0.0000000000E+00   0.8741962846E-05   0.5017781879E-02   0.0000000000E+00   0.7528074894E-03   0.1042409394E+01  -0.1850084364E-01  -0.2660777041E-01  -0.7672596622E-03   0.7589903999E-03   0.5278131351E-02   0.0000000000E+00
   0.1004850789E+01   0.9979730635E+00   0.7204172387E-03   0.5376506737E-04  -0.2624308331E-04   0.9302650504E-05   0.4797023699E-02  -0.2000693421E-02   0.7111145882E-03   0.1042790475E+01  -0.1716574330E-01  -0.2832395213E-01   0.6611075286E-02  -0.4753702749E-02   0.2079097249E-02   0.0000000000E+00
   0.0000000000E+00   0.9978148548E+00   0.9813874621E-03   0.0000000000E+00  -0.2697831768E-04   0.8015570940E-05   0.0000000000E+00  -0.2158166880E-02   0.9733718911E-03   0.1010391267E+01  -0.4953578858E-01  -0.6507933910E-01   0.9484177430E-02   0.1198479835E-01   0.1386313066E-01   0.0000000000E+00
   0.0000000000E+00   0.0000000000E+00   0.9981607542E+00   0.0000000000E+00   0.0000000000E+00  -0.2693134461E-04   0.0000000000E+00   0.0000000000E+00  -0.1812314427E-02   0.1007001604E+01  -0.6290619148E-01  -0.4831927254E-01   0.4708047257E-02   0.2522136244E-01   0.1102154589E-01   0.0000000000E+00
   0.1004642052E+01   0.0000000000E+00   0.9985798137E+00   0.4526110777E-04   0.0000000000E+00  -0.2204791987E-04   0.4596790883E-02   0.0000000000E+00  -0.1398138360E-02   0.1042550640E+01  -0.2188190935E-01  -0.2336795033E-01   0.9935635911E-03   0.8088079879E-02   0.3745291889E-02   0.0000000000E+00
   0.1004503532E+01   0.9978793256E+00   0.9986950063E+00   0.4858647190E-04  -0.2715994730E-04  -0.2245052465E-04   0.4454945392E-02  -0.2093514421E-02  -0.1282543221E-02   0.1042914746E+01  -0.2049822132E-01  -0.2511574499E-01   0.9665567575E-02   0.4544364670E-02   0.4877961744E-03   0.0000000000E+00
   0.0000000000E+00   0.9973668001E+00   0.9981756239E+00   0.0000000000E+00  -0.2828476243E-04  -0.2679206024E-04   0.0000000000E+00  -0.2604915123E-02  -0.1797584030E-02   0.1009121524E+01  -0.5498674139E-01  -0.5835864287E-01   0.1297694393E-01   0.1901063536E-01   0.4932562737E-02   0.0000000000E+00
   0.2009000000E+01   0.0000000000E+00   0.7761277052E-03   0.1000000000E-03   0.0000000000E+00   0.9164782765E-05   0.8900000000E-02   0.0000000000E+00   0.7669629224E-03   0.1074875171E+01   0.1129572347E-01   0.1265452527E-01   0.3745282609E-02   0.4254056752E-02   0.1240182205E-02   0.0000000000E+00
   0.2009000000E+01   0.9982213843E+00   0.8071540846E-03   0.1000000000E-03  -0.2448134396E-04   0.1007580356E-04   0.8900000000E-02  -0.1754134315E-02   0.7970782811E-03   0.1073940675E+01   0.1204739996E-01   0.1283734550E-01   0.1204958538E-01   0.4129010711E-02   0.1984735790E-03   0.0000000000E+00
   0.2009000000E+01   0.0000000000E+00   0.9990571465E+00   0.1000000000E-03   0.0000000000E+00  -0.1710859208E-04   0.8900000000E-02   0.0000000000E+00  -0.9257449237E-03   0.1075998446E+01   0.9662021251E-02   0.1316495247E-01   0.5030192762E-02   0.1712131114E-01   0.7253157422E-03   0.0000000000E+00
   0.2009000000E+01   0.9982237764E+00   0.9990282449E+00   0.1000000000E-03  -0.2413601697E-04  -0.1660392744E-04   0.8900000000E-02  -0.1752087625E-02  -0.9551511889E-03   0.1075092039E+01   0.1042787233E-01   0.1330550900E-01   0.1407233643E-01   0.1569776863E-01  -0.3080860244E-03   0.0000000000E+00
     1     2     3     4     5     6     7     8
     2     9    10     3     6    11    12     7
 VARIABLES = X,Y,Z,DU1,DU2,DU3,U1,U2,U3,S11,S22,S33,S12,S13,S23,Vf
 ZONE, T="0.1000D+01" F=FEPOINT, I=   12 J=    2 ET=BRICK
   0.0000000000E+00   0.0000000000E+00   0.0000000000E+00   0.0000000000E+00   0.0000000000E+00   0.0000000000E+00   0.0000000000E+00   0.0000000000E+00   0.0000000000E+00   0.1064354170E+01   0.4836254324E-02   0.1149154967E-01   0.8194981657E-03   0.1787443503E-01   0.1059746240E-01   0.0000000000E+00
   0.1005610742E+01   0.0000000000E+00   0.8051109622E-03   0.5516780633E-04   0.0000000000E+00   0.2256705831E-05   0.5555573852E-02   0.0000000000E+00   0.8028542564E-03   0.1054637609E+01   0.6400091264E-03  -0.3169175806E-02   0.1265259925E-02  -0.3838335101E-03   0.2808953362E-02   0.0000000000E+00
   0.1005410355E+01   0.9977390700E+00   0.7661007844E-03   0.5597741564E-04  -0.2220489671E-04   0.2306655520E-05   0.5354377751E-02  -0.2238725084E-02   0.7637941288E-03   0.1054645688E+01   0.2089447100E-02  -0.4626692512E-02   0.3540647070E-02  -0.3176425663E-02   0.6013284082E-04   0.0000000000E+00
   0.0000000000E+00   0.9976182578E+00   0.9825615714E-03   0.0000000000E+00  -0.1702945787E-04  -0.2726472272E-05   0.0000000000E+00  -0.2364712706E-02   0.9852880436E-03   0.1064952440E+01   0.1084166680E-01   0.4887867685E-02   0.1750463615E-02   0.1114437746E-01   0.5434193216E-02   0.0000000000E+00
   0.0000000000E+00   0.0000000000E+00   0.9979748679E+00   0.0000000000E+00   0.0000000000E+00  -0.1554418758E-04   0.0000000000E+00   0.0000000000E+00  -0.2009587904E-02   0.1063242150E+01   0.9911324562E-04   0.1734071138E-01   0.2396320697E-02   0.1535737737E-01   0.4412930074E-02   0.0000000000E+00
   0.1005128442E+01   0.0000000000E+00   0.9983944405E+00   0.4967336206E-04   0.0000000000E+00  -0.1704942655E-04   0.5078768561E-02   0.0000000000E+00  -0.1588510075E-02   0.1054826286E+01  -0.2271913482E-02  -0.4459304534E-03   0.2957233213E-02   0.7692408721E-03   0.1350850713E-02   0.0000000000E+00
   0.1005011891E+01   0.9976372731E+00   0.9985073584E+00   0.5105531504E-04  -0.2277542868E-04  -0.1703528570E-04   0.4960835895E-02  -0.2339951494E-02  -0.1475606290E-02   0.1054807116E+01  -0.7618807174E-03  -0.1936792671E-02   0.6346084325E-02  -0.6873681520E-03  -0.1429397493E-02   0.0000000000E+00
   0.0000000000E+00   0.9971491054E+00   0.9979817532E+00   0.0000000000E+00  -0.1925910542E-04  -0.1667387415E-04   0.0000000000E+00  -0.2831635527E-02  -0.2001572938E-02   0.1063787447E+01   0.6262038351E-02   0.1063248904E-01   0.4803961162E-02   0.1185934607E-01  -0.8591848013E-03   0.0000000000E+00
   0.2010000000E+01   0.0000000000E+00   0.8654070081E-03   0.1000000000E-03   0.0000000000E+00   0.8069707220E-05   0.9900000000E-02   0.0000000000E+00   0.8573373008E-03   0.1044398772E+01  -0.8845168822E-02  -0.1201869260E-01   0.2810777341E-02   0.7324520776E-02   0.1770141854E-02   0.0000000000E+00
   0.2010000000E+01   0.9979669836E+00   0.9023760221E-03   0.1000000000E-03  -0.2549110775E-04   0.8347908853E-05   0.9900000000E-02  -0.2007525252E-02   0.8940281132E-03   0.1043963894E+01  -0.8174152411E-02  -0.1225483111E-01   0.6454651272E-02   0.7892845734E-02   0.9992143747E-03   0.0000000000E+00
   0.2010000000E+01   0.0000000000E+00   0.9988829422E+00   0.1000000000E-03   0.0000000000E+00  -0.1694258804E-04   0.9900000000E-02   0.0000000000E+00  -0.1100115234E-02   0.1045808011E+01  -0.1035309701E-01  -0.1192000418E-01   0.4008623225E-02   0.1221775083E-01   0.1176872804E-02   0.0000000000E+00
   0.2010000000E+01   0.9979710196E+00   0.9988584311E+00   0.1000000000E-03  -0.2550776126E-04  -0.1661120191E-04   0.9900000000E-02  -0.2003472639E-02  -0.1124957717E-02   0.1045320350E+01  -0.9645520083E-02  -0.1213991943E-01   0.8369930445E-02   0.1214114619E-01   0.4164135820E-03   0.0000000000E+00
     1     2     3     4     5     6     7     8
     2     9    10     3     6    11    12     7
 VARIABLES = X,Y,Z,DU1,DU2,DU3,U1,U2,U3,S11,S22,S33,S12,S13,S23,Vf
 ZONE, T="0.1100D+01" F=FEPOINT, I=   12 J=    2 ET=BRICK
   0.0000000000E+00   0.0000000000E+00   0.0000000000E+00   0.0000000000E+00   0.0000000000E+00   0.0000000000E+00   0.0000000000E+00   0.0000000000E+00   0.0000000000E+00   0.1105736182E+01   0.4268903564E-01   0.4909971795E-01  -0.5511029074E-03   0.1489253910E-01   0.8466041604E-02   0.0000000000E+00
   0.1006128528E+01   0.0000000000E+00   0.8520987912E-03   0.4899523472E-04   0.0000000000E+00   0.7012291009E-05   0.6079533058E-02   0.0000000000E+00   0.8450865002E-03   0.1082101792E+01   0.2058483679E-01   0.2122589908E-01   0.8278905846E-03  -0.7893841227E-03   0.2369930071E-02   0.0000000000E+00
   0.1005933073E+01   0.9974938027E+00   0.8137030226E-03   0.4926288714E-04  -0.2665367542E-04   0.7032649457E-05   0.5883809928E-02  -0.2479543611E-02   0.8066703732E-03   0.1082211035E+01   0.2173414459E-01   0.1996734828E-01   0.9917295567E-03  -0.2918811010E-02   0.3478647943E-03   0.0000000000E+00
   0.0000000000E+00   0.9973917574E+00   0.1014722688E-02   0.0000000000E+00  -0.2767085977E-04   0.8260053606E-05   0.0000000000E+00  -0.2580571787E-02   0.1006462634E-02   0.1106594210E+01   0.4814578497E-01   0.4278494071E-01  -0.1674586939E-02   0.9640456995E-02   0.4349629254E-02   0.0000000000E+00
   0.0000000000E+00   0.0000000000E+00   0.9977585013E+00   0.0000000000E+00   0.0000000000E+00  -0.2690705507E-04   0.0000000000E+00   0.0000000000E+00  -0.2214591603E-02   0.1104720356E+01   0.3894164827E-01   0.5386293130E-01   0.9493220902E-03   0.1170996017E-01   0.2668588403E-02   0.0000000000E+00
   0.1005598631E+01   0.0000000000E+00   0.9981954072E+00   0.4481873821E-04   0.0000000000E+00  -0.2246191282E-04   0.5553812523E-02   0.0000000000E+00  -0.1782130913E-02   0.1082128306E+01   0.1849529853E-01   0.2328892285E-01   0.2296033620E-02  -0.9524649788E-03   0.1164580139E-02   0.0000000000E+00
   0.1005490784E+01   0.9973909367E+00   0.9983120506E+00   0.4532035719E-04  -0.2648048717E-04  -0.2185204661E-04   0.5445463480E-02  -0.2582582855E-02  -0.1666097335E-02   0.1082233873E+01   0.1968677048E-01   0.2199188422E-01   0.3324545783E-02  -0.1717714710E-02  -0.8796877115E-03   0.0000000000E+00
   0.0000000000E+00   0.9969087979E+00   0.9977584629E+00   0.0000000000E+00  -0.2847142807E-04  -0.2721696205E-04   0.0000000000E+00  -0.3062730660E-02  -0.2214320152E-02   0.1105550594E+01   0.4454181401E-01   0.4743252669E-01   0.1132330897E-02   0.9554941425E-02  -0.1532414139E-02   0.0000000000E+00
   0.2011000000E+01   0.0000000000E+00   0.9385386750E-03   0.1000000000E-03   0.0000000000E+00   0.6938593668E-05   0.1090000000E-01   0.0000000000E+00   0.9316000813E-03   0.1057562419E+01  -0.5227302523E-02  -0.2034996553E-02   0.1588066003E-02   0.8230629076E-02   0.1105398670E-02   0.0000000000E+00
   0.2011000000E+01   0.9977168307E+00   0.9747433919E-03   0.1000000000E-03  -0.2470656689E-04   0.6632732707E-05   0.1090000000E-01  -0.2258462753E-02   0.9681106592E-03   0.1057365738E+01  -0.5080230591E-02  -0.1985387295E-02   0.3046613072E-02   0.8593447353E-02   0.4667015970E-03   0.0000000000E+00
   0.2011000000E+01   0.0000000000E+00   0.9987163528E+00   0.1000000000E-03   0.0000000000E+00  -0.1672159054E-04   0.1090000000E-01   0.0000000000E+00  -0.1266925569E-02   0.1058718067E+01  -0.6451600253E-02  -0.1966346587E-02   0.2405439992E-02   0.1108914869E-01   0.9623648515E-03   0.0000000000E+00
   0.2011000000E+01   0.9977187539E+00   0.9986933618E+00   0.1000000000E-03  -0.2504094212E-04  -0.1671161635E-04   0.1090000000E-01  -0.2256205182E-02  -0.1289926585E-02   0.1058498463E+01  -0.6290218545E-02  -0.1908125220E-02   0.4269596778E-02   0.1104599698E-01   0.3352083581E-03   0.0000000000E+00
     1     2     3     4     5     6     7     8
     2     9    10     3     6    11    12     7
 VARIABLES = X,Y,Z,DU1,DU2,DU3,U1,U2,U3,S11,S22,S33,S12,S13,S23,Vf
 ZONE, T="0.1200D+01" F=FEPOINT, I=   12 J=    2 ET=BRICK
   0.0000000000E+00   0.0000000000E+00   0.0000000000E+00   0.0000000000E+00   0.0000000000E+00   0.0000000000E+00   0.0000000000E+00   0.0000000000E+00   0.0000000000E+00   0.1014445537E+01  -0.4415162872E-01  -0.4561678565E-01   0.6383326848E-03   0.1662977947E-01   0.1288009096E-01   0.0000000000E+00
   0.1006624103E+01   0.0000000000E+00   0.9141840411E-03   0.5152711089E-04   0.0000000000E+00   0.4258775533E-05   0.6572575941E-02   0.0000000000E+00   0.9099252656E-03   0.1040055388E+01  -0.1827741945E-01  -0.2401176565E-01   0.1317963519E-02   0.5277861543E-03   0.3320324041E-02   0.0000000000E+00
   0.1006424490E+01   0.9972310032E+00   0.8728447775E-03   0.5050416454E-04  -0.2483165077E-04   0.3676592989E-05   0.6373986120E-02  -0.2744165138E-02   0.8691681846E-03   0.1040079677E+01  -0.1708259020E-01  -0.2523088395E-01   0.2689871705E-02  -0.2793744247E-02   0.1947340814E-02   0.0000000000E+00
   0.0000000000E+00   0.9971217385E+00   0.1079262420E-02   0.0000000000E+00  -0.2375191650E-04   0.2099266952E-05   0.0000000000E+00  -0.2854509555E-02   0.1077163153E-02   0.1014893195E+01  -0.3666657539E-01  -0.5354949725E-01   0.1158072628E-02   0.9406203965E-02   0.9731090311E-02   0.0000000000E+00
   0.0000000000E+00   0.0000000000E+00   0.9975042292E+00   0.0000000000E+00   0.0000000000E+00  -0.2131108813E-04   0.0000000000E+00   0.0000000000E+00  -0.2474459685E-02   0.1013738994E+01  -0.4701603595E-01  -0.4204583497E-01   0.2011262241E-02   0.1484639810E-01   0.5225214696E-02   0.0000000000E+00
   0.1006054736E+01   0.0000000000E+00   0.9979762311E+00   0.4762602342E-04   0.0000000000E+00  -0.2019320444E-04   0.6007109785E-02   0.0000000000E+00  -0.2003575704E-02   0.1040123991E+01  -0.1971481871E-01  -0.2264296996E-01   0.2491183146E-02   0.2432153216E-02   0.2115947521E-02   0.0000000000E+00
   0.1005945896E+01   0.9971289311E+00   0.9980996974E+00   0.4705334703E-04  -0.2493218386E-04  -0.1951916659E-04   0.5898842988E-02  -0.2846136678E-02  -0.1880783471E-02   0.1040134303E+01  -0.1847559739E-01  -0.2389250268E-01   0.4489815138E-02   0.1090670357E-02   0.7299158161E-03   0.0000000000E+00
   0.0000000000E+00   0.9966273616E+00   0.9975009861E+00   0.0000000000E+00  -0.2542706792E-04  -0.2177459070E-04   0.0000000000E+00  -0.3347211335E-02  -0.2477239268E-02   0.1014122213E+01  -0.3936401257E-01  -0.5008107722E-01   0.3682373201E-02   0.1198901099E-01   0.2034946929E-02   0.0000000000E+00
   0.2012000000E+01   0.0000000000E+00   0.1006244497E-02   0.1000000000E-03   0.0000000000E+00   0.6862416622E-05   0.1190000000E-01   0.0000000000E+00   0.9993820805E-03   0.1064883672E+01   0.1703235144E-02   0.4268375220E-02   0.2088273389E-02   0.6277890133E-02  -0.2919618796E-04   0.0000000000E+00
   0.2012000000E+01   0.9974687293E+00   0.1038656843E-02   0.1000000000E-03  -0.2517417614E-04   0.6512636028E-05   0.1190000000E-01  -0.2506096544E-02   0.1032144207E-02   0.1064950736E+01   0.1220339651E-02   0.4684206780E-02   0.4325776073E-02   0.6273000070E-02  -0.5970648168E-03   0.0000000000E+00
   0.2012000000E+01   0.0000000000E+00   0.9985438460E+00   0.1000000000E-03   0.0000000000E+00  -0.1797431364E-04   0.1190000000E-01   0.0000000000E+00  -0.1438179683E-02   0.1065815907E+01   0.6755121314E-03   0.4363863883E-02   0.2505345989E-02   0.1189018561E-01   0.3606137510E-03   0.0000000000E+00
   0.2012000000E+01   0.9974671679E+00   0.9985198503E+00   0.1000000000E-03  -0.2546691243E-04  -0.1812682292E-04   0.1190000000E-01  -0.2507365158E-02  -0.1462022872E-02   0.1065856052E+01   0.2087977942E-03   0.4790432789E-02   0.4827428601E-02   0.1144390361E-01  -0.1967248664E-03   0.0000000000E+00
     1     2     3     4     5     6     7     8
     2     9    10     3     6    11    12     7
 VARIABLES = X,Y,Z,DU1,DU2,DU3,U1,U2,U3,S11,S22,S33,S12,S13,S23,Vf
 ZONE, T="0.1300D+01" F=FEPOINT, I=   12 J=    2 ET=BRICK
   0.0000000000E+00   0.0000000000E+00   0.0000000000E+00   0.0000000000E+00   0.0000000000E+00   0.0000000000E+00   0.0000000000E+00   0.0000000000E+00   0.0000000000E+00   0.1080776254E+01   0.1619151548E-01   0.3171221856E-01  -0.2503823497E-02   0.1247658402E-01   0.5009158511E-02   0.0000000000E+00
   0.1007155418E+01   0.0000000000E+00   0.9458499838E-03   0.5285493863E-04   0.0000000000E+00   0.3676397680E-05   0.7102562894E-02   0.0000000000E+00   0.9421735861E-03   0.1070712784E+01   0.1004281330E-01   0.1584478156E-01  -0.2928607189E-02   0.5426279885E-03   0.7102678982E-03   0.0000000000E+00
   0.1006945016E+01   0.9969933563E+00   0.8979241446E-03   0.5214058854E-04  -0.2396348977E-04   0.3112505984E-05   0.6892875878E-02  -0.2982680172E-02   0.8948116386E-03   0.1070589141E+01   0.9932711918E-02   0.1607852654E-01  -0.4038281437E-02  -0.8986159414E-03  -0.5468893838E-03   0.0000000000E+00
   0.0000000000E+00   0.9969110852E+00   0.1069809549E-02   0.0000000000E+00  -0.2144133471E-04  -0.2652325587E-06   0.0000000000E+00  -0.3067473451E-02   0.1070074781E-02   0.1080545047E+01   0.2027985125E-01   0.2785509016E-01  -0.4191258330E-02   0.8714166052E-02   0.1882146641E-02   0.0000000000E+00
   0.0000000000E+00   0.0000000000E+00   0.9973195008E+00   0.0000000000E+00   0.0000000000E+00  -0.1928615744E-04   0.0000000000E+00   0.0000000000E+00  -0.2661213053E-02   0.1080086874E+01   0.1332730949E-01   0.3526580473E-01  -0.1000818574E-02   0.7913687515E-02   0.1081889775E-02   0.0000000000E+00
   0.1006549338E+01   0.0000000000E+00   0.9977827271E+00   0.4953505661E-04   0.0000000000E+00  -0.2003584680E-04   0.6499803201E-02   0.0000000000E+00  -0.2197237038E-02   0.1070778065E+01   0.8728649487E-02   0.1709366418E-01  -0.1645695902E-02  -0.2229699625E-02   0.8867958918E-03   0.0000000000E+00
   0.1006434508E+01   0.9968894152E+00   0.9979123633E+00   0.4921871613E-04  -0.2410706627E-04  -0.1946475121E-04   0.6385288803E-02  -0.3086477758E-02  -0.2068171986E-02   0.1070651061E+01   0.8649475209E-02   0.1729984261E-01  -0.2107080109E-02  -0.2548420470E-02  -0.3830273893E-03   0.0000000000E+00
   0.0000000000E+00   0.9963988236E+00   0.9973125569E+00   0.0000000000E+00  -0.2291485128E-04  -0.1937563043E-04   0.0000000000E+00  -0.3578261560E-02  -0.2668067514E-02   0.1079839079E+01   0.1752756034E-01   0.3131334810E-01  -0.1466843762E-02   0.7050512163E-02  -0.2092027074E-02   0.0000000000E+00
   0.2013000000E+01   0.0000000000E+00   0.1080475249E-02   0.1000000000E-03   0.0000000000E+00   0.7627375020E-05   0.1290000000E-01   0.0000000000E+00   0.1072847874E-02   0.1060523135E+01   0.1076083060E-02   0.2921552420E-02  -0.1513200129E-02   0.8545474761E-02  -0.6967217730E-03   0.0000000000E+00
   0.2013000000E+01   0.9972103737E+00   0.1111349719E-02   0.1000000000E-03  -0.2606620827E-04   0.7661860181E-05   0.1290000000E-01  -0.2763560133E-02   0.1103687859E-02   0.1060695195E+01   0.2896609147E-03   0.3535914508E-02  -0.2041348020E-02   0.8752606582E-02  -0.1174564537E-02   0.0000000000E+00
   0.2013000000E+01   0.0000000000E+00   0.9983500626E+00   0.1000000000E-03   0.0000000000E+00  -0.2026188547E-04   0.1290000000E-01   0.0000000000E+00  -0.1629675558E-02   0.1061450695E+01   0.1503748312E-03   0.2919700671E-02  -0.1089952507E-02   0.7547313358E-02  -0.3044211420E-04   0.0000000000E+00
   0.2013000000E+01   0.9972078067E+00   0.9983246452E+00   0.1000000000E-03  -0.2599490407E-04  -0.2038632362E-04   0.1290000000E-01  -0.2766198411E-02  -0.1654968481E-02   0.1061588187E+01  -0.6135018596E-03   0.3546085484E-02  -0.1550710202E-02   0.7094425261E-02  -0.4995689162E-03   0.0000000000E+00
     1     2     3     4     5     6     7     8
     2     9    10     3     6    11    12     7
 VARIABLES = X,Y,Z,DU1,DU2,DU3,U1,U2,U3,S11,S22,S33,S12,S13,S23,Vf
 ZONE, T="0.1400D+01" F=FEPOINT, I=   12 J=    2 ET=BRICK
   0.0000000000E+00   0.0000000000E+00   0.0000000000E+00   0.0000000000E+00   0.0000000000E+00   0.0000000000E+00   0.0000000000E+00   0.0000000000E+00   0.0000000000E+00   0.1068993075E+01   0.4591634605E-02   0.1346034844E-01  -0.1503157709E-02   0.1361220333E-01   0.7216413312E-02   0.0000000000E+00
   0.1007658209E+01   0.0000000000E+00   0.9973380171E-03   0.4866184530E-04   0.0000000000E+00   0.5515107812E-05   0.7609546875E-02   0.0000000000E+00   0.9918229092E-03   0.1060764145E+01   0.1761769625E-03  -0.1974534525E-02  -0.1677471251E-02   0.1735252257E-02   0.1395428796E-02   0.0000000000E+00
   0.1007448472E+01   0.9967422837E+00   0.9460431767E-03   0.4917558539E-04  -0.2551227864E-04   0.5294266726E-05   0.7399296852E-02  -0.3232204048E-02   0.9407489100E-03   0.1060840482E+01   0.9857597854E-04  -0.1973270266E-02  -0.2442580370E-02  -0.1478147508E-03   0.4865741881E-03   0.0000000000E+00
   0.0000000000E+00   0.9966619769E+00   0.1109922398E-02   0.0000000000E+00  -0.2670982758E-04   0.6222586818E-05   0.0000000000E+00  -0.3311313277E-02   0.1103699811E-02   0.1069652117E+01   0.8566466703E-02   0.8826473867E-02  -0.2603391787E-02   0.8925748230E-02   0.4716465628E-02   0.0000000000E+00
   0.0000000000E+00   0.0000000000E+00   0.9970833045E+00   0.0000000000E+00   0.0000000000E+00  -0.2583111867E-04   0.0000000000E+00   0.0000000000E+00  -0.2890864375E-02   0.1068460214E+01   0.2273072421E-02   0.1631177169E-01  -0.2518052218E-03   0.9036008141E-02   0.2947976447E-02   0.0000000000E+00
   0.1007023901E+01   0.0000000000E+00   0.9975656062E+00   0.4611751114E-04   0.0000000000E+00  -0.2227652708E-04   0.6977783435E-02   0.0000000000E+00  -0.2412117236E-02   0.1060784394E+01  -0.7677802006E-03  -0.1050826465E-02  -0.5806527494E-03  -0.8052839283E-03   0.1439218010E-02   0.0000000000E+00
   0.1006912027E+01   0.9966378235E+00   0.9976999985E+00   0.4678336963E-04  -0.2557532040E-04  -0.2190744869E-04   0.6865243415E-02  -0.3336601143E-02  -0.2278094061E-02   0.1060856324E+01  -0.8206206498E-03  -0.1069915563E-02  -0.7787227228E-03  -0.1529972709E-02   0.5211436182E-03   0.0000000000E+00
   0.0000000000E+00   0.9961408546E+00   0.9970794045E+00   0.0000000000E+00  -0.2739232355E-04  -0.2538273623E-04   0.0000000000E+00  -0.3831753078E-02  -0.2895212745E-02   0.1069081404E+01   0.6348109154E-02   0.1161554497E-01  -0.3437621817E-03   0.7436508524E-02   0.4126449131E-03   0.0000000000E+00
   0.2014000000E+01   0.0000000000E+00   0.1143417114E-02   0.1000000000E-03   0.0000000000E+00   0.4827299415E-05   0.1390000000E-01   0.0000000000E+00   0.1138589815E-02   0.1051866591E+01  -0.7649077030E-02  -0.1333099648E-01  -0.9279340348E-03   0.7035795907E-02  -0.2141238472E-03   0.0000000000E+00
   0.2014000000E+01   0.9969590068E+00   0.1176448483E-02   0.1000000000E-03  -0.2421131342E-04   0.5140104686E-05   0.1390000000E-01  -0.3016781848E-02   0.1171308379E-02   0.1051767626E+01  -0.8070064422E-02  -0.1281104376E-01  -0.1354490195E-02   0.7386666459E-02  -0.3948004798E-03   0.0000000000E+00
   0.2014000000E+01   0.0000000000E+00   0.9981537088E+00   0.1000000000E-03   0.0000000000E+00  -0.1867736061E-04   0.1390000000E-01   0.0000000000E+00  -0.1827613820E-02   0.1052548957E+01  -0.8167315130E-02  -0.1349512360E-01  -0.5164224291E-03   0.6508263334E-02   0.2357625694E-03   0.0000000000E+00
   0.2014000000E+01   0.9969584502E+00   0.9981268876E+00   0.1000000000E-03  -0.2396210722E-04  -0.1885458446E-04   0.1390000000E-01  -0.3017587715E-02  -0.1854257854E-02   0.1052444437E+01  -0.8579410193E-02  -0.1297850931E-01  -0.8213042583E-03   0.6096000493E-02   0.6169141506E-04   0.0000000000E+00
     1     2     3     4     5     6     7     8
     2     9    10     3     6    11    12     7
 VARIABLES = X,Y,Z,DU1,DU2,DU3,U1,U2,U3,S11,S22,S33,S12,S13,S23,Vf
 ZONE, T="0.1500D+01" F=FEPOINT, I=   12 J=    2 ET=BRICK
   0.0000000000E+00   0.0000000000E+00   0.0000000000E+00   0.0000000000E+00   0.0000000000E+00   0.0000000000E+00   0.0000000000E+00   0.0000000000E+00   0.0000000000E+00   0.1036264697E+01  -0.2396371975E-01  -0.1932559439E-01  -0.3979223441E-04   0.1344077415E-01   0.9030072612E-02   0.0000000000E+00
   0.1008154936E+01   0.0000000000E+00   0.1038504375E-02   0.5124342777E-04   0.0000000000E+00   0.3043562406E-05   0.8103693066E-02   0.0000000000E+00   0.1035460813E-02   0.1054220889E+01  -0.3815259191E-02  -0.6114073537E-02   0.4277597935E-03   0.1669847683E-02   0.1821820708E-02   0.0000000000E+00
   0.1007949122E+01   0.9964956265E+00   0.9845902739E-03   0.5141726470E-04  -0.2400434530E-04   0.2741225164E-05   0.7897704761E-02  -0.3480369115E-02   0.9818490488E-03   0.1054283192E+01  -0.3451576925E-02  -0.6540058283E-02   0.4574646195E-03  -0.6481215232E-03   0.9760385859E-03   0.0000000000E+00
   0.0000000000E+00   0.9964158749E+00   0.1149574067E-02   0.0000000000E+00  -0.2220823803E-04   0.1384511721E-05   0.0000000000E+00  -0.3561916864E-02   0.1148189555E-02   0.1036757477E+01  -0.1920952189E-01  -0.2457257293E-01  -0.3098991516E-03   0.7824016386E-02   0.6724589131E-02   0.0000000000E+00
   0.0000000000E+00   0.0000000000E+00   0.9968482265E+00   0.0000000000E+00   0.0000000000E+00  -0.2087778393E-04   0.0000000000E+00   0.0000000000E+00  -0.3130895692E-02   0.1035864261E+01  -0.2611449851E-01  -0.1677438050E-01   0.1054151272E-02   0.1045931247E-01   0.4058774534E-02   0.0000000000E+00
   0.1007495258E+01   0.0000000000E+00   0.9973533041E+00   0.4867784247E-04   0.0000000000E+00  -0.2047551387E-04   0.7446579720E-02   0.0000000000E+00  -0.2626220414E-02   0.1054299729E+01  -0.4717741194E-02  -0.5290431752E-02   0.1426926983E-02   0.1120281961E-02   0.1432816065E-02   0.0000000000E+00
   0.1007389578E+01   0.9963885844E+00   0.9974899779E+00   0.4915630370E-04  -0.2441327660E-04  -0.2033018389E-04   0.7340421518E-02  -0.3587002282E-02  -0.2489691934E-02   0.1054348263E+01  -0.4327707163E-02  -0.5728999391E-02   0.2003018336E-02   0.5253049796E-04   0.5824959848E-03   0.0000000000E+00
   0.0000000000E+00   0.9958833131E+00   0.9968461473E+00   0.0000000000E+00  -0.2378424240E-04  -0.2095491983E-04   0.0000000000E+00  -0.4092902680E-02  -0.3132897812E-02   0.1036313691E+01  -0.2126506181E-01  -0.2207324726E-01   0.1658611584E-02   0.8125071617E-02   0.1740538925E-02   0.0000000000E+00
   0.2015000000E+01   0.0000000000E+00   0.1186535856E-02   0.1000000000E-03   0.0000000000E+00   0.4792031823E-05   0.1490000000E-01   0.0000000000E+00   0.1181743824E-02   0.1071659359E+01   0.1204768997E-01   0.1190068139E-01   0.5048413010E-03   0.4792133575E-02   0.8869658779E-04   0.0000000000E+00
   0.2015000000E+01   0.9967156109E+00   0.1222655404E-02   0.1000000000E-03  -0.2515042803E-04   0.5064659666E-05   0.1490000000E-01  -0.3259238720E-02   0.1217590745E-02   0.1071579822E+01   0.1199846295E-01   0.1202944544E-01   0.8380066152E-03   0.5282448504E-02   0.3680087611E-04   0.0000000000E+00
   0.2015000000E+01   0.0000000000E+00   0.9979672447E+00   0.1000000000E-03   0.0000000000E+00  -0.1948997680E-04   0.1490000000E-01   0.0000000000E+00  -0.2013265312E-02   0.1072294613E+01   0.1167432500E-01   0.1163879245E-01   0.9564549900E-03   0.6662655566E-02   0.1655831096E-03   0.0000000000E+00
   0.2015000000E+01   0.9967170731E+00   0.9979380291E+00   0.1000000000E-03  -0.2500302704E-04  -0.1976629784E-04   0.1490000000E-01  -0.3257923906E-02  -0.2042204621E-02   0.1072199605E+01   0.1163751697E-01   0.1177060802E-01   0.1502523148E-02   0.6370817888E-02   0.1182098289E-03   0.0000000000E+00
     1     2     3     4     5     6     7     8
     2     9    10     3     6    11    12     7
 VARIABLES = X,Y,Z,DU1,DU2,DU3,U1,U2,U3,S11,S22,S33,S12,S13,S23,Vf
 ZONE, T="0.1600D+01" F=FEPOINT, I=   12 J=    2 ET=BRICK
   0.0000000000E+00   0.0000000000E+00   0.0000000000E+00   0.0000000000E+00   0.0000000000E+00   0.0000000000E+00   0.0000000000E+00   0.0000000000E+00   0.0000000000E+00   0.1079006485E+01   0.1580607461E-01   0.2485923848E-01  -0.1780117525E-02   0.1087617327E-01   0.5348897155E-02   0.0000000000E+00
   0.1008673532E+01   0.0000000000E+00   0.1070744866E-02   0.5125132756E-04   0.0000000000E+00   0.3754332753E-05   0.8622280527E-02   0.0000000000E+00   0.1066990533E-02   0.1067542540E+01   0.7340851055E-02   0.8411407944E-02  -0.9777577390E-03   0.1583719611E-02   0.7246454253E-03   0.0000000000E+00
   0.1008469545E+01   0.9962523770E+00   0.1014677374E-02   0.5161060199E-04  -0.2489956374E-04   0.3659634619E-05   0.8417934351E-02  -0.3722723402E-02   0.1011017739E-02   0.1067565145E+01   0.7568474598E-02   0.8161179873E-02  -0.2731159693E-02   0.1158944113E-03  -0.2932478613E-03   0.0000000000E+00
   0.0000000000E+00   0.9961981407E+00   0.1159877018E-02   0.0000000000E+00  -0.2287336504E-04   0.2275166334E-05   0.0000000000E+00  -0.3778985890E-02   0.1157601851E-02   0.1079321601E+01   0.1926172960E-01   0.2108846794E-01  -0.3967269814E-02   0.6901653247E-02   0.2760378893E-02   0.0000000000E+00
   0.0000000000E+00   0.0000000000E+00   0.9966426778E+00   0.0000000000E+00   0.0000000000E+00  -0.2187596989E-04   0.0000000000E+00   0.0000000000E+00  -0.3335446229E-02   0.1078643954E+01   0.1335875395E-01   0.2766909008E-01  -0.6296834901E-03   0.6089056933E-02   0.1761227565E-02   0.0000000000E+00
   0.1007989635E+01   0.0000000000E+00   0.9971429074E+00   0.4902834189E-04   0.0000000000E+00  -0.2186295430E-04   0.7940606615E-02   0.0000000000E+00  -0.2835229631E-02   0.1067622861E+01   0.6270377342E-02   0.9401561190E-02   0.8960857098E-04  -0.1403110730E-02   0.4910826390E-03   0.0000000000E+00
   0.1007888763E+01   0.9961413776E+00   0.9972813098E+00   0.4963512187E-04  -0.2520947295E-04  -0.2162496112E-04   0.7839127492E-02  -0.3833412925E-02  -0.2697065268E-02   0.1067640969E+01   0.6515740321E-02   0.9138089473E-02  -0.1057621039E-02  -0.2021014915E-02  -0.5302073690E-03   0.0000000000E+00
   0.0000000000E+00   0.9956491987E+00   0.9966393004E+00   0.0000000000E+00  -0.2435230331E-04  -0.2192126338E-04   0.0000000000E+00  -0.4326448994E-02  -0.3338778323E-02   0.1078943992E+01   0.1688055480E-01   0.2384725122E-01  -0.1895588697E-02   0.4571353379E-02  -0.8373113098E-03   0.0000000000E+00
   0.2016000000E+01   0.0000000000E+00   0.1243034065E-02   0.1000000000E-03   0.0000000000E+00   0.5595515148E-05   0.1590000000E-01   0.0000000000E+00   0.1237438550E-02   0.1055697034E+01  -0.3861724047E-02  -0.4917509495E-02  -0.9492603549E-03   0.5694190062E-02  -0.3836615118E-05   0.0000000000E+00
   0.2016000000E+01   0.9964546895E+00   0.1281174543E-02   0.1000000000E-03  -0.2613630943E-04   0.5741648020E-05   0.1590000000E-01  -0.3519174154E-02   0.1275432895E-02   0.1055620529E+01  -0.3702601442E-02  -0.5000127864E-02  -0.2269185785E-02   0.6225517652E-02  -0.1004306740E-03   0.0000000000E+00
   0.2016000000E+01   0.0000000000E+00   0.9977596031E+00   0.1000000000E-03   0.0000000000E+00  -0.2104913156E-04   0.1590000000E-01   0.0000000000E+00  -0.2219347759E-02   0.1056314933E+01  -0.4267967766E-02  -0.5129165069E-02  -0.4235975993E-03   0.4478561949E-02  -0.1320728178E-03   0.0000000000E+00
   0.2016000000E+01   0.9964571165E+00   0.9977277885E+00   0.1000000000E-03  -0.2606987895E-04  -0.2127331352E-04   0.1590000000E-01  -0.3516813581E-02  -0.2250938157E-02   0.1056222631E+01  -0.4098281365E-02  -0.5206549559E-02  -0.1453841365E-02   0.4266198598E-02  -0.2255584010E-03   0.0000000000E+00
     1     2     3     4     5     6     7     8
     2     9    10     3     6    11    12     7
 VARIABLES = X,Y,Z,DU1,DU2,DU3,U1,U2,U3,S11,S22,S33,S12,S13,S23,Vf
 ZONE, T="0.1700D+01" F=FEPOINT, I=   12 J=    2 ET=BRICK
   0.0000000000E+00   0.0000000000E+00   0.0000000000E+00   0.0000000000E+00   0.0000000000E+00   0.0000000000E+00   0.0000000000E+00   0.0000000000E+00   0.0000000000E+00   0.1057338998E+01  -0.3943821198E-02   0.2315983860E-03  -0.6693990015E-03   0.1097151562E-01   0.7496048556E-02   0.0000000000E+00
   0.1009170437E+01   0.0000000000E+00   0.1108842730E-02   0.4905392918E-04   0.0000000000E+00   0.3422623321E-05   0.9121382968E-02   0.0000000000E+00   0.1105420107E-02   0.1056313916E+01  -0.3428442410E-02  -0.4917210310E-02   0.6164569185E-03   0.1763474374E-02   0.1568354329E-02   0.0000000000E+00
   0.1008971908E+01   0.9960010362E+00   0.1052786949E-02   0.4957777830E-04  -0.2494433144E-04   0.3435892400E-05   0.8922329724E-02  -0.3974019441E-02   0.1049351057E-02   0.1056404370E+01  -0.2880310117E-02  -0.5555796824E-02  -0.4024394288E-03  -0.2459846530E-03   0.6129914493E-03   0.0000000000E+00
   0.0000000000E+00   0.9959513219E+00   0.1200044968E-02   0.0000000000E+00  -0.2519616853E-04   0.4309443132E-05   0.0000000000E+00  -0.4023481896E-02   0.1195735525E-02   0.1057992379E+01   0.2628351706E-03  -0.4628439434E-02  -0.2165493851E-02   0.6216757561E-02   0.5026416661E-02   0.0000000000E+00
   0.0000000000E+00   0.0000000000E+00   0.9964046496E+00   0.0000000000E+00   0.0000000000E+00  -0.2426645206E-04   0.0000000000E+00   0.0000000000E+00  -0.3571083918E-02   0.1057055252E+01  -0.6298714230E-02   0.2870236897E-02   0.4230262084E-03   0.7183199710E-02   0.2981959863E-02   0.0000000000E+00
   0.1008466454E+01   0.0000000000E+00   0.9969205742E+00   0.4714308248E-04   0.0000000000E+00  -0.2209375055E-04   0.8419311213E-02   0.0000000000E+00  -0.3057332024E-02   0.1056373042E+01  -0.4423118951E-02  -0.3981660212E-02   0.1590028418E-02   0.3103557845E-03   0.9801580671E-03   0.0000000000E+00
   0.1008373031E+01   0.9958878812E+00   0.9970622913E+00   0.4786694066E-04  -0.2514122496E-04  -0.2170664245E-04   0.8325163887E-02  -0.4086977594E-02  -0.2916002075E-02   0.1056456511E+01  -0.3858354048E-02  -0.4629893598E-02   0.1144455777E-02  -0.6205619364E-03   0.2346610179E-04   0.0000000000E+00
   0.0000000000E+00   0.9953895366E+00   0.9964021157E+00   0.0000000000E+00  -0.2646998631E-04  -0.2415385146E-04   0.0000000000E+00  -0.4583993382E-02  -0.3573730498E-02   0.1057683856E+01  -0.2027493048E-02  -0.2029588492E-02  -0.1861836032E-03   0.5228780817E-02   0.5117801418E-03   0.0000000000E+00
   0.2017000000E+01   0.0000000000E+00   0.1283488481E-02   0.1000000000E-03   0.0000000000E+00   0.2989511302E-05   0.1690000000E-01   0.0000000000E+00   0.1280498970E-02   0.1054671007E+01  -0.6467744712E-02  -0.5893510575E-02   0.2654145424E-03   0.4245585974E-02   0.6660138689E-04   0.0000000000E+00
   0.2017000000E+01   0.9962061351E+00   0.1322506757E-02   0.1000000000E-03  -0.2397289446E-04   0.3034177476E-05   0.1690000000E-01  -0.3769892044E-02   0.1319472579E-02   0.1054498297E+01  -0.6247445929E-02  -0.5941100099E-02  -0.2763869996E-03   0.4535976036E-02  -0.3645366292E-04   0.0000000000E+00
   0.2017000000E+01   0.0000000000E+00   0.9975605111E+00   0.1000000000E-03   0.0000000000E+00  -0.1918515020E-04   0.1690000000E-01   0.0000000000E+00  -0.2420303739E-02   0.1055171272E+01  -0.6823125936E-02  -0.6038394565E-02   0.7238226807E-03   0.5097986928E-02  -0.7069731153E-04   0.0000000000E+00
   0.2017000000E+01   0.9962089334E+00   0.9975270896E+00   0.1000000000E-03  -0.2396257676E-04  -0.1929637873E-04   0.1690000000E-01  -0.3767103984E-02  -0.2453614038E-02   0.1054988979E+01  -0.6596879021E-02  -0.6082348994E-02   0.4408816753E-03   0.4759053555E-02  -0.1716514018E-03   0.0000000000E+00
     1     2     3     4     5     6     7     8
     2     9    10     3     6    11    12     7
 VARIABLES = X,Y,Z,DU1,DU2,DU3,U1,U2,U3,S11,S22,S33,S12,S13,S23,Vf
 ZONE, T="0.1800D+01" F=FEPOINT, I=   12 J=    2 ET=BRICK
   0.0000000000E+00   0.0000000000E+00   0.0000000000E+00   0.0000000000E+00   0.0000000000E+00   0.0000000000E+00   0.0000000000E+00   0.0000000000E+00   0.0000000000E+00   0.1050669112E+01  -0.1031541816E-01  -0.5052789555E-02  -0.3236313185E-03   0.9774044977E-02   0.7069139373E-02   0.0000000000E+00
   0.1009672418E+01   0.0000000000E+00   0.1137426620E-02   0.5131817079E-04   0.0000000000E+00   0.2681790686E-05   0.9621099682E-02   0.0000000000E+00   0.1134744830E-02   0.1060700374E+01   0.1023521511E-02   0.1811785912E-02   0.9304330410E-03   0.1447426993E-02   0.1582827849E-02   0.0000000000E+00
   0.1009475542E+01   0.9957560199E+00   0.1080668806E-02   0.5120545070E-04  -0.2433673114E-04   0.2552278590E-05   0.9424336396E-02  -0.4219643370E-02   0.1078116527E-02   0.1060715820E+01   0.1515967974E-02   0.1303893653E-02   0.3231409567E-03  -0.4732031982E-03   0.6013892505E-03   0.0000000000E+00
   0.0000000000E+00   0.9957135523E+00   0.1225156392E-02   0.0000000000E+00  -0.2262650203E-04   0.1134882789E-05   0.0000000000E+00  -0.4263821154E-02   0.1224021509E-02   0.1050950099E+01  -0.6167884659E-02  -0.9481310578E-02  -0.1423864558E-02   0.5343389774E-02   0.4550101217E-02   0.0000000000E+00
   0.0000000000E+00   0.0000000000E+00   0.9961777341E+00   0.0000000000E+00   0.0000000000E+00  -0.2149849935E-04   0.0000000000E+00   0.0000000000E+00  -0.3800767367E-02   0.1050416148E+01  -0.1272168101E-01  -0.2393563347E-02   0.7926064363E-03   0.6715105274E-02   0.2794441679E-02   0.0000000000E+00
   0.1008949333E+01   0.0000000000E+00   0.9967025216E+00   0.4942380041E-04   0.0000000000E+00  -0.2183655631E-04   0.8899909375E-02   0.0000000000E+00  -0.3275641841E-02   0.1060776068E+01  -0.8026947426E-06   0.2760416433E-02   0.1898712063E-02   0.6391368009E-03   0.1086794916E-02   0.0000000000E+00
   0.1008860127E+01   0.9956401893E+00   0.9968482691E+00   0.4959997462E-04  -0.2465343524E-04  -0.2143109171E-04   0.8810526869E-02  -0.4335157225E-02  -0.3130299832E-02   0.1060783218E+01   0.5071335346E-03   0.2245329351E-02   0.1862697810E-02  -0.2221844560E-03   0.1052923799E-03   0.0000000000E+00
   0.0000000000E+00   0.9951371315E+00   0.9961754522E+00   0.0000000000E+00  -0.2418593789E-04  -0.2152075369E-04   0.0000000000E+00  -0.4838682541E-02  -0.3803027044E-02   0.1050682435E+01  -0.8520532944E-02  -0.6860997764E-02   0.6009330298E-03   0.4960759153E-02   0.2806754632E-03   0.0000000000E+00
   0.2018000000E+01   0.0000000000E+00   0.1319420114E-02   0.1000000000E-03   0.0000000000E+00   0.4562605180E-05   0.1790000000E-01   0.0000000000E+00   0.1314857509E-02   0.1070362054E+01   0.8905450261E-02   0.1250295413E-01   0.6466632416E-03   0.3567584798E-02   0.9657878253E-05   0.0000000000E+00
   0.2018000000E+01   0.9959614009E+00   0.1358567878E-02   0.1000000000E-03  -0.2529868656E-04   0.4562557649E-05   0.1790000000E-01  -0.4013300434E-02   0.1354005320E-02   0.1070309052E+01   0.8916220555E-02   0.1254518616E-01   0.5329842799E-03   0.3723223926E-02  -0.1476236735E-03   0.0000000000E+00
   0.2018000000E+01   0.0000000000E+00   0.9973586658E+00   0.1000000000E-03   0.0000000000E+00  -0.2147328113E-04   0.1790000000E-01   0.0000000000E+00  -0.2619860942E-02   0.1070846888E+01   0.8509746437E-02   0.1241382386E-01   0.1073281410E-02   0.4987956609E-02   0.2254392979E-04   0.0000000000E+00
   0.2018000000E+01   0.9959639910E+00   0.9973246067E+00   0.1000000000E-03  -0.2533849946E-04  -0.2150311315E-04   0.1790000000E-01  -0.4010670501E-02  -0.2653890163E-02   0.1070773977E+01   0.8530727787E-02   0.1246575380E-01   0.1192106731E-02   0.4594824528E-02  -0.1331091709E-03   0.0000000000E+00
     1     2     3     4     5     6     7     8
     2     9    10     3     6    11    12     7
 VARIABLES = X,Y,Z,DU1,DU2,DU3,U1,U2,U3,S11,S22,S33,S12,S13,S23,Vf
 ZONE, T="0.1900D+01" F=FEPOINT, I=   12 J=    2 ET=BRICK
   0.0000000000E+00   0.0000000000E+00   0.0000000000E+00   0.0000000000E+00   0.0000000000E+00   0.0000000000E+00   0.0000000000E+00   0.0000000000E+00   0.0000000000E+00   0.1071387965E+01   0.8945796651E-02   0.1543373807E-01  -0.1434343383E-02   0.8680284615E-02   0.5096899501E-02   0.0000000000E+00
   0.1010185272E+01   0.0000000000E+00   0.1166393048E-02   0.5058125867E-04   0.0000000000E+00   0.2999417635E-05   0.1013469065E-01   0.0000000000E+00   0.1163393630E-02   0.1061510863E+01   0.1923937836E-02   0.1092539871E-02  -0.5503150252E-03   0.1749894537E-02   0.1077795750E-02   0.0000000000E+00
   0.1009987181E+01   0.9955106046E+00   0.1108452939E-02   0.5057206894E-04  -0.2469962675E-04   0.2912506538E-05   0.9936609126E-02  -0.4464695762E-02   0.1105540433E-02   0.1061513883E+01   0.2100874594E-02   0.9125828268E-03  -0.1956406798E-02   0.3237585036E-03   0.6410185094E-04   0.0000000000E+00
   0.0000000000E+00   0.9954840359E+00   0.1239304900E-02   0.0000000000E+00  -0.2385435460E-04   0.2306431515E-05   0.0000000000E+00  -0.4492109771E-02   0.1236998469E-02   0.1071586465E+01   0.1210136971E-01   0.1207966525E-01  -0.3301979794E-02   0.5262370890E-02   0.2583187683E-02   0.0000000000E+00
   0.0000000000E+00   0.0000000000E+00   0.9959577864E+00   0.0000000000E+00   0.0000000000E+00  -0.2305464278E-04   0.0000000000E+00   0.0000000000E+00  -0.4019159003E-02   0.1071144705E+01   0.6537223358E-02   0.1808557128E-01  -0.3346524501E-03   0.4387738824E-02   0.1854680334E-02   0.0000000000E+00
   0.1009444606E+01   0.0000000000E+00   0.9964799625E+00   0.4896211235E-04   0.0000000000E+00  -0.2251209534E-04   0.9395644317E-02   0.0000000000E+00  -0.3497525390E-02   0.1061576174E+01   0.8732585743E-03   0.2077908150E-02   0.4048386745E-03  -0.8013870510E-03   0.9029069666E-03   0.0000000000E+00
   0.1009356716E+01   0.9953918183E+00   0.9966297042E+00   0.4915821500E-04  -0.2495784686E-04  -0.2212364857E-04   0.9307557307E-02  -0.4583223869E-02  -0.3348172195E-02   0.1061575204E+01   0.1061096846E-02   0.1891040035E-02  -0.4442058351E-03  -0.1390561401E-02  -0.1113857308E-03   0.0000000000E+00
   0.0000000000E+00   0.9948939291E+00   0.9959561763E+00   0.0000000000E+00  -0.2499442908E-04  -0.2288309514E-04   0.0000000000E+00  -0.5081076440E-02  -0.4020940640E-02   0.1071336841E+01   0.9731832271E-02   0.1469882686E-01  -0.1309426516E-02   0.3157606746E-02  -0.6582158532E-03   0.0000000000E+00
   0.2019000000E+01   0.0000000000E+00   0.1366308889E-02   0.1000000000E-03   0.0000000000E+00   0.3995664110E-05   0.1890000000E-01   0.0000000000E+00   0.1362313225E-02   0.1051342132E+01  -0.7601145854E-02  -0.1045380464E-01  -0.5245647770E-03   0.4260347155E-02  -0.5292435384E-04   0.0000000000E+00
   0.2019000000E+01   0.9957061761E+00   0.1405619433E-02   0.1000000000E-03  -0.2507867429E-04   0.4034647212E-05   0.1890000000E-01  -0.4268745241E-02   0.1401584785E-02   0.1051319755E+01  -0.7754418873E-02  -0.1027815491E-01  -0.1471088594E-02   0.4391492272E-02  -0.2719640636E-03   0.0000000000E+00
   0.2019000000E+01   0.0000000000E+00   0.9971389550E+00   0.1000000000E-03   0.0000000000E+00  -0.2157030171E-04   0.1890000000E-01   0.0000000000E+00  -0.2839474686E-02   0.1051790843E+01  -0.8041424453E-02  -0.1046223754E-01  -0.1081433281E-03   0.3420735347E-02   0.1094989701E-03   0.0000000000E+00
   0.2019000000E+01   0.9957083218E+00   0.9971048623E+00   0.1000000000E-03  -0.2512290213E-04  -0.2156085271E-04   0.1890000000E-01  -0.4266555325E-02  -0.2873576874E-02   0.1051752165E+01  -0.8186078627E-02  -0.1027890507E-01  -0.8328754036E-03   0.3052658768E-02  -0.1079570594E-03   0.0000000000E+00
     1     2     3     4     5     6     7     8
     2     9    10     3     6    11    12     7
 VARIABLES = X,Y,Z,DU1,DU2,DU3,U1,U2,U3,S11,S22,S33,S12,S13,S23,Vf
 ZONE, T="0.2000D+01" F=FEPOINT, I=   12 J=    2 ET=BRICK
   0.0000000000E+00   0.0000000000E+00   0.0000000000E+00   0.0000000000E+00   0.0000000000E+00   0.0000000000E+00   0.0000000000E+00   0.0000000000E+00   0.0000000000E+00   0.1055691159E+01  -0.5159009228E-02  -0.1280886889E-02  -0.5119986812E-03   0.8611469589E-02   0.6348619912E-02   0.0000000000E+00
   0.1010682941E+01   0.0000000000E+00   0.1193938293E-02   0.4968340975E-04   0.0000000000E+00   0.2503889764E-05   0.1063325798E-01   0.0000000000E+00   0.1191434404E-02   0.1058940046E+01  -0.2277785266E-03  -0.1343238237E-02   0.2482049147E-03   0.1622518942E-02   0.1458494123E-02   0.0000000000E+00
   0.1010485700E+01   0.9952641867E+00   0.1135232717E-02   0.4974354593E-04  -0.2453962479E-04   0.2410817912E-05   0.1043595597E-01  -0.4711273701E-02   0.1132821899E-02   0.1058984184E+01   0.3653769851E-04  -0.1651692076E-02  -0.3013417844E-03  -0.7554877115E-04   0.5219584680E-03   0.0000000000E+00
   0.0000000000E+00   0.9952375706E+00   0.1269050140E-02   0.0000000000E+00  -0.2466613685E-04   0.2838643544E-05   0.0000000000E+00  -0.4737763245E-02   0.1266211497E-02   0.1056050318E+01  -0.1748177682E-02  -0.5050877158E-02  -0.1425576146E-02   0.4722324504E-02   0.4106518607E-02   0.0000000000E+00
   0.0000000000E+00   0.0000000000E+00   0.9957188649E+00   0.0000000000E+00   0.0000000000E+00  -0.2387853111E-04   0.0000000000E+00   0.0000000000E+00  -0.4257256546E-02   0.1055474483E+01  -0.7305785980E-02   0.1082565738E-02   0.4438805035E-03   0.5723812405E-02   0.2769395680E-02   0.0000000000E+00
   0.1009927161E+01   0.0000000000E+00   0.9962553936E+00   0.4821075327E-04   0.0000000000E+00  -0.2237245768E-04   0.9878950716E-02   0.0000000000E+00  -0.3722233976E-02   0.1058996612E+01  -0.1197424363E-02  -0.4301579195E-03   0.1082273330E-02   0.6116415811E-03   0.1175693658E-02   0.0000000000E+00
   0.1009841887E+01   0.9951429335E+00   0.9964086165E+00   0.4845037277E-04  -0.2480357017E-04  -0.2206623477E-04   0.9793436814E-02  -0.4832262935E-02  -0.3569317263E-02   0.1059034736E+01  -0.9225023665E-03  -0.7432043241E-03   0.1018720593E-02  -0.1569324686E-03   0.2389355199E-03   0.0000000000E+00
   0.0000000000E+00   0.9946375549E+00   0.9957193347E+00   0.0000000000E+00  -0.2564470439E-04  -0.2370790799E-04   0.0000000000E+00  -0.5336800407E-02  -0.4256957437E-02   0.1055820431E+01  -0.3857273201E-02  -0.2711895131E-02   0.3042988090E-03   0.4159800028E-02   0.5291914346E-03   0.0000000000E+00
   0.2020000000E+01   0.0000000000E+00   0.1394488699E-02   0.1000000000E-03   0.0000000000E+00   0.2426551760E-05   0.1990000000E-01   0.0000000000E+00   0.1392062147E-02   0.1061819602E+01   0.1783001657E-02   0.1884192171E-02   0.2087679174E-03   0.3015239089E-02   0.1572589195E-04   0.0000000000E+00
   0.2020000000E+01   0.9954634379E+00   0.1434525604E-02   0.1000000000E-03  -0.2407572484E-04   0.2524296719E-05   0.1990000000E-01  -0.4512486358E-02   0.1432001307E-02   0.1061765622E+01   0.1616891138E-02   0.2104282691E-02   0.2276173090E-04   0.3131138632E-02  -0.2234766506E-03   0.0000000000E+00
   0.2020000000E+01   0.0000000000E+00   0.9969317833E+00   0.1000000000E-03   0.0000000000E+00  -0.2057871911E-04   0.1990000000E-01   0.0000000000E+00  -0.3047637966E-02   0.1062206905E+01   0.1349992920E-02   0.1929897480E-02   0.5759990384E-03   0.3857860830E-02   0.2074373847E-03   0.0000000000E+00
   0.2020000000E+01   0.9954651272E+00   0.9968977129E+00   0.1000000000E-03  -0.2412411034E-04  -0.2058879953E-04   0.1990000000E-01  -0.4510748691E-02  -0.3081698342E-02   0.1062141067E+01   0.1190590120E-02   0.2155138927E-02   0.5876373137E-03   0.3518554657E-02  -0.3016047261E-04   0.0000000000E+00
     1     2     3     4     5     6     7     8
     2     9    10     3     6    11    12     7
