 VARIABLES = X,Y,Z,DU1,DU2,DU3,U1,U2,U3,S11,S22,S33,S12,S13,S23,Vf
 ZONE, T="0.1000D+00" F=FEPOINT, I=   12 J=    2 ET=BRICK
   0.0000000000E+00   0.0000000000E+00   0.0000000000E+00   0.0000000000E+00   0.0000000000E+00   0.0000000000E+00   0.0000000000E+00   0.0000000000E+00   0.0000000000E+00   0.1599092102E+00   0.1406968438E-01  -0.2216366542E-03  -0.8672830232E-02   0.8672357174E-02  -0.6791129026E-05   0.0000000000E+00
   0.1000215362E+01   0.0000000000E+00   0.8649445366E-04   0.4951905379E-04   0.0000000000E+00   0.1728624275E-04   0.1658428230E-03   0.0000000000E+00   0.6920821091E-04   0.5105389229E+00   0.1156644154E+00   0.6821665356E-01  -0.8280264574E-02   0.8676220848E-02  -0.1168740831E-05   0.0000000000E+00
   0.1000220346E+01   0.9999038516E+00   0.8649657940E-04   0.5136443724E-04  -0.2082637078E-04   0.1728681646E-04   0.1689812588E-03  -0.7532201414E-04   0.6920976294E-04   0.5105383374E+00   0.1156641512E+00   0.6821750323E-01  -0.1734665646E-01   0.8678227342E-02  -0.1018439043E-05   0.0000000000E+00
   0.0000000000E+00   0.9999949764E+00   0.2489551328E-06   0.0000000000E+00  -0.2046060529E-05   0.3009749300E-06   0.0000000000E+00  -0.2977493690E-05  -0.5201979715E-07   0.1604294210E+00   0.1380411436E-01  -0.4762774114E-03  -0.1773882991E-01   0.8676098826E-02  -0.6339394360E-05   0.0000000000E+00
   0.0000000000E+00   0.0000000000E+00   0.9999997247E+00   0.0000000000E+00   0.0000000000E+00  -0.3142993161E-06   0.0000000000E+00   0.0000000000E+00   0.3897248544E-07   0.1599092538E+00   0.1407020100E-01  -0.2221968731E-03  -0.8673071223E-02  -0.8681144085E-02  -0.1003397655E-05   0.0000000000E+00
   0.1000215366E+01   0.0000000000E+00   0.9999135077E+00   0.4952019150E-04   0.0000000000E+00  -0.1728559906E-04   0.1658457118E-03   0.0000000000E+00  -0.6920670258E-04   0.5105387648E+00   0.1156647315E+00   0.6821649558E-01  -0.8280504498E-02  -0.8680077434E-02  -0.2748409395E-06   0.0000000000E+00
   0.1000220348E+01   0.9999038535E+00   0.9999135074E+00   0.5136502099E-04  -0.2082584540E-04  -0.1728568751E-04   0.1689827159E-03  -0.7532060707E-04  -0.6920688184E-04   0.5105381794E+00   0.1156644672E+00   0.6821734520E-01  -0.1734701672E-01  -0.8680062852E-02   0.4906521407E-07   0.0000000000E+00
   0.0000000000E+00   0.9999949844E+00   0.9999997551E+00   0.0000000000E+00  -0.2043825961E-05  -0.2998365340E-06   0.0000000000E+00  -0.2971750987E-05   0.5490888971E-07   0.1604293850E+00   0.1380467085E-01  -0.4767978880E-03  -0.1773925198E-01  -0.8680311342E-02  -0.3780332592E-06   0.0000000000E+00
   0.2001000000E+01   0.0000000000E+00   0.1727109149E-03   0.1000000000E-03   0.0000000000E+00   0.3425710106E-04   0.9000000000E-03   0.0000000000E+00   0.1384538138E-03   0.8611728000E+00   0.2172616594E+00   0.1366482663E+00  -0.8673826592E-02   0.8679480677E-02   0.1231368365E-05   0.0000000000E+00
   0.2001000000E+01   0.9998127235E+00   0.1727382059E-03   0.1000000000E-03  -0.3960760312E-04   0.3427069488E-04   0.9000000000E-03  -0.1476688662E-03   0.1384675110E-03   0.8606501867E+00   0.2175254692E+00   0.1369070698E+00  -0.1774061067E-01   0.8679871330E-02   0.1201739636E-05   0.0000000000E+00
   0.2001000000E+01   0.0000000000E+00   0.9998272891E+00   0.1000000000E-03   0.0000000000E+00  -0.3425709232E-04   0.9000000000E-03   0.0000000000E+00  -0.1384538063E-03   0.8611723592E+00   0.2172619369E+00   0.1366484296E+00  -0.8673945945E-02  -0.8679614881E-02  -0.9486673989E-06   0.0000000000E+00
   0.2001000000E+01   0.9998127235E+00   0.9998272618E+00   0.1000000000E-03  -0.3960762573E-04  -0.3427070286E-04   0.9000000000E-03  -0.1476688857E-03  -0.1384675182E-03   0.8606498256E+00   0.2175257069E+00   0.1369071932E+00  -0.1774078962E-01  -0.8680298948E-02  -0.8047191989E-06   0.0000000000E+00
     1     2     3     4     5     6     7     8
     2     9    10     3     6    11    12     7
 VARIABLES = X,Y,Z,DU1,DU2,DU3,U1,U2,U3,S11,S22,S33,S12,S13,S23,Vf
 ZONE, T="0.2000D+00" F=FEPOINT, I=   12 J=    2 ET=BRICK
   0.0000000000E+00   0.0000000000E+00   0.0000000000E+00   0.0000000000E+00   0.0000000000E+00   0.0000000000E+00   0.0000000000E+00   0.0000000000E+00   0.0000000000E+00   0.9113715717E+00   0.1469947043E+00   0.1438503908E+00  -0.1758227897E-01   0.2676997717E-01   0.8596362564E-02   0.0000000000E+00
   0.1000893205E+01   0.0000000000E+00   0.1979549481E-03   0.7011559980E-04   0.0000000000E+00   0.1701982306E-05   0.8230897549E-03   0.0000000000E+00   0.1962529658E-03   0.9006704879E+00  -0.4465020643E-01  -0.1041569196E+00  -0.1000458905E-01   0.2227310323E-01   0.2087787592E-02   0.0000000000E+00
   0.1000963716E+01   0.9996718735E+00   0.1972590841E-03   0.8040795606E-04  -0.2050546872E-04   0.1456313806E-05   0.8833075998E-03  -0.3076210058E-03   0.1958027702E-03   0.9013958241E+00  -0.4392186931E-01  -0.1056105929E+00  -0.3512159510E-01   0.2014005768E-01   0.2019788824E-02   0.0000000000E+00
   0.0000000000E+00   0.9998670668E+00   0.6924879816E-04   0.0000000000E+00  -0.2630751421E-04   0.1706374061E-04   0.0000000000E+00  -0.1066256840E-03   0.5218505756E-04   0.9242942208E+00   0.1448081777E+00   0.1331142682E+00  -0.4272135709E-01   0.2235961230E-01   0.8441980552E-02   0.0000000000E+00
   0.0000000000E+00   0.0000000000E+00   0.9999285389E+00   0.0000000000E+00   0.0000000000E+00  -0.1766104390E-04   0.0000000000E+00   0.0000000000E+00  -0.5380004733E-04   0.9113594164E+00   0.1468472352E+00   0.1440100150E+00  -0.1751286972E-01  -0.1356721222E-01   0.4324806092E-02   0.0000000000E+00
   0.1000891917E+01   0.0000000000E+00   0.9998013507E+00   0.6965556053E-04   0.0000000000E+00  -0.1955739416E-05   0.8222614950E-03   0.0000000000E+00  -0.1966935710E-03   0.9007158380E+00  -0.4474018338E-01  -0.1041122928E+00  -0.9935884022E-02  -0.1582421663E-01   0.1000464089E-02   0.0000000000E+00
   0.1000963061E+01   0.9996712580E+00   0.9998014573E+00   0.8017316064E-04  -0.2072203672E-04  -0.1914183814E-05   0.8828881473E-03  -0.3080199961E-03  -0.1966284724E-03   0.9014410038E+00  -0.4401185757E-01  -0.1055657844E+00  -0.3501840702E-01  -0.1694218258E-01   0.9335365544E-03   0.0000000000E+00
   0.0000000000E+00   0.9998645153E+00   0.9999294603E+00   0.0000000000E+00  -0.2721567253E-04  -0.1752508667E-04   0.0000000000E+00  -0.1082689785E-03  -0.5301460837E-04   0.9243044599E+00   0.1446493208E+00   0.1332628859E+00  -0.4260001505E-01  -0.1580930667E-01   0.4171450947E-02   0.0000000000E+00
   0.2002000000E+01   0.0000000000E+00   0.3247968618E-03   0.1000000000E-03   0.0000000000E+00  -0.1411414683E-04   0.1900000000E-02   0.0000000000E+00   0.3389110086E-03   0.8869493433E+00  -0.2392235347E+00  -0.3462157515E+00  -0.1753963448E-01   0.1794848508E-01   0.6622477441E-04   0.0000000000E+00
   0.2002000000E+01   0.9994777433E+00   0.3266732693E-03   0.1000000000E-03  -0.1432219040E-04  -0.1364159886E-04   0.1900000000E-02  -0.5079345518E-03   0.3403148681E-03   0.8770152707E+00  -0.2340424322E+00  -0.3414627814E+00  -0.4263453711E-01   0.1805939866E-01   0.4967082774E-04   0.0000000000E+00
   0.2002000000E+01   0.0000000000E+00   0.9996751972E+00   0.1000000000E-03   0.0000000000E+00   0.1411138751E-04   0.1900000000E-02   0.0000000000E+00  -0.3389141384E-03   0.8870755152E+00  -0.2393026070E+00  -0.3462628512E+00  -0.1750556803E-01  -0.1790813087E-01  -0.1449800380E-03   0.0000000000E+00
   0.2002000000E+01   0.9994777585E+00   0.9996733321E+00   0.1000000000E-03  -0.1431506917E-04   0.1364403361E-04   0.1900000000E-02  -0.5079264388E-03  -0.3403118914E-03   0.8771187066E+00  -0.2341101373E+00  -0.3414985122E+00  -0.4258345955E-01  -0.1793588284E-01  -0.1604317044E-03   0.0000000000E+00
     1     2     3     4     5     6     7     8
     2     9    10     3     6    11    12     7
 VARIABLES = X,Y,Z,DU1,DU2,DU3,U1,U2,U3,S11,S22,S33,S12,S13,S23,Vf
 ZONE, T="0.3000D+00" F=FEPOINT, I=   12 J=    2 ET=BRICK
   0.0000000000E+00   0.0000000000E+00   0.0000000000E+00   0.0000000000E+00   0.0000000000E+00   0.0000000000E+00   0.0000000000E+00   0.0000000000E+00   0.0000000000E+00   0.1520717475E+01   0.7250246205E-02   0.4497684432E-01   0.1851092754E-01   0.3843824882E-01   0.5257185625E-01   0.0000000000E+00
   0.1001525717E+01   0.0000000000E+00   0.2173384270E-03   0.6224214827E-04   0.0000000000E+00   0.8709388606E-05   0.1463475143E-02   0.0000000000E+00   0.2086290384E-03   0.1500052781E+01   0.3059993268E-01   0.1202599290E+00   0.3729021444E-01   0.8430625548E-02   0.1146526831E-01   0.0000000000E+00
   0.1001667177E+01   0.9994745693E+00   0.2046587186E-03   0.6189674546E-04  -0.2143868204E-04   0.6363896108E-05   0.1605280728E-02  -0.5039919954E-03   0.1982948225E-03   0.1504444496E+01   0.3499287010E-01   0.1114752761E+00   0.3828071476E-01  -0.4737651084E-02   0.9909434377E-02   0.0000000000E+00
   0.0000000000E+00   0.9994596533E+00   0.3755750054E-03   0.0000000000E+00  -0.4370160376E-04   0.3396120436E-04   0.0000000000E+00  -0.4966451283E-03   0.3416138011E-03   0.1563653318E+01   0.1388745168E-01  -0.4596204470E-02   0.1887614903E-01   0.9590925973E-02   0.4889150001E-01   0.0000000000E+00
   0.0000000000E+00   0.0000000000E+00   0.9996009254E+00   0.0000000000E+00   0.0000000000E+00  -0.3796259562E-04   0.0000000000E+00   0.0000000000E+00  -0.3611120054E-03   0.1520308035E+01   0.3772437723E-02   0.4886409231E-01   0.2020336294E-01   0.4468343399E-01   0.2446824866E-01   0.0000000000E+00
   0.1001500416E+01   0.0000000000E+00   0.9997667165E+00   0.5736518547E-04   0.0000000000E+00  -0.1202318706E-04   0.1443050574E-02   0.0000000000E+00  -0.2212603177E-03   0.1501091311E+01   0.2852358947E-01   0.1212977416E+00   0.3894416784E-01   0.2950891319E-01   0.4875597791E-02   0.0000000000E+00
   0.1001653853E+01   0.9994637092E+00   0.9997702514E+00   0.5927815777E-04  -0.2340887954E-04  -0.1119356293E-04   0.1594575312E-02  -0.5128819156E-03  -0.2185550182E-03   0.1505482792E+01   0.3291641472E-01   0.1125134357E+00   0.4077716719E-01   0.2298634011E-01   0.3318774129E-02   0.0000000000E+00
   0.0000000000E+00   0.9994106770E+00   0.9995988078E+00   0.0000000000E+00  -0.5302603450E-04  -0.3893554058E-04   0.0000000000E+00  -0.5362969225E-03  -0.3622566526E-03   0.1563784041E+01   0.1013915650E-01  -0.9786321192E-03   0.2185276431E-01   0.3070557651E-01   0.2078488561E-01   0.0000000000E+00
   0.2003000000E+01   0.0000000000E+00   0.4751317906E-04   0.1000000000E-03   0.0000000000E+00  -0.1777013398E-04   0.2900000000E-02   0.0000000000E+00   0.6528331304E-04   0.1458776598E+01   0.3584257966E-01   0.2342615410E+00   0.1976728988E-01  -0.1727493929E-01   0.2369838624E-04   0.0000000000E+00
   0.2003000000E+01   0.9995106045E+00   0.6212097546E-04   0.1000000000E-03   0.4900995209E-05  -0.1573929213E-04   0.2900000000E-02  -0.4942965002E-03   0.7786026759E-04   0.1435588738E+01   0.4895604156E-01   0.2443359397E+00   0.2138422287E-01  -0.1557507168E-01  -0.2907128930E-03   0.0000000000E+00
   0.2003000000E+01   0.0000000000E+00   0.9999521189E+00   0.1000000000E-03   0.0000000000E+00   0.1767345810E-04   0.2900000000E-02   0.0000000000E+00  -0.6555458793E-04   0.1461853460E+01   0.3398938883E-01   0.2330378704E+00   0.2057265579E-01   0.1863372991E-01  -0.1497277562E-02   0.0000000000E+00
   0.2003000000E+01   0.9995115248E+00   0.9999381016E+00   0.1000000000E-03   0.5139259671E-05   0.1578739508E-04   0.2900000000E-02  -0.4936145065E-03  -0.7768577882E-04   0.1438125118E+01   0.4737308868E-01   0.2433825123E+00   0.2258965751E-01   0.1875669110E-01  -0.1811944066E-02   0.0000000000E+00
     1     2     3     4     5     6     7     8
     2     9    10     3     6    11    12     7
 VARIABLES = X,Y,Z,DU1,DU2,DU3,U1,U2,U3,S11,S22,S33,S12,S13,S23,Vf
 ZONE, T="0.4000D+00" F=FEPOINT, I=   12 J=    2 ET=BRICK
   0.0000000000E+00   0.0000000000E+00   0.0000000000E+00   0.0000000000E+00   0.0000000000E+00   0.0000000000E+00   0.0000000000E+00   0.0000000000E+00   0.0000000000E+00   0.1980935149E+01  -0.1937644727E+00  -0.1669208289E+00   0.1714481767E-01   0.5080331600E-01   0.6132292320E-01   0.0000000000E+00
   0.1002208909E+01   0.0000000000E+00   0.3399519315E-03   0.6943074641E-04   0.0000000000E+00   0.8024353889E-05   0.2139478223E-02   0.0000000000E+00   0.3319275776E-03   0.1895731316E+01  -0.9482270560E-01  -0.6747079278E-01   0.2380574055E-01   0.5267750271E-02   0.8844494389E-02   0.0000000000E+00
   0.1002197765E+01   0.9992937860E+00   0.2915211235E-03   0.4375648547E-04  -0.1121605311E-04   0.4178024228E-05   0.2154008508E-02  -0.6949979682E-03   0.2873430993E-03   0.1900050782E+01  -0.9050093784E-01  -0.7611202590E-01   0.4026620682E-01  -0.1050940726E-01   0.2038126056E-02   0.0000000000E+00
   0.0000000000E+00   0.9992497387E+00   0.4807369004E-03   0.0000000000E+00   0.1439425872E-05  -0.1355292663E-04   0.0000000000E+00  -0.7517007617E-03   0.4942898270E-03   0.2012367552E+01  -0.1696746728E+00  -0.2224430325E+00   0.3062522716E-01   0.9221898849E-02   0.4407080727E-01   0.0000000000E+00
   0.0000000000E+00   0.0000000000E+00   0.9994177100E+00   0.0000000000E+00   0.0000000000E+00   0.2192151048E-05   0.0000000000E+00   0.0000000000E+00  -0.5844821977E-03   0.1978078111E+01  -0.2095908797E+00  -0.1482373844E+00   0.2537048883E-01   0.5508867792E-01   0.2152282184E-01   0.0000000000E+00
   0.1002096919E+01   0.0000000000E+00   0.9995698960E+00   0.5844757982E-04   0.0000000000E+00  -0.1924541043E-04   0.2038471568E-02   0.0000000000E+00  -0.4108585717E-03   0.1900272298E+01  -0.1039016574E+00  -0.6293282256E-01   0.3160565212E-01   0.3118280501E-01   0.2365425248E-02   0.0000000000E+00
   0.1002134552E+01   0.9992548874E+00   0.9995968281E+00   0.3703032741E-04  -0.1399659179E-04  -0.1530908549E-04   0.2097521621E-02  -0.7311159853E-03  -0.3878627969E-03   0.1904590281E+01  -0.9957958084E-01  -0.7157288260E-01   0.5215284023E-01   0.2458915429E-01  -0.4441187011E-02   0.0000000000E+00
   0.0000000000E+00   0.9990420304E+00   0.9994012192E+00   0.0000000000E+00  -0.1786679939E-04   0.1247557059E-05   0.0000000000E+00  -0.9401028476E-03  -0.6000283155E-03   0.2011983809E+01  -0.1867386476E+00  -0.2049953141E+00   0.4521540705E-01   0.3764688276E-01   0.4265737133E-02   0.0000000000E+00
   0.2004000000E+01   0.0000000000E+00   0.1892429545E-03   0.1000000000E-03   0.0000000000E+00   0.3199537686E-04   0.3900000000E-02   0.0000000000E+00   0.1572475777E-03   0.1777710543E+01  -0.1676817244E-01   0.8568341854E-01   0.2311650325E-01  -0.1871420256E-01  -0.2926418126E-03   0.0000000000E+00
   0.2004000000E+01   0.9994307419E+00   0.2285302205E-03   0.1000000000E-03  -0.1490036481E-04   0.3428664604E-04   0.3900000000E-02  -0.5543577210E-03   0.1942435744E-03   0.1774855446E+01  -0.1227425905E-01   0.8404460266E-01   0.4255893526E-01  -0.1239966276E-01  -0.1205605517E-02   0.0000000000E+00
   0.2004000000E+01   0.0000000000E+00   0.9998070390E+00   0.1000000000E-03   0.0000000000E+00  -0.3261799962E-04   0.3900000000E-02   0.0000000000E+00  -0.1603430303E-03   0.1792689114E+01  -0.2517251781E-01   0.7910919309E-01   0.2678056586E-01   0.2882618440E-01  -0.3358066056E-02   0.0000000000E+00
   0.2004000000E+01   0.9994391810E+00   0.9997717179E+00   0.1000000000E-03  -0.1359414656E-04  -0.3445870376E-04   0.3900000000E-02  -0.5472248423E-03  -0.1938233997E-03   0.1787358727E+01  -0.1944067010E-01   0.7870773257E-01   0.4803079879E-01   0.2937185849E-01  -0.4270475707E-02   0.0000000000E+00
     1     2     3     4     5     6     7     8
     2     9    10     3     6    11    12     7
 VARIABLES = X,Y,Z,DU1,DU2,DU3,U1,U2,U3,S11,S22,S33,S12,S13,S23,Vf
 ZONE, T="0.5000D+00" F=FEPOINT, I=   12 J=    2 ET=BRICK
   0.0000000000E+00   0.0000000000E+00   0.0000000000E+00   0.0000000000E+00   0.0000000000E+00   0.0000000000E+00   0.0000000000E+00   0.0000000000E+00   0.0000000000E+00   0.2590008859E+01   0.7679896074E-01   0.1480099880E+00  -0.2616098219E-01   0.3134915178E-01   0.1353643750E-01   0.0000000000E+00
   0.1002743548E+01   0.0000000000E+00   0.3286006605E-03   0.3726298629E-04   0.0000000000E+00  -0.3664166294E-05   0.2706284606E-02   0.0000000000E+00   0.3322648268E-03   0.2477541174E+01   0.6725648258E-01   0.2557426772E-01  -0.4828857038E-01   0.4671530144E-02  -0.2148484205E-02   0.0000000000E+00
   0.1002482864E+01   0.9992356896E+00   0.2660497830E-03   0.1932622774E-04  -0.7463156389E-05  -0.2225858564E-05   0.2463538160E-02  -0.7568471994E-03   0.2682756415E-03   0.2474604388E+01   0.6431729359E-01   0.3145024288E-01  -0.4191774961E-01   0.1392585883E-03  -0.1264461154E-01   0.0000000000E+00
   0.0000000000E+00   0.9993343178E+00   0.2598024273E-03   0.0000000000E+00   0.1492829197E-05  -0.1526694360E-04   0.0000000000E+00  -0.6671750136E-03   0.2750693709E-03   0.2564787692E+01   0.1062373676E+00   0.1437927476E+00  -0.2499576295E-01   0.9135338028E-02  -0.1706605368E-01   0.0000000000E+00
   0.0000000000E+00   0.0000000000E+00   0.9994810758E+00   0.0000000000E+00   0.0000000000E+00  -0.3678369908E-05   0.0000000000E+00   0.0000000000E+00  -0.5152457972E-03   0.2581306993E+01   0.5054933768E-01   0.1829614764E+00  -0.1073325551E-01   0.2055879377E-02  -0.3288141601E-02   0.0000000000E+00
   0.1002538875E+01   0.0000000000E+00   0.9994325232E+00   0.3138171098E-04   0.0000000000E+00  -0.1304092252E-04   0.2507493731E-02   0.0000000000E+00  -0.5544358375E-03   0.2484542928E+01   0.5326177843E-01   0.3256721783E-01  -0.3456079719E-01  -0.1494249855E-01   0.2259773785E-02   0.0000000000E+00
   0.1002350332E+01   0.9991913195E+00   0.9995165764E+00   0.1320870478E-04  -0.5736785805E-05  -0.6565680128E-05   0.2337123347E-02  -0.8029436795E-03  -0.4768578725E-03   0.2481603336E+01   0.5032391801E-01   0.3844467087E-01  -0.2049452495E-01  -0.1553103264E-01  -0.8237205368E-02   0.0000000000E+00
   0.0000000000E+00   0.9989850316E+00   0.9994901817E+00   0.0000000000E+00  -0.4793824583E-05   0.2361619950E-05   0.0000000000E+00  -0.1010174558E-02  -0.5121799681E-03   0.2560103321E+01   0.7797789785E-01   0.1767365890E+00   0.2843994439E-02  -0.2871562221E-02  -0.3389367760E-01   0.0000000000E+00
   0.2005000000E+01   0.0000000000E+00   0.4567978188E-03   0.1000000000E-03   0.0000000000E+00   0.1841108343E-04   0.4900000000E-02   0.0000000000E+00   0.4383867353E-03   0.2345216891E+01   0.5869554030E-01  -0.7798638952E-01  -0.1575863028E-01   0.2165958909E-01   0.2069042452E-02   0.0000000000E+00
   0.2005000000E+01   0.9992983735E+00   0.4982875414E-03   0.1000000000E-03  -0.1331932739E-04   0.1620115709E-04   0.4900000000E-02  -0.6883071910E-03   0.4820863844E-03   0.2382356472E+01   0.4117294829E-01  -0.9760337868E-01  -0.4182038741E-02   0.2878218424E-01   0.2248721799E-02   0.0000000000E+00
   0.2005000000E+01   0.0000000000E+00   0.9995271410E+00   0.1000000000E-03   0.0000000000E+00  -0.2028093472E-04   0.4900000000E-02   0.0000000000E+00  -0.4525781131E-03   0.2374213543E+01   0.4437617871E-01  -0.9266367997E-01  -0.9761599726E-02   0.1172928603E-01   0.1020918213E-02   0.0000000000E+00
   0.2005000000E+01   0.9993256235E+00   0.9994887173E+00   0.1000000000E-03  -0.1124812693E-04  -0.1909871577E-04   0.4900000000E-02  -0.6631283689E-03  -0.4921839737E-03   0.2407330458E+01   0.2886577898E-01  -0.1102701953E+00   0.4793839212E-02   0.9450660105E-02   0.1199346135E-02   0.0000000000E+00
     1     2     3     4     5     6     7     8
     2     9    10     3     6    11    12     7
 VARIABLES = X,Y,Z,DU1,DU2,DU3,U1,U2,U3,S11,S22,S33,S12,S13,S23,Vf
 ZONE, T="0.6000D+00" F=FEPOINT, I=   12 J=    2 ET=BRICK
   0.0000000000E+00   0.0000000000E+00   0.0000000000E+00   0.0000000000E+00   0.0000000000E+00   0.0000000000E+00   0.0000000000E+00   0.0000000000E+00   0.0000000000E+00   0.2787234889E+01  -0.4252681505E-01  -0.5147032975E-02  -0.3572194658E-01   0.3810940796E-01   0.2859263100E-01   0.0000000000E+00
   0.1003048193E+01   0.0000000000E+00   0.3475969061E-03   0.3385006283E-04   0.0000000000E+00   0.4510221169E-05   0.3014343052E-02   0.0000000000E+00   0.3430866850E-03   0.2960052354E+01   0.5587901060E-01  -0.1254361902E-01  -0.6520667801E-01   0.1565853348E-01   0.1156557748E-01   0.0000000000E+00
   0.1002785962E+01   0.9990564004E+00   0.3285634231E-03   0.4874771252E-04  -0.2421347433E-04   0.1012156214E-04   0.2737214293E-02  -0.9193861216E-03   0.3184418610E-03   0.2954457796E+01   0.5029434506E-01  -0.1364395916E-02  -0.6460380664E-01   0.5365602027E-02   0.4322837249E-02   0.0000000000E+00
   0.0000000000E+00   0.9991773172E+00   0.2818503508E-03   0.0000000000E+00  -0.2371302190E-04   0.9372074315E-05   0.0000000000E+00  -0.7989697431E-03   0.2724782765E-03   0.2749872089E+01  -0.1406797927E-01   0.3756931403E-02  -0.3853613834E-01   0.1688504455E-01   0.1700444854E-02   0.0000000000E+00
   0.0000000000E+00   0.0000000000E+00   0.9992498837E+00   0.0000000000E+00   0.0000000000E+00  -0.3089879063E-04   0.0000000000E+00   0.0000000000E+00  -0.7192175165E-03   0.2772526673E+01  -0.6206165103E-01   0.2909601904E-01  -0.2170982519E-01   0.8879137110E-02   0.1881793982E-01   0.0000000000E+00
   0.1002842322E+01   0.0000000000E+00   0.9992589084E+00   0.3767650151E-04   0.0000000000E+00  -0.1774805719E-04   0.2804645764E-02   0.0000000000E+00  -0.7233434935E-03   0.2964878968E+01   0.4622763820E-01  -0.7718860534E-02  -0.5440129278E-01  -0.1022336203E-01   0.1994759988E-01   0.0000000000E+00
   0.1002615787E+01   0.9990402204E+00   0.9993857360E+00   0.4692830107E-04  -0.2195287416E-04  -0.1669509330E-04   0.2568858996E-02  -0.9378267374E-03  -0.5975688965E-03   0.2959281401E+01   0.4064423919E-01   0.3462104582E-02  -0.4643764141E-01  -0.1668019321E-01   0.1270448666E-01   0.0000000000E+00
   0.0000000000E+00   0.9988766235E+00   0.9993374018E+00   0.0000000000E+00  -0.1201062538E-04  -0.2377331198E-04   0.0000000000E+00  -0.1111365828E-02  -0.6388248739E-03   0.2737455588E+01  -0.3474988698E-01   0.3685533970E-01  -0.1223434959E-01   0.1972642721E-02  -0.8075871548E-02   0.0000000000E+00
   0.2006000000E+01   0.0000000000E+00   0.5831783379E-03   0.1000000000E-03   0.0000000000E+00   0.8776025444E-05   0.5900000000E-02   0.0000000000E+00   0.5744023124E-03   0.3123836923E+01   0.1589427970E+00  -0.1556526998E-01  -0.2888391716E-01   0.4216545214E-01   0.3101456489E-02   0.0000000000E+00
   0.2006000000E+01   0.9990596602E+00   0.5673445951E-03   0.1000000000E-03  -0.3359580921E-04   0.6452481367E-06   0.5900000000E-02  -0.9067439723E-03   0.5666993470E-03   0.3163988499E+01   0.1332943188E+00  -0.3006836874E-01  -0.2486320683E-01   0.3936484608E-01   0.5652673062E-02   0.0000000000E+00
   0.2006000000E+01   0.0000000000E+00   0.9993675610E+00   0.1000000000E-03   0.0000000000E+00  -0.1376888462E-04   0.5900000000E-02   0.0000000000E+00  -0.6186701561E-03   0.3154772991E+01   0.1460277546E+00  -0.3358629590E-01  -0.2472847867E-01   0.1963544841E-01   0.8673017795E-02   0.0000000000E+00
   0.2006000000E+01   0.9990996980E+00   0.9993544058E+00   0.1000000000E-03  -0.3328332206E-04  -0.1064802354E-04   0.5900000000E-02  -0.8670187255E-03  -0.6349461274E-03   0.3192626809E+01   0.1215286374E+00  -0.4694099682E-01  -0.1827614350E-01   0.1018672973E-01   0.1122325496E-01   0.0000000000E+00
     1     2     3     4     5     6     7     8
     2     9    10     3     6    11    12     7
 VARIABLES = X,Y,Z,DU1,DU2,DU3,U1,U2,U3,S11,S22,S33,S12,S13,S23,Vf
 ZONE, T="0.7000D+00" F=FEPOINT, I=   12 J=    2 ET=BRICK
   0.0000000000E+00   0.0000000000E+00   0.0000000000E+00   0.0000000000E+00   0.0000000000E+00   0.0000000000E+00   0.0000000000E+00   0.0000000000E+00   0.0000000000E+00   0.3360824003E+01  -0.1219678889E-01   0.5993749638E-02  -0.1361486205E-01   0.5786388542E-01   0.4947767831E-01   0.0000000000E+00
   0.1003517281E+01   0.0000000000E+00   0.3419886356E-03   0.5458219762E-04   0.0000000000E+00  -0.4372566283E-05   0.3462698567E-02   0.0000000000E+00   0.3463612019E-03   0.3421166338E+01  -0.3229233370E-01  -0.3158451568E-01  -0.1792746846E-01   0.2892968076E-01   0.1778446082E-01   0.0000000000E+00
   0.1003528361E+01   0.9988449435E+00   0.3667859623E-03   0.8771813415E-04  -0.1687077253E-04  -0.1584908231E-05   0.3440643005E-02  -0.1138185736E-02   0.3683708705E-03   0.3418778858E+01  -0.3468048577E-01  -0.2680888363E-01  -0.2928265121E-01   0.9276645522E-02   0.1274960619E-01   0.0000000000E+00
   0.0000000000E+00   0.9989823633E+00   0.3047348916E-03   0.0000000000E+00  -0.1659427120E-04  -0.2321132364E-05   0.0000000000E+00  -0.1001042441E-02   0.3070560240E-03   0.3365617267E+01  -0.8317281077E-03  -0.1016457529E-01  -0.2393777204E-01   0.3270326897E-01   0.3291701620E-01   0.0000000000E+00
   0.0000000000E+00   0.0000000000E+00   0.9990266229E+00   0.0000000000E+00   0.0000000000E+00  -0.1587436163E-04   0.0000000000E+00   0.0000000000E+00  -0.9575027346E-03   0.3344484951E+01  -0.2058606189E-01   0.3072207410E-01  -0.7265516740E-02   0.4167671175E-01   0.3571978487E-01   0.0000000000E+00
   0.1003361643E+01   0.0000000000E+00   0.9991682892E+00   0.5914767013E-04   0.0000000000E+00  -0.2869001854E-05   0.3302495675E-02   0.0000000000E+00  -0.8288418261E-03   0.3424522949E+01  -0.3900253857E-01  -0.2823092167E-01  -0.1433940171E-01   0.1469726886E-01   0.2136904946E-01   0.0000000000E+00
   0.1003356125E+01   0.9988188888E+00   0.9992491183E+00   0.8844537215E-04  -0.2056612939E-04  -0.1174330514E-04   0.3267679944E-02  -0.1160545059E-02  -0.7391383937E-03   0.3422134199E+01  -0.4139132437E-01  -0.2345338666E-01  -0.2104467450E-01   0.1261097446E-02   0.1633396664E-01   0.0000000000E+00
   0.0000000000E+00   0.9988062752E+00   0.9991322533E+00   0.0000000000E+00  -0.5822049373E-05  -0.1894713203E-04   0.0000000000E+00  -0.1187902762E-02  -0.8487995409E-03   0.3348568151E+01  -0.8867801088E-02   0.1492061386E-01  -0.1071069959E-01   0.2763896207E-01   0.1915795069E-01   0.0000000000E+00
   0.2007000000E+01   0.0000000000E+00   0.5682163166E-03   0.1000000000E-03   0.0000000000E+00  -0.1128396079E-04   0.6900000000E-02   0.0000000000E+00   0.5795002774E-03   0.3480276832E+01  -0.5773755631E-01  -0.6258126244E-01  -0.1567146421E-01   0.4106978922E-01  -0.6282965556E-02   0.0000000000E+00
   0.2007000000E+01   0.9987144370E+00   0.4739949829E-03   0.1000000000E-03  -0.2934259271E-04  -0.1706571569E-04   0.6900000000E-02  -0.1256220450E-02   0.4910606986E-03   0.3477251610E+01  -0.6733509020E-01  -0.4995850581E-01  -0.2805848708E-01   0.2798900868E-01  -0.4245984171E-02   0.0000000000E+00
   0.2007000000E+01   0.0000000000E+00   0.9992945527E+00   0.1000000000E-03   0.0000000000E+00  -0.1411056027E-05   0.6900000000E-02   0.0000000000E+00  -0.7040362607E-03   0.3506301420E+01  -0.6871121994E-01  -0.7763218656E-01  -0.1378168814E-01   0.2879318020E-01   0.4828331258E-02   0.0000000000E+00
   0.2007000000E+01   0.9987493934E+00   0.9993067566E+00   0.1000000000E-03  -0.2992548241E-04   0.2376889888E-06   0.6900000000E-02  -0.1220681155E-02  -0.6934810628E-03   0.3503983891E+01  -0.7866300602E-01  -0.6536287157E-01  -0.2374707029E-01   0.1702239532E-01   0.6864853534E-02   0.0000000000E+00
     1     2     3     4     5     6     7     8
     2     9    10     3     6    11    12     7
 VARIABLES = X,Y,Z,DU1,DU2,DU3,U1,U2,U3,S11,S22,S33,S12,S13,S23,Vf
 ZONE, T="0.8000D+00" F=FEPOINT, I=   12 J=    2 ET=BRICK
   0.0000000000E+00   0.0000000000E+00   0.0000000000E+00   0.0000000000E+00   0.0000000000E+00   0.0000000000E+00   0.0000000000E+00   0.0000000000E+00   0.0000000000E+00   0.4077955968E+01   0.9551904694E-01   0.1140172879E+00   0.2334283534E-01   0.7034575080E-01   0.5083225311E-01   0.0000000000E+00
   0.1004038369E+01   0.0000000000E+00   0.3415264418E-03   0.4812811213E-04   0.0000000000E+00   0.5418525462E-05   0.3990240578E-02   0.0000000000E+00   0.3361079163E-03   0.3963854944E+01   0.8467475380E-03   0.7815364650E-01   0.5191742654E-01   0.2476140898E-01   0.8883234575E-02   0.0000000000E+00
   0.1004317190E+01   0.9986868388E+00   0.3757939897E-03   0.6399292773E-04  -0.1656914089E-04   0.5129945880E-05   0.4253196907E-02  -0.1296592064E-02   0.3706640438E-03   0.3969149406E+01   0.6147571523E-02   0.6755836032E-01   0.4035015264E-01   0.3637449807E-02   0.1689567851E-02   0.0000000000E+00
   0.0000000000E+00   0.9987581973E+00   0.3522321755E-03   0.0000000000E+00  -0.2756079928E-04   0.1148704325E-04   0.0000000000E+00  -0.1214241931E-02   0.3407451323E-03   0.4138010242E+01   0.9209377355E-01   0.5738828692E-01   0.1494983320E-01   0.4107710585E-01   0.3842802637E-01   0.0000000000E+00
   0.0000000000E+00   0.0000000000E+00   0.9988204905E+00   0.0000000000E+00   0.0000000000E+00  -0.2598029614E-04   0.0000000000E+00   0.0000000000E+00  -0.1153529210E-02   0.4061953429E+01   0.9111403397E-01   0.1344248391E+00   0.2420645153E-01   0.7080123613E-01   0.2423491749E-01   0.0000000000E+00
   0.1003900051E+01   0.0000000000E+00   0.9990887586E+00   0.4704166040E-04   0.0000000000E+00  -0.1602349271E-04   0.3853009636E-02   0.0000000000E+00  -0.8952178886E-03   0.3968653115E+01  -0.8748465979E-02   0.8295068904E-01   0.5303283741E-01   0.3375061140E-01   0.9377479780E-03   0.0000000000E+00
   0.1004154847E+01   0.9986149183E+00   0.9990644596E+00   0.6483904847E-04  -0.2050005653E-04  -0.2580997599E-04   0.4090008016E-02  -0.1364581597E-02  -0.9097304306E-03   0.3973949216E+01  -0.3449991945E-02   0.7235611412E-01   0.4474034826E-01   0.2105874631E-01  -0.6257707823E-02   0.0000000000E+00
   0.0000000000E+00   0.9986464498E+00   0.9988600744E+00   0.0000000000E+00  -0.2494666860E-04  -0.3370859924E-04   0.0000000000E+00  -0.1328603538E-02  -0.1106217040E-02   0.4120568698E+01   0.8840675561E-01   0.7851684859E-01   0.1775212211E-01   0.5175140350E-01   0.1182759971E-01   0.0000000000E+00
   0.2008000000E+01   0.0000000000E+00   0.4079457040E-03   0.1000000000E-03   0.0000000000E+00  -0.1496761091E-04   0.7900000000E-02   0.0000000000E+00   0.4229133150E-03   0.3842604941E+01  -0.1136616092E+00   0.6927504157E-01   0.1700182338E-01   0.1559270535E-01  -0.1193185480E-01   0.0000000000E+00
   0.2008000000E+01   0.9985403302E+00   0.3181302785E-03   0.1000000000E-03  -0.8833882635E-05  -0.8778596229E-05   0.7900000000E-02  -0.1450835909E-02   0.3269088747E-03   0.3795522579E+01  -0.9725179237E-01   0.9994758723E-01   0.2260208479E-02   0.4774951945E-02  -0.1124173123E-01   0.0000000000E+00
   0.2008000000E+01   0.0000000000E+00   0.9992702514E+00   0.1000000000E-03   0.0000000000E+00  -0.8003603079E-05   0.7900000000E-02   0.0000000000E+00  -0.7217449901E-03   0.3866423447E+01  -0.1248828388E+00   0.5667776556E-01   0.2053057078E-01   0.3311594535E-01  -0.4800409432E-02   0.0000000000E+00
   0.2008000000E+01   0.9985852249E+00   0.9992826358E+00   0.1000000000E-03  -0.6177397946E-05  -0.9430531085E-05   0.7900000000E-02  -0.1408597739E-02  -0.7079337037E-03   0.3820783555E+01  -0.1091950476E+00   0.8662986650E-01   0.1039955962E-01   0.2894284754E-01  -0.4111408485E-02   0.0000000000E+00
     1     2     3     4     5     6     7     8
     2     9    10     3     6    11    12     7
 VARIABLES = X,Y,Z,DU1,DU2,DU3,U1,U2,U3,S11,S22,S33,S12,S13,S23,Vf
 ZONE, T="0.9000D+00" F=FEPOINT, I=   12 J=    2 ET=BRICK
   0.0000000000E+00   0.0000000000E+00   0.0000000000E+00   0.0000000000E+00   0.0000000000E+00   0.0000000000E+00   0.0000000000E+00   0.0000000000E+00   0.0000000000E+00   0.4418811313E+01  -0.7313455632E-01  -0.9490973113E-01   0.3104259713E-01   0.7382215017E-01   0.5124334586E-01   0.0000000000E+00
   0.1004530899E+01   0.0000000000E+00   0.3892792219E-03   0.5358943295E-04   0.0000000000E+00   0.1036911461E-07   0.4477309441E-02   0.0000000000E+00   0.3892688527E-03   0.4409766029E+01  -0.4268040923E-01  -0.4107271271E-01   0.6194358498E-01   0.1304912713E-01   0.6568984324E-02   0.0000000000E+00
   0.1004749322E+01   0.9985333557E+00   0.4086264675E-03   0.2970191432E-04  -0.1310948664E-04  -0.2433781641E-05   0.4719620340E-02  -0.1453534797E-02   0.4110602492E-03   0.4420995455E+01  -0.3144747049E-01  -0.6353507752E-01   0.6223681052E-01  -0.2310757817E-02  -0.1238399301E-02   0.0000000000E+00
   0.0000000000E+00   0.9985492577E+00   0.3932327002E-03   0.0000000000E+00  -0.1038876369E-04  -0.8639704701E-05   0.0000000000E+00  -0.1440353497E-02   0.4018724049E-03   0.4485499784E+01  -0.6809396390E-01  -0.1666387948E+00   0.3126680626E-01   0.4013069776E-01   0.3726892795E-01   0.0000000000E+00
   0.0000000000E+00   0.0000000000E+00   0.9986290404E+00   0.0000000000E+00   0.0000000000E+00  -0.7806484128E-05   0.0000000000E+00   0.0000000000E+00  -0.1363153074E-02   0.4399854382E+01  -0.7763367732E-01  -0.7145367889E-01   0.3352130946E-01   0.6999470326E-01   0.1286490045E-01   0.0000000000E+00
   0.1004350189E+01   0.0000000000E+00   0.9988648959E+00   0.4767458135E-04   0.0000000000E+00  -0.2394494157E-04   0.4302513954E-02   0.0000000000E+00  -0.1111159182E-02   0.4414973867E+01  -0.5309568709E-01  -0.3586527367E-01   0.6742930151E-01   0.2908682249E-01  -0.1027715688E-01   0.0000000000E+00
   0.1004588524E+01   0.9984541561E+00   0.9987952984E+00   0.2939722154E-04  -0.1081497502E-04  -0.2314707029E-04   0.4559127082E-02  -0.1535028885E-02  -0.1181554510E-02   0.4426204175E+01  -0.4186480024E-01  -0.5832646834E-01   0.7201742348E-01   0.2185646870E-01  -0.1808629155E-01   0.0000000000E+00
   0.0000000000E+00   0.9984178073E+00   0.9986161789E+00   0.0000000000E+00  -0.1545654142E-04  -0.9941392271E-05   0.0000000000E+00  -0.1566736191E-02  -0.1373879670E-02   0.4467336415E+01  -0.7299182967E-01  -0.1435775605E+00   0.3562197555E-01   0.4970671089E-01  -0.1114683557E-02   0.0000000000E+00
   0.2009000000E+01   0.0000000000E+00   0.3411192409E-03   0.1000000000E-03   0.0000000000E+00   0.5121326624E-06   0.8900000000E-02   0.0000000000E+00   0.3406071082E-03   0.4374137536E+01  -0.3852031367E-01   0.6564156502E-01   0.3118807586E-01  -0.5302698694E-02   0.2215363839E-02   0.0000000000E+00
   0.2009000000E+01   0.9984911754E+00   0.3627230591E-03   0.1000000000E-03  -0.4676239544E-05   0.1357576774E-04   0.8900000000E-02  -0.1504148370E-02   0.3491472913E-03   0.4336941501E+01  -0.1406206603E-01   0.7837935298E-01   0.3155117690E-01  -0.3518942947E-02   0.5412867795E-02   0.0000000000E+00
   0.2009000000E+01   0.0000000000E+00   0.9990756884E+00   0.1000000000E-03   0.0000000000E+00  -0.2781917907E-04   0.8900000000E-02   0.0000000000E+00  -0.8964924370E-03   0.4400286630E+01  -0.4840096411E-01   0.4937312195E-01   0.3849308225E-01   0.3059836592E-01  -0.3646664600E-02   0.0000000000E+00
   0.2009000000E+01   0.9985738182E+00   0.9990556603E+00   0.1000000000E-03  -0.9949711497E-06  -0.3242428240E-04   0.8900000000E-02  -0.1425186875E-02  -0.9119154080E-03   0.4362299081E+01  -0.2354743368E-01   0.6250714060E-01   0.4556818203E-01   0.3523685943E-01  -0.4491507325E-03   0.0000000000E+00
     1     2     3     4     5     6     7     8
     2     9    10     3     6    11    12     7
 VARIABLES = X,Y,Z,DU1,DU2,DU3,U1,U2,U3,S11,S22,S33,S12,S13,S23,Vf
 ZONE, T="0.1000D+01" F=FEPOINT, I=   12 J=    2 ET=BRICK
   0.0000000000E+00   0.0000000000E+00   0.0000000000E+00   0.0000000000E+00   0.0000000000E+00   0.0000000000E+00   0.0000000000E+00   0.0000000000E+00   0.0000000000E+00   0.4948382538E+01   0.5284100765E-01   0.7972866556E-01  -0.1535075158E-01   0.4306145594E-01   0.2034362526E-01   0.0000000000E+00
   0.1005114255E+01   0.0000000000E+00   0.3303207957E-03   0.5877108871E-04   0.0000000000E+00  -0.7478632003E-05   0.5055483832E-02   0.0000000000E+00   0.3377994277E-03   0.4966252084E+01   0.6226764419E-01   0.1752592598E-01  -0.1805102372E-01   0.3711112124E-02   0.5396595105E-02   0.0000000000E+00
   0.1004990003E+01   0.9983946947E+00   0.3167338817E-03   0.2355058839E-04  -0.1735593274E-04  -0.1125268213E-04   0.4966451936E-02  -0.1587949387E-02   0.3279865638E-03   0.4971895819E+01   0.6791121282E-01   0.6238622285E-02  -0.1900107178E-01   0.2417919422E-02   0.8807778324E-03   0.0000000000E+00
   0.0000000000E+00   0.9985076545E+00   0.2064567026E-03   0.0000000000E+00  -0.7160760083E-05  -0.1800549547E-04   0.0000000000E+00  -0.1485184708E-02   0.2244621980E-03   0.4949308883E+01   0.7086905010E-01   0.6077427735E-01  -0.2214923131E-01   0.2530141749E-01   0.4067198175E-02   0.0000000000E+00
   0.0000000000E+00   0.0000000000E+00   0.9986219329E+00   0.0000000000E+00   0.0000000000E+00  -0.3718149042E-05   0.0000000000E+00   0.0000000000E+00  -0.1374348957E-02   0.4926136461E+01   0.4769061919E-01   0.1071251301E+00  -0.6700685646E-02   0.1316927026E-01   0.1855299416E-02   0.0000000000E+00
   0.1004894106E+01   0.0000000000E+00   0.9986280427E+00   0.5818271953E-04   0.0000000000E+00  -0.2483157506E-04   0.4835923143E-02   0.0000000000E+00  -0.1347125720E-02   0.4969264168E+01   0.5624769623E-01   0.2053378980E-01  -0.7285381480E-02  -0.9955914362E-02  -0.3067964843E-02   0.0000000000E+00
   0.1004833561E+01   0.9983692788E+00   0.9986260909E+00   0.2529555570E-04  -0.1025263079E-04  -0.1448764043E-04   0.4808265129E-02  -0.1620468556E-02  -0.1359421425E-02   0.4974906820E+01   0.6189134302E-01   0.9247490916E-02  -0.2572008537E-02  -0.1031338043E-01  -0.7584037552E-02   0.0000000000E+00
   0.0000000000E+00   0.9983262731E+00   0.9986319176E+00   0.0000000000E+00  -0.1026105478E-04   0.1528003190E-05   0.0000000000E+00  -0.1663465812E-02  -0.1369610404E-02   0.4930462257E+01   0.6401723952E-01   0.8647271385E-01  -0.7401557984E-02   0.4495030813E-02  -0.1442245889E-01   0.0000000000E+00
   0.2010000000E+01   0.0000000000E+00   0.4032892303E-03   0.1000000000E-03   0.0000000000E+00   0.8263563749E-05   0.9900000000E-02   0.0000000000E+00   0.3950256665E-03   0.4954688557E+01   0.6566326463E-01  -0.9212722741E-02  -0.3652272728E-02   0.1400963923E-01   0.1741602181E-01   0.0000000000E+00
   0.2010000000E+01   0.9983952618E+00   0.5141147657E-03   0.1000000000E-03  -0.1416232855E-04   0.1147347505E-04   0.9900000000E-02  -0.1590575917E-02   0.5026412906E-03   0.4975920392E+01   0.6979232714E-01  -0.3457362046E-01   0.1246154459E-02   0.2408500205E-01   0.2379345901E-01   0.0000000000E+00
   0.2010000000E+01   0.0000000000E+00   0.9987556755E+00   0.1000000000E-03   0.0000000000E+00  -0.3226235405E-04   0.9900000000E-02   0.0000000000E+00  -0.1212062153E-02   0.4983539078E+01   0.5761384703E-01  -0.3001382695E-01   0.4127991986E-02   0.1657058805E-01   0.2670595000E-02   0.0000000000E+00
   0.2010000000E+01   0.9984852064E+00   0.9986833194E+00   0.1000000000E-03  -0.1668087396E-04  -0.3726754652E-04   0.9900000000E-02  -0.1498112734E-02  -0.1279413048E-02   0.5001369347E+01   0.6344451401E-01  -0.5367476313E-01   0.1425513657E-01   0.1943005580E-01   0.9047128180E-02   0.0000000000E+00
     1     2     3     4     5     6     7     8
     2     9    10     3     6    11    12     7
 VARIABLES = X,Y,Z,DU1,DU2,DU3,U1,U2,U3,S11,S22,S33,S12,S13,S23,Vf
 ZONE, T="0.1100D+01" F=FEPOINT, I=   12 J=    2 ET=BRICK
   0.0000000000E+00   0.0000000000E+00   0.0000000000E+00   0.0000000000E+00   0.0000000000E+00   0.0000000000E+00   0.0000000000E+00   0.0000000000E+00   0.0000000000E+00   0.5391894508E+01  -0.5221517527E-02   0.6292018806E-01  -0.4456560832E-01   0.2731254747E-01   0.1861853026E-01   0.0000000000E+00
   0.1005640580E+01   0.0000000000E+00   0.2803830626E-03   0.4772470020E-04   0.0000000000E+00  -0.3910684627E-05   0.5592855740E-02   0.0000000000E+00   0.2842937472E-03   0.5443826595E+01   0.1977981521E-01  -0.1214910792E-01  -0.7503210494E-01   0.1106827951E-01   0.7968375387E-02   0.0000000000E+00
   0.1005317514E+01   0.9981691138E+00   0.2273669587E-03   0.4424545499E-04  -0.2417282392E-04  -0.7848495450E-05   0.5273268547E-02  -0.1806713327E-02   0.2352154541E-03   0.5439833642E+01   0.1579177021E-01  -0.4168110264E-02  -0.7515924527E-01   0.8466921846E-02   0.7784099209E-02   0.0000000000E+00
   0.0000000000E+00   0.9982878221E+00   0.1719496771E-03   0.0000000000E+00  -0.3190472758E-04   0.7059360534E-05   0.0000000000E+00  -0.1680273148E-02   0.1648903165E-03   0.5344108976E+01   0.2190337378E-01   0.8358082833E-01  -0.5168107013E-01   0.1319622371E-01   0.5233482241E-02   0.0000000000E+00
   0.0000000000E+00   0.0000000000E+00   0.9984262340E+00   0.0000000000E+00   0.0000000000E+00  -0.3021211734E-04   0.0000000000E+00   0.0000000000E+00  -0.1543553884E-02   0.5374416629E+01  -0.9864113461E-02   0.8504066278E-01  -0.3342775331E-01  -0.5766627434E-02   0.1538629927E-01   0.0000000000E+00
   0.1005471760E+01   0.0000000000E+00   0.9983705492E+00   0.5687887738E-04   0.0000000000E+00  -0.2410742742E-04   0.5414881465E-02   0.0000000000E+00  -0.1605343335E-02   0.5443949873E+01   0.1953707676E-01  -0.1202964767E-01  -0.6583385156E-01  -0.1312574425E-01   0.1395098647E-01   0.0000000000E+00
   0.1005202738E+01   0.9982063742E+00   0.9984685926E+00   0.5018624451E-04  -0.1985692431E-04  -0.1636832490E-04   0.5152551718E-02  -0.1773768877E-02  -0.1515039082E-02   0.5439955026E+01   0.1555006780E-01  -0.4047791589E-02  -0.6152064979E-01  -0.1687568229E-01   0.1376599397E-01   0.0000000000E+00
   0.0000000000E+00   0.9981147492E+00   0.9984854416E+00   0.0000000000E+00  -0.2857429628E-04  -0.2759272021E-04   0.0000000000E+00  -0.1856676524E-02  -0.1486965654E-02   0.5329799625E+01   0.1567550318E-01   0.1041180496E+00  -0.3178310629E-01  -0.9521455568E-02   0.2001297938E-02   0.0000000000E+00
   0.2011000000E+01   0.0000000000E+00   0.4251229997E-03   0.1000000000E-03   0.0000000000E+00  -0.5473622458E-05   0.1090000000E-01   0.0000000000E+00   0.4305966222E-03   0.5474588274E+01   0.5157485670E-01  -0.7284170331E-01  -0.3059387796E-01   0.3442700169E-01   0.6950555249E-02   0.0000000000E+00
   0.2011000000E+01   0.9982303363E+00   0.4790531003E-03   0.1000000000E-03  -0.1663083651E-04  -0.1748946119E-04   0.1090000000E-01  -0.1753032876E-02   0.4965425615E-03   0.5529739373E+01   0.3182482369E-01  -0.1082427698E+00  -0.2373206603E-01   0.3858709276E-01   0.1132789904E-01   0.0000000000E+00
   0.2011000000E+01   0.0000000000E+00   0.9985011368E+00   0.1000000000E-03   0.0000000000E+00  -0.1871840252E-04   0.1090000000E-01   0.0000000000E+00  -0.1480144780E-02   0.5498074346E+01   0.4420889971E-01  -0.8896181916E-01  -0.2809254990E-01   0.1912255969E-01  -0.8763531987E-03   0.0000000000E+00
   0.2011000000E+01   0.9982579202E+00   0.9984044845E+00   0.1000000000E-03  -0.2486558741E-04  -0.1813682790E-04   0.1090000000E-01  -0.1717214232E-02  -0.1577378720E-02   0.5550052828E+01   0.2604604593E-01  -0.1227774470E+00  -0.2111063786E-01   0.1062115452E-01   0.3499224315E-02   0.0000000000E+00
     1     2     3     4     5     6     7     8
     2     9    10     3     6    11    12     7
 VARIABLES = X,Y,Z,DU1,DU2,DU3,U1,U2,U3,S11,S22,S33,S12,S13,S23,Vf
 ZONE, T="0.1200D+01" F=FEPOINT, I=   12 J=    2 ET=BRICK
   0.0000000000E+00   0.0000000000E+00   0.0000000000E+00   0.0000000000E+00   0.0000000000E+00   0.0000000000E+00   0.0000000000E+00   0.0000000000E+00   0.0000000000E+00   0.5888902513E+01  -0.1087657992E+00  -0.3743569232E-01  -0.1903732834E-01   0.3063198122E-01   0.3151055353E-01   0.0000000000E+00
   0.1006109473E+01   0.0000000000E+00   0.2233173932E-03   0.4763664801E-04   0.0000000000E+00  -0.6852575219E-05   0.6061836121E-02   0.0000000000E+00   0.2301699684E-03   0.5923750475E+01  -0.3446481588E-01  -0.4701847279E-02  -0.4114928211E-01   0.1896310750E-01   0.3086482008E-02   0.0000000000E+00
   0.1005938472E+01   0.9979765933E+00   0.1394972522E-03   0.7426147910E-04  -0.1439779114E-04  -0.8607221169E-05   0.5864210540E-02  -0.2009008941E-02   0.1481044733E-03   0.5915051457E+01  -0.4316494177E-01   0.1269729643E-01  -0.3471559099E-01   0.5706065539E-02   0.3018303670E-02   0.0000000000E+00
   0.0000000000E+00   0.9979915061E+00   0.2453940766E-03   0.0000000000E+00  -0.2331153547E-04   0.3992337981E-05   0.0000000000E+00  -0.1985182341E-02   0.2414017387E-03   0.5863024010E+01  -0.8706137188E-01  -0.3326161677E-01  -0.1428336602E-01   0.7972774679E-02   0.2147022270E-01   0.0000000000E+00
   0.0000000000E+00   0.0000000000E+00   0.9981378660E+00   0.0000000000E+00   0.0000000000E+00  -0.2383978888E-04   0.0000000000E+00   0.0000000000E+00  -0.1838294185E-02   0.5884080550E+01  -0.1163940683E+00  -0.2498546046E-01  -0.1046277859E-01   0.2382053405E-01   0.2274655282E-01   0.0000000000E+00
   0.1006042886E+01   0.0000000000E+00   0.9981862964E+00   0.5703889280E-04   0.0000000000E+00  -0.1494865430E-04   0.5985847504E-02   0.0000000000E+00  -0.1798754951E-02   0.5923796777E+01  -0.3455552504E-01  -0.4657439974E-02  -0.3726935872E-01   0.1618137486E-01   0.1613690959E-01   0.0000000000E+00
   0.1005888519E+01   0.9980173080E+00   0.9983042670E+00   0.8038143804E-04  -0.1711197727E-04  -0.1790342130E-04   0.5808137079E-02  -0.1965579978E-02  -0.1677829583E-02   0.5915096665E+01  -0.4325529463E-01   0.1274244141E-01  -0.2860937388E-01   0.7613173901E-02   0.1606805950E-01   0.0000000000E+00
   0.0000000000E+00   0.9978525926E+00   0.9981653411E+00   0.0000000000E+00  -0.2056093719E-04  -0.3156980965E-04   0.0000000000E+00  -0.2126846507E-02  -0.1803089063E-02   0.5859302407E+01  -0.9524036948E-01  -0.2136101635E-01   0.2038423180E-02   0.1828427497E-01   0.1270618351E-01   0.0000000000E+00
   0.2012000000E+01   0.0000000000E+00   0.2954933414E-03   0.1000000000E-03   0.0000000000E+00  -0.1579752835E-04   0.1190000000E-01   0.0000000000E+00   0.3112908697E-03   0.5950989518E+01   0.3894291717E-01   0.3653416740E-01  -0.1567837790E-01   0.2457012920E-01  -0.1922786834E-01   0.0000000000E+00
   0.2012000000E+01   0.9980639320E+00   0.2128410790E-03   0.1000000000E-03  -0.1791858275E-04  -0.2764068505E-04   0.1190000000E-01  -0.1918149390E-02   0.2404817641E-03   0.5976050754E+01   0.1641931133E-01   0.3399653692E-01  -0.7564203219E-02   0.1906315469E-01  -0.2036405720E-01   0.0000000000E+00
   0.2012000000E+01   0.0000000000E+00   0.9983343344E+00   0.1000000000E-03   0.0000000000E+00  -0.1964498518E-04   0.1190000000E-01   0.0000000000E+00  -0.1646020633E-02   0.5963265606E+01   0.3166741772E-01   0.3153357826E-01  -0.1814587177E-01   0.2582069241E-01  -0.9234764074E-02   0.0000000000E+00
   0.2012000000E+01   0.9980249158E+00   0.9982901933E+00   0.1000000000E-03  -0.2163742954E-04  -0.1086927581E-04   0.1190000000E-01  -0.1953446740E-02  -0.1698937468E-02   0.5987224246E+01   0.9695258154E-02   0.2954709800E-01  -0.1332634569E-01   0.1256861924E-01  -0.1037208172E-01   0.0000000000E+00
     1     2     3     4     5     6     7     8
     2     9    10     3     6    11    12     7
 VARIABLES = X,Y,Z,DU1,DU2,DU3,U1,U2,U3,S11,S22,S33,S12,S13,S23,Vf
 ZONE, T="0.1300D+01" F=FEPOINT, I=   12 J=    2 ET=BRICK
   0.0000000000E+00   0.0000000000E+00   0.0000000000E+00   0.0000000000E+00   0.0000000000E+00   0.0000000000E+00   0.0000000000E+00   0.0000000000E+00   0.0000000000E+00   0.6539410323E+01  -0.7266470932E-03   0.3215146802E-01   0.1823464640E-01   0.2903304942E-01   0.2410949800E-01   0.0000000000E+00
   0.1006565651E+01   0.0000000000E+00   0.1676161395E-03   0.4170378113E-04   0.0000000000E+00  -0.4526828244E-05   0.6523947428E-02   0.0000000000E+00   0.1721429677E-03   0.6432983729E+01  -0.9779997237E-02   0.2593797209E-01   0.2432924141E-01   0.1300589194E-01  -0.5280190987E-02   0.0000000000E+00
   0.1006670655E+01   0.9978620582E+00   0.9826361782E-04   0.6484992598E-04  -0.1061517630E-04  -0.1436057251E-06   0.6605805113E-02  -0.2127326607E-02   0.9840722354E-04   0.6427660502E+01  -0.1510288324E-01   0.3658408520E-01   0.2829095972E-01  -0.5842565046E-03  -0.8072544700E-02   0.0000000000E+00
   0.0000000000E+00   0.9978368786E+00   0.2513096021E-03   0.0000000000E+00  -0.1116206429E-04  -0.8851178408E-06   0.0000000000E+00  -0.2151959340E-02   0.2521947199E-03   0.6566575018E+01   0.6072433458E-02  -0.1812307003E-02   0.2628751988E-01   0.6412117236E-02   0.1452015998E-01   0.0000000000E+00
   0.0000000000E+00   0.0000000000E+00   0.9979419971E+00   0.0000000000E+00   0.0000000000E+00  -0.1853215782E-04   0.0000000000E+00   0.0000000000E+00  -0.2039470738E-02   0.6544280116E+01  -0.1275218054E-01   0.3930720863E-01   0.2318731605E-01   0.3528759806E-01   0.3728955860E-02   0.0000000000E+00
   0.1006559744E+01   0.0000000000E+00   0.9980164647E+00   0.4492254291E-04   0.0000000000E+00  -0.2018347000E-04   0.6514821056E-02   0.0000000000E+00  -0.1963351802E-02   0.6434846555E+01  -0.1350463243E-01   0.2779978163E-01   0.2615095218E-01   0.2018881887E-01   0.2703908033E-02   0.0000000000E+00
   0.1006663989E+01   0.9978602701E+00   0.9980628988E+00   0.6751649347E-04  -0.1501412369E-04  -0.2941838734E-04   0.6596472951E-02  -0.2124715802E-02  -0.1907682776E-02   0.6429522680E+01  -0.1882746843E-01   0.3844649224E-01   0.3195163775E-01   0.1664772368E-01  -0.8940753319E-04   0.0000000000E+00
   0.0000000000E+00   0.9977243417E+00   0.9978782271E+00   0.0000000000E+00  -0.7827299682E-05  -0.2636058611E-04   0.0000000000E+00  -0.2267830975E-02  -0.2095412301E-02   0.6571432326E+01  -0.5947363956E-02   0.5350181814E-02   0.3620050496E-01   0.3098110352E-01  -0.5861899811E-02   0.0000000000E+00
   0.2013000000E+01   0.0000000000E+00   0.1557410228E-03   0.1000000000E-03   0.0000000000E+00  -0.1276188563E-04   0.1290000000E-01   0.0000000000E+00   0.1685029084E-03   0.6330784769E+01  -0.3098137454E-01   0.2764486940E-01   0.1005629270E-01  -0.7316806967E-03  -0.2283118804E-01   0.0000000000E+00
   0.2013000000E+01   0.9978608341E+00   0.3552837179E-04   0.1000000000E-03  -0.2103060156E-04  -0.8929986790E-05   0.1290000000E-01  -0.2118135302E-02   0.4445835858E-04   0.6303994668E+01  -0.3740435035E-01   0.6085794671E-01   0.9927693685E-02  -0.5273730015E-02  -0.2506750052E-01   0.0000000000E+00
   0.2013000000E+01   0.0000000000E+00   0.9980493214E+00   0.1000000000E-03   0.0000000000E+00  -0.3402906955E-04   0.1290000000E-01   0.0000000000E+00  -0.1916649514E-02   0.6333802373E+01  -0.3472776924E-01   0.2837366014E-01   0.8765018921E-02   0.7380061102E-02  -0.3013328903E-02   0.0000000000E+00
   0.2013000000E+01   0.9978384024E+00   0.9981067546E+00   0.1000000000E-03  -0.1543004479E-04  -0.2458558278E-04   0.1290000000E-01  -0.2146167566E-02  -0.1868659852E-02   0.6307023750E+01  -0.4115644507E-01   0.6158095887E-01   0.7354135735E-02   0.4623209355E-02  -0.5251010176E-02   0.0000000000E+00
     1     2     3     4     5     6     7     8
     2     9    10     3     6    11    12     7
 VARIABLES = X,Y,Z,DU1,DU2,DU3,U1,U2,U3,S11,S22,S33,S12,S13,S23,Vf
 ZONE, T="0.1400D+01" F=FEPOINT, I=   12 J=    2 ET=BRICK
   0.0000000000E+00   0.0000000000E+00   0.0000000000E+00   0.0000000000E+00   0.0000000000E+00   0.0000000000E+00   0.0000000000E+00   0.0000000000E+00   0.0000000000E+00   0.6950373896E+01   0.2632014095E-01  -0.1513337535E-01   0.2695245449E-01   0.1660996483E-01   0.1952628321E-01   0.0000000000E+00
   0.1006936776E+01   0.0000000000E+00   0.9959401323E-04   0.3621977015E-04   0.0000000000E+00  -0.9870805316E-05   0.6900556113E-02   0.0000000000E+00   0.1094648185E-03   0.6917125169E+01   0.7179041015E-02  -0.1937291778E-01   0.4788311672E-01  -0.1936237247E-02   0.1054501002E-02   0.0000000000E+00
   0.1007134668E+01   0.9977457654E+00   0.9974367004E-04   0.3310479001E-04  -0.1309358098E-04  -0.1837578470E-05   0.7101563013E-02  -0.2241141028E-02   0.1015812485E-03   0.6920773735E+01   0.1082821341E-01  -0.2667065703E-01   0.4579979602E-01  -0.8119396534E-02  -0.2023858134E-02   0.0000000000E+00
   0.0000000000E+00   0.9977484015E+00   0.2005846432E-03   0.0000000000E+00  -0.7292224842E-05  -0.1085264205E-04   0.0000000000E+00  -0.2244306248E-02   0.2114372853E-03   0.7000854893E+01   0.2683591383E-01  -0.6613014520E-01   0.2892092131E-01   0.4633024049E-03   0.1268652552E-01   0.0000000000E+00
   0.0000000000E+00   0.0000000000E+00   0.9977592015E+00   0.0000000000E+00   0.0000000000E+00  -0.1696642645E-04   0.0000000000E+00   0.0000000000E+00  -0.2223832088E-02   0.6955751078E+01   0.1679023140E-01  -0.1098064767E-01   0.2849447764E-01   0.1890702060E-01  -0.6229734594E-02   0.0000000000E+00
   0.1006942342E+01   0.0000000000E+00   0.9977893087E+00   0.3662532407E-04   0.0000000000E+00  -0.2362434878E-04   0.6905716786E-02   0.0000000000E+00  -0.2187066921E-02   0.6919178743E+01   0.3073118423E-02  -0.1732057000E-01   0.5000999777E-01   0.3104402125E-02  -0.4419760709E-02   0.0000000000E+00
   0.1007139477E+01   0.9977147810E+00   0.9977517901E+00   0.3352116615E-04  -0.1464701332E-04  -0.3022264422E-04   0.7105955582E-02  -0.2270571990E-02  -0.2217987219E-02   0.6922827062E+01   0.6722107184E-02  -0.2461787744E-01   0.5011716581E-01   0.5772117668E-02  -0.7499469135E-02   0.0000000000E+00
   0.0000000000E+00   0.9976880144E+00   0.9976786972E+00   0.0000000000E+00  -0.6778042664E-06  -0.1284422619E-04   0.0000000000E+00  -0.2311307819E-02  -0.2308458599E-02   0.7006189307E+01   0.1732704396E-01  -0.6195568937E-01   0.3203631893E-01   0.1419032221E-01  -0.1307195499E-01   0.0000000000E+00
   0.2014000000E+01   0.0000000000E+00   0.2296294454E-04   0.1000000000E-03   0.0000000000E+00  -0.1299785370E-04   0.1390000000E-01   0.0000000000E+00   0.3596079824E-04   0.6885630528E+01  -0.2642609217E-01  -0.1090251405E-01   0.1884757856E-01  -0.2170304291E-01   0.3809406735E-02   0.0000000000E+00
   0.2014000000E+01   0.9976698260E+00   0.9983835707E-05   0.1000000000E-03  -0.1782031377E-04   0.9687105091E-06   0.1390000000E-01  -0.2312353722E-02   0.9015125198E-05   0.6845886879E+01  -0.1620291590E-01   0.1861795890E-01   0.1271266240E-01  -0.1785892443E-01   0.5728127605E-02   0.0000000000E+00
   0.2014000000E+01   0.0000000000E+00   0.9977216587E+00   0.1000000000E-03   0.0000000000E+00  -0.2977456948E-04   0.1390000000E-01   0.0000000000E+00  -0.2248566773E-02   0.6883537322E+01  -0.2346158709E-01  -0.1177381329E-01   0.2162318522E-01  -0.1391841335E-01   0.1345761590E-01   0.0000000000E+00
   0.2014000000E+01   0.9977126447E+00   0.9978199135E+00   0.1000000000E-03  -0.1263084079E-04  -0.3132640672E-04   0.1390000000E-01  -0.2274724454E-02  -0.2148760140E-02   0.6843836260E+01  -0.1325984275E-01   0.1772550458E-01   0.1829567804E-01  -0.3802519836E-02   0.1537542048E-01   0.0000000000E+00
     1     2     3     4     5     6     7     8
     2     9    10     3     6    11    12     7
 VARIABLES = X,Y,Z,DU1,DU2,DU3,U1,U2,U3,S11,S22,S33,S12,S13,S23,Vf
 ZONE, T="0.1500D+01" F=FEPOINT, I=   12 J=    2 ET=BRICK
   0.0000000000E+00   0.0000000000E+00   0.0000000000E+00   0.0000000000E+00   0.0000000000E+00   0.0000000000E+00   0.0000000000E+00   0.0000000000E+00   0.0000000000E+00   0.7337827562E+01   0.5937783524E-01   0.1375946327E-01  -0.1625139045E-02  -0.6927954922E-02   0.7413767337E-02   0.0000000000E+00
   0.1007367644E+01   0.0000000000E+00  -0.2109717602E-04   0.5011501294E-04   0.0000000000E+00  -0.1222148261E-04   0.7317529133E-02   0.0000000000E+00  -0.8875693418E-05   0.7433281294E+01   0.3763711346E-01   0.5122336216E-02   0.9341160647E-02  -0.8683514902E-02   0.8793902739E-02   0.0000000000E+00
   0.1007428702E+01   0.9975766847E+00   0.4434272925E-04   0.3177861790E-04  -0.2044023884E-04  -0.7846539652E-05   0.7396923011E-02  -0.2402875025E-02   0.5218926890E-04   0.7441795066E+01   0.4614785021E-01  -0.1190217319E-01  -0.5733862441E-03  -0.6251255385E-02   0.6940001958E-02   0.0000000000E+00
   0.0000000000E+00   0.9976612024E+00   0.1335717041E-04   0.0000000000E+00  -0.1260320529E-04  -0.2261789482E-04   0.0000000000E+00  -0.2326194356E-02   0.3597506523E-04   0.7356110594E+01   0.5840338230E-01  -0.3549116033E-02  -0.1288003496E-01  -0.8000188334E-02   0.6285829406E-02   0.0000000000E+00
   0.0000000000E+00   0.0000000000E+00   0.9976027818E+00   0.0000000000E+00   0.0000000000E+00  -0.1659012864E-04   0.0000000000E+00   0.0000000000E+00  -0.2380628105E-02   0.7341417202E+01   0.5645470126E-01   0.1309295667E-01  -0.3495758805E-02  -0.1579348665E-01  -0.7534146928E-03   0.0000000000E+00
   0.1007390000E+01   0.0000000000E+00   0.9975464127E+00   0.5337556736E-04   0.0000000000E+00  -0.2517542084E-04   0.7336624462E-02   0.0000000000E+00  -0.2428411875E-02   0.7434518244E+01   0.3516423856E-01   0.6358260340E-02   0.9741563372E-02  -0.1443483035E-01  -0.3973704289E-02   0.0000000000E+00
   0.1007443871E+01   0.9975422426E+00   0.9974792943E+00   0.3383873021E-04  -0.2006313432E-04  -0.2503721116E-04   0.7410032721E-02  -0.2437694246E-02  -0.2495668478E-02   0.7443031801E+01   0.4367489533E-01  -0.1066595372E-01   0.7241220047E-03  -0.1262625003E-01  -0.5828219264E-02   0.0000000000E+00
   0.0000000000E+00   0.9976721463E+00   0.9976175920E+00   0.0000000000E+00  -0.5596411722E-05  -0.4389019289E-05   0.0000000000E+00  -0.2322257303E-02  -0.2378019003E-02   0.7359368642E+01   0.5564578224E-01  -0.4049564160E-02  -0.1637247791E-01  -0.2084337529E-01  -0.1881312563E-02   0.0000000000E+00
   0.2015000000E+01   0.0000000000E+00  -0.6123416840E-04   0.1000000000E-03   0.0000000000E+00  -0.4252096178E-05   0.1490000000E-01   0.0000000000E+00  -0.5698207222E-04   0.7522807374E+01   0.1531663065E-01   0.2992622566E-02   0.1053121952E-02  -0.1469353114E-01   0.2271924728E-01   0.0000000000E+00
   0.2015000000E+01   0.9974822594E+00   0.3807122754E-04   0.1000000000E-03  -0.1941165348E-04   0.2511438730E-05   0.1490000000E-01  -0.2498328975E-02   0.3555978881E-04   0.7517081446E+01   0.2884179829E-01  -0.4806617630E-02  -0.7521134747E-02  -0.8259948662E-02   0.2517868206E-01   0.0000000000E+00
   0.2015000000E+01   0.0000000000E+00   0.9974564984E+00   0.1000000000E-03   0.0000000000E+00  -0.2422389026E-04   0.1490000000E-01   0.0000000000E+00  -0.2519277723E-02   0.7518331651E+01   0.2001291825E-01   0.2772056848E-02   0.4220959040E-02  -0.1732973580E-01   0.1205706566E-01   0.0000000000E+00
   0.2015000000E+01   0.9975242486E+00   0.9974740099E+00   0.1000000000E-03  -0.2419154931E-04  -0.3610558314E-04   0.1490000000E-01  -0.2451559870E-02  -0.2489884556E-02   0.7512936788E+01   0.3337246806E-01  -0.5192630110E-02  -0.9368446765E-03  -0.8165796914E-02   0.1451589233E-01   0.0000000000E+00
     1     2     3     4     5     6     7     8
     2     9    10     3     6    11    12     7
 VARIABLES = X,Y,Z,DU1,DU2,DU3,U1,U2,U3,S11,S22,S33,S12,S13,S23,Vf
 ZONE, T="0.1600D+01" F=FEPOINT, I=   12 J=    2 ET=BRICK
   0.0000000000E+00   0.0000000000E+00   0.0000000000E+00   0.0000000000E+00   0.0000000000E+00   0.0000000000E+00   0.0000000000E+00   0.0000000000E+00   0.0000000000E+00   0.7855539361E+01   0.4484776635E-01   0.5201618695E-01  -0.2451158746E-01  -0.1864384352E-01  -0.8322033134E-02   0.0000000000E+00
   0.1007923815E+01   0.0000000000E+00  -0.1222549243E-03   0.5787637867E-04   0.0000000000E+00  -0.8340461019E-05   0.7865939026E-02   0.0000000000E+00  -0.1139144633E-03   0.7916163473E+01  -0.9945372859E-02   0.7348849980E-03  -0.2860517697E-01   0.8460854445E-03   0.6032558478E-02   0.0000000000E+00
   0.1007847613E+01   0.9973531327E+00  -0.4804783785E-04   0.5084802666E-04  -0.2199580687E-04  -0.1017176441E-04   0.7796765141E-02  -0.2624871542E-02  -0.3787607344E-04   0.7921450089E+01  -0.4657768048E-02  -0.9839336688E-02  -0.3848413211E-01   0.6105303044E-02   0.4525807678E-02   0.0000000000E+00
   0.0000000000E+00   0.9974347585E+00  -0.1695471882E-03   0.0000000000E+00  -0.3084228253E-04  -0.1204633402E-04   0.0000000000E+00  -0.2534399224E-02  -0.1575008542E-03   0.7831407554E+01   0.3944528301E-01   0.8155047741E-01  -0.3965982712E-01  -0.6104216972E-02  -0.4091103414E-02   0.0000000000E+00
   0.0000000000E+00   0.0000000000E+00   0.9973707057E+00   0.0000000000E+00   0.0000000000E+00  -0.2926985904E-04   0.0000000000E+00   0.0000000000E+00  -0.2600024430E-02   0.7862414081E+01   0.4563998525E-01   0.4434924816E-01  -0.2905584761E-01  -0.3096737206E-01   0.9147088199E-02   0.0000000000E+00
   0.1007993535E+01   0.0000000000E+00   0.9972904301E+00   0.6297697088E-04   0.0000000000E+00  -0.2519532320E-04   0.7930557679E-02   0.0000000000E+00  -0.2684374531E-02   0.7917169449E+01  -0.1195624215E-01   0.1739777482E-02  -0.3208724043E-01  -0.1009903356E-01  -0.1898763975E-02   0.0000000000E+00
   0.1007898177E+01   0.9973279331E+00   0.9972553283E+00   0.5522195782E-04  -0.2065553588E-04  -0.2008666618E-04   0.7842954877E-02  -0.2651411348E-02  -0.2724585065E-02   0.7922455471E+01  -0.6668801137E-02  -0.8833685494E-02  -0.4392084967E-01  -0.1420179217E-01  -0.3406019042E-02   0.0000000000E+00
   0.0000000000E+00   0.9975027693E+00   0.9974861077E+00   0.0000000000E+00  -0.2660573726E-04  -0.2306409501E-04   0.0000000000E+00  -0.2470624930E-02  -0.2490828253E-02   0.7837262675E+01   0.4074665972E-01   0.7439397933E-01  -0.4798487155E-01  -0.3446321005E-01   0.1337768084E-01   0.0000000000E+00
   0.2016000000E+01   0.0000000000E+00  -0.1081497338E-03   0.1000000000E-03   0.0000000000E+00  -0.7885738555E-05   0.1590000000E-01   0.0000000000E+00  -0.1002639953E-03   0.7967934617E+01  -0.5252367351E-01  -0.5390828777E-01  -0.1397125409E-01   0.5796660931E-02   0.1100799646E-01   0.0000000000E+00
   0.2016000000E+01   0.9973296655E+00  -0.1445902506E-04   0.1000000000E-03  -0.9800410425E-05  -0.1378769512E-04   0.1590000000E-01  -0.2660534107E-02  -0.6713299393E-06   0.7993741186E+01  -0.4544465789E-01  -0.8679387291E-01  -0.1858015514E-01   0.5303149307E-02   0.7417935919E-02   0.0000000000E+00
   0.2016000000E+01   0.0000000000E+00   0.9972586245E+00   0.1000000000E-03   0.0000000000E+00  -0.1585154919E-04   0.1590000000E-01   0.0000000000E+00  -0.2725523917E-02   0.7960635410E+01  -0.5246555598E-01  -0.4666719852E-01  -0.1486332424E-01  -0.3769339993E-02  -0.8974404202E-02   0.0000000000E+00
   0.2016000000E+01   0.9972912864E+00   0.9971709943E+00   0.1000000000E-03  -0.1858034144E-04  -0.2264746795E-04   0.1590000000E-01  -0.2690133217E-02  -0.2806358275E-02   0.7987460491E+01  -0.4589586389E-01  -0.8006197269E-01  -0.1960017605E-01  -0.6949617048E-02  -0.1256568144E-01   0.0000000000E+00
     1     2     3     4     5     6     7     8
     2     9    10     3     6    11    12     7
 VARIABLES = X,Y,Z,DU1,DU2,DU3,U1,U2,U3,S11,S22,S33,S12,S13,S23,Vf
 ZONE, T="0.1700D+01" F=FEPOINT, I=   12 J=    2 ET=BRICK
   0.0000000000E+00   0.0000000000E+00   0.0000000000E+00   0.0000000000E+00   0.0000000000E+00   0.0000000000E+00   0.0000000000E+00   0.0000000000E+00   0.0000000000E+00   0.8411239383E+01  -0.5188166324E-01  -0.2098126188E-01  -0.5725986027E-02  -0.1771820970E-01  -0.1582394016E-01   0.0000000000E+00
   0.1008503625E+01   0.0000000000E+00  -0.1860378728E-03   0.5800723693E-04   0.0000000000E+00  -0.4737557202E-05   0.8445617321E-02   0.0000000000E+00  -0.1813003156E-03   0.8410010839E+01  -0.3156668782E-01   0.8551773984E-02  -0.1168904787E-01   0.4330052724E-02  -0.4988222526E-03   0.0000000000E+00
   0.1008444124E+01   0.9971722397E+00  -0.1508087766E-03   0.6479999976E-04  -0.1456211474E-04  -0.9649296670E-05   0.8379323812E-02  -0.2813198216E-02  -0.1411594799E-03   0.8408307172E+01  -0.3327206979E-01   0.1196082317E-01  -0.5771771635E-02   0.8909893181E-02  -0.1346428555E-02   0.0000000000E+00
   0.0000000000E+00   0.9970987677E+00  -0.2137643258E-03   0.0000000000E+00  -0.3146351449E-04  -0.1373931193E-06   0.0000000000E+00  -0.2869768789E-02  -0.2136269326E-03   0.8382193314E+01  -0.6332214568E-01   0.1950528943E-01  -0.2648653536E-02  -0.9663837627E-03  -0.8963951087E-02   0.0000000000E+00
   0.0000000000E+00   0.0000000000E+00   0.9970510430E+00   0.0000000000E+00   0.0000000000E+00  -0.3087470029E-04   0.0000000000E+00   0.0000000000E+00  -0.2918082262E-02   0.8422194939E+01  -0.5050020947E-01  -0.3331827237E-01  -0.1032104602E-01  -0.1062699513E-01   0.1014078865E-01   0.0000000000E+00
   0.1008602077E+01   0.0000000000E+00   0.9970494729E+00   0.5820064632E-04   0.0000000000E+00  -0.2356105453E-04   0.8543875942E-02   0.0000000000E+00  -0.2926966029E-02   0.8410576711E+01  -0.3269701408E-01   0.9116227742E-02  -0.1649522062E-01   0.1084491364E-01   0.2058553812E-02   0.0000000000E+00
   0.1008530953E+01   0.9971646849E+00   0.9970692349E+00   0.6703343927E-04  -0.1254146296E-04  -0.1864107890E-04   0.8463919892E-02  -0.2822773664E-02  -0.2912124034E-02   0.8408873239E+01  -0.3440320671E-01   0.1252589225E-01  -0.1425229531E-01   0.6590625987E-02   0.1210138101E-02   0.0000000000E+00
   0.0000000000E+00   0.9971854232E+00   0.9971523007E+00   0.0000000000E+00  -0.3145519706E-04  -0.3856768958E-04   0.0000000000E+00  -0.2783121577E-02  -0.2809131578E-02   0.8392394235E+01  -0.6156426344E-01   0.7546485604E-02  -0.1127359998E-01  -0.8446970332E-02   0.1699835603E-01   0.0000000000E+00
   0.2017000000E+01   0.0000000000E+00  -0.2242738563E-03   0.1000000000E-03   0.0000000000E+00  -0.1196435044E-04   0.1690000000E-01   0.0000000000E+00  -0.2123095059E-03   0.8405775874E+01  -0.2908951480E-02   0.3274847033E-01  -0.4569690383E-04   0.3089993237E-02  -0.7673772284E-02   0.0000000000E+00
   0.2017000000E+01   0.9972782685E+00  -0.2149605019E-03   0.1000000000E-03  -0.4648116557E-05  -0.2056091985E-04   0.1690000000E-01  -0.2717083384E-02  -0.1943995820E-03   0.8423765977E+01  -0.2527818090E-02   0.1437723430E-01   0.8711500390E-02  -0.3369244459E-02  -0.1551618464E-01   0.0000000000E+00
   0.2017000000E+01   0.0000000000E+00   0.9970929296E+00   0.1000000000E-03   0.0000000000E+00  -0.2096804905E-04   0.1690000000E-01   0.0000000000E+00  -0.2886102370E-02   0.8395477856E+01  -0.5602798876E-02   0.4574033559E-01  -0.3930887402E-02   0.9028900332E-02  -0.1705004361E-01   0.0000000000E+00
   0.2017000000E+01   0.9971884346E+00   0.9970197802E+00   0.1000000000E-03  -0.5660070899E-05  -0.1274789555E-04   0.1690000000E-01  -0.2805905363E-02  -0.2967471931E-02   0.8414223198E+01  -0.5599466715E-02   0.2699166126E-01   0.1507479289E-02  -0.5269982049E-03  -0.2489296493E-01   0.0000000000E+00
     1     2     3     4     5     6     7     8
     2     9    10     3     6    11    12     7
 VARIABLES = X,Y,Z,DU1,DU2,DU3,U1,U2,U3,S11,S22,S33,S12,S13,S23,Vf
 ZONE, T="0.1800D+01" F=FEPOINT, I=   12 J=    2 ET=BRICK
   0.0000000000E+00   0.0000000000E+00   0.0000000000E+00   0.0000000000E+00   0.0000000000E+00   0.0000000000E+00   0.0000000000E+00   0.0000000000E+00   0.0000000000E+00   0.8993794500E+01  -0.5493623445E-01  -0.6465089739E-01   0.1900351417E-01  -0.2488711979E-01  -0.2800086164E-01   0.0000000000E+00
   0.1009069318E+01   0.0000000000E+00  -0.2226495830E-03   0.5370988779E-04   0.0000000000E+00  -0.3723206652E-05   0.9015607984E-02   0.0000000000E+00  -0.2189263763E-03   0.8907088037E+01  -0.6325537175E-02  -0.8038247012E-02   0.1645339051E-01  -0.9688482612E-02  -0.6181790227E-02   0.0000000000E+00
   0.1009074619E+01   0.9970539196E+00  -0.2326681544E-03   0.5780824362E-04  -0.1071569922E-04  -0.7360289488E-05   0.9016810545E-02  -0.2935364711E-02  -0.2253078649E-03   0.8900251343E+01  -0.1316290231E-01   0.5635811550E-02   0.3159664060E-01  -0.5791746239E-03  -0.4855881552E-02   0.0000000000E+00
   0.0000000000E+00   0.9968823132E+00  -0.2150106124E-03   0.0000000000E+00  -0.1320439848E-04  -0.1439518499E-05   0.0000000000E+00  -0.3104482395E-02  -0.2135710939E-03   0.8981767169E+01  -0.6827335590E-01  -0.3928644567E-01   0.3735324050E-01  -0.4849008620E-02  -0.2085879359E-01   0.0000000000E+00
   0.0000000000E+00   0.0000000000E+00   0.9968134292E+00   0.0000000000E+00   0.0000000000E+00  -0.1743625855E-04   0.0000000000E+00   0.0000000000E+00  -0.3169134515E-02   0.9001788190E+01  -0.5179027597E-01  -0.7579054617E-01   0.1660500849E-01  -0.2834879885E-02  -0.8648383495E-02   0.0000000000E+00
   0.1009137518E+01   0.0000000000E+00   0.9968166018E+00   0.4897669583E-04   0.0000000000E+00  -0.2261453474E-04   0.9088540956E-02   0.0000000000E+00  -0.3160783702E-02   0.8906204144E+01  -0.4556388683E-02  -0.8923502530E-02   0.1455601031E-01   0.5755151446E-02   0.4074347314E-02   0.0000000000E+00
   0.1009157343E+01   0.9970663594E+00   0.9968604638E+00   0.5538854053E-04  -0.8860048950E-05  -0.2274774328E-04   0.9101954779E-02  -0.2924780565E-02  -0.3116788471E-02   0.8899367185E+01  -0.1139417213E-01   0.4751239590E-02   0.2679073677E-01   0.1227923779E-01   0.5399843234E-02   0.0000000000E+00
   0.0000000000E+00   0.9969620562E+00   0.9967916581E+00   0.0000000000E+00  -0.1338209134E-04  -0.3138727563E-04   0.0000000000E+00  -0.3024561685E-02  -0.3176954672E-02   0.8990434336E+01  -0.6546513482E-01  -0.5076183349E-01   0.3204968532E-01   0.1069057882E-01  -0.1507455075E-02   0.0000000000E+00
   0.2018000000E+01   0.0000000000E+00  -0.2943087651E-03   0.1000000000E-03   0.0000000000E+00  -0.2871270937E-05   0.1790000000E-01   0.0000000000E+00  -0.2914374941E-03   0.8833480732E+01   0.4254668202E-01   0.3521372333E-01   0.1259295162E-01  -0.1361907612E-01  -0.7238953191E-02   0.0000000000E+00
   0.2018000000E+01   0.9971650180E+00  -0.3404202406E-03   0.1000000000E-03  -0.1779590446E-04  -0.5412970589E-05   0.1790000000E-01  -0.2817186080E-02  -0.3350072700E-03   0.8826601012E+01   0.3697572097E-01   0.4766440475E-01   0.2453032544E-01  -0.1644753893E-01  -0.1173502516E-01   0.0000000000E+00
   0.2018000000E+01   0.0000000000E+00   0.9967903061E+00   0.1000000000E-03   0.0000000000E+00  -0.3600187365E-04   0.1790000000E-01   0.0000000000E+00  -0.3173692064E-02   0.8823724300E+01   0.4292894518E-01   0.4458789185E-01   0.1018602364E-01  -0.4782955612E-02   0.1771676284E-02   0.0000000000E+00
   0.2018000000E+01   0.9971124920E+00   0.9968425172E+00   0.1000000000E-03  -0.1137157043E-04  -0.2257846716E-04   0.1790000000E-01  -0.2876136383E-02  -0.3134904292E-02   0.8816170643E+01   0.3769490892E-01   0.5737558531E-01   0.1921124582E-01  -0.6270431134E-02  -0.2724521917E-02   0.0000000000E+00
     1     2     3     4     5     6     7     8
     2     9    10     3     6    11    12     7
 VARIABLES = X,Y,Z,DU1,DU2,DU3,U1,U2,U3,S11,S22,S33,S12,S13,S23,Vf
 ZONE, T="0.1900D+01" F=FEPOINT, I=   12 J=    2 ET=BRICK
   0.0000000000E+00   0.0000000000E+00   0.0000000000E+00   0.0000000000E+00   0.0000000000E+00   0.0000000000E+00   0.0000000000E+00   0.0000000000E+00   0.0000000000E+00   0.9482265143E+01   0.1714235488E-01  -0.4577241902E-01   0.1548667036E-01  -0.4703246520E-01  -0.4316182194E-01   0.0000000000E+00
   0.1009531965E+01   0.0000000000E+00  -0.2795651280E-03   0.3994450076E-04   0.0000000000E+00  -0.7314008327E-05   0.9492020698E-02   0.0000000000E+00  -0.2722511197E-03   0.9405576528E+01   0.2620118578E-01  -0.1920082724E-01   0.1056853911E-01  -0.2761713015E-01  -0.1065014654E-01   0.0000000000E+00
   0.1009537672E+01   0.9969292456E+00  -0.3061290658E-03   0.3764302539E-04  -0.1512884243E-04  -0.7204099251E-05   0.9500029051E-02  -0.3055625594E-02  -0.2989249665E-03   0.9398994800E+01   0.1961699970E-01  -0.6034913803E-02   0.1772640914E-01  -0.1243410314E-01  -0.6189549463E-02   0.0000000000E+00
   0.0000000000E+00   0.9968019898E+00  -0.2513421559E-03   0.0000000000E+00  -0.6934944129E-05  -0.5234283157E-05   0.0000000000E+00  -0.3191075233E-02  -0.2461078728E-03   0.9476396902E+01   0.7861472033E-02  -0.3062329558E-01   0.2927148056E-01  -0.2217918807E-01  -0.3330461068E-01   0.0000000000E+00
   0.0000000000E+00   0.0000000000E+00   0.9966834806E+00   0.0000000000E+00   0.0000000000E+00  -0.1140622501E-04   0.0000000000E+00   0.0000000000E+00  -0.3305113140E-02   0.9482742868E+01   0.2676224762E-01  -0.5587003783E-01   0.1295893645E-01  -0.2426633266E-01  -0.3094519890E-01   0.0000000000E+00
   0.1009568386E+01   0.0000000000E+00   0.9966127252E+00   0.3953725168E-04   0.0000000000E+00  -0.1843982231E-04   0.9528848294E-02   0.0000000000E+00  -0.3368835013E-02   0.9402604146E+01   0.3214861582E-01  -0.2217587642E-01   0.9838066915E-02  -0.2068125516E-01  -0.7747094581E-03   0.0000000000E+00
   0.1009588956E+01   0.9969574915E+00   0.9966227445E+00   0.3490721562E-04  -0.1372306953E-04  -0.2413302217E-04   0.9554048591E-02  -0.3028785403E-02  -0.3353122472E-02   0.9396021900E+01   0.2556427428E-01  -0.9009288712E-02   0.1484198509E-01  -0.4394928690E-02   0.3685318577E-02   0.0000000000E+00
   0.0000000000E+00   0.9969125965E+00   0.9965557824E+00   0.0000000000E+00  -0.5149073954E-06  -0.1756537488E-04   0.0000000000E+00  -0.3086888602E-02  -0.3426652256E-02   0.9477821971E+01   0.1700657834E-01  -0.4119347179E-01   0.2350276880E-01  -0.2859615752E-02  -0.2108855492E-01   0.0000000000E+00
   0.2019000000E+01   0.0000000000E+00  -0.3077298320E-03   0.1000000000E-03   0.0000000000E+00  -0.1316101982E-05   0.1890000000E-01   0.0000000000E+00  -0.3064137300E-03   0.9358844800E+01   0.3869518311E-01  -0.2602128911E-01   0.2238369011E-02  -0.1877217813E-01   0.3271624930E-02   0.0000000000E+00
   0.2019000000E+01   0.9969305303E+00  -0.3505522499E-03   0.1000000000E-03  -0.2656926046E-04   0.5878105697E-06   0.1890000000E-01  -0.3042900439E-02  -0.3511400604E-03   0.9345485210E+01   0.2874407525E-01  -0.2710592056E-02   0.2770227008E-02  -0.1467972275E-01   0.4510472959E-02   0.0000000000E+00
   0.2019000000E+01   0.0000000000E+00   0.9964523578E+00   0.1000000000E-03   0.0000000000E+00  -0.2888248040E-04   0.1890000000E-01   0.0000000000E+00  -0.3518759730E-02   0.9350972922E+01   0.4386854137E-01  -0.2332277040E-01   0.1882921211E-02  -0.2766530642E-01   0.1990235126E-01   0.0000000000E+00
   0.2019000000E+01   0.9969357092E+00   0.9965871819E+00   0.1000000000E-03  -0.2275431744E-04  -0.2658557768E-04   0.1890000000E-01  -0.3041536447E-02  -0.3386232491E-02   0.9336665069E+01   0.3439181753E-01   0.4618067491E-03   0.1347488270E-02  -0.1792028533E-01   0.2114029187E-01   0.0000000000E+00
     1     2     3     4     5     6     7     8
     2     9    10     3     6    11    12     7
 VARIABLES = X,Y,Z,DU1,DU2,DU3,U1,U2,U3,S11,S22,S33,S12,S13,S23,Vf
 ZONE, T="0.2000D+01" F=FEPOINT, I=   12 J=    2 ET=BRICK
   0.0000000000E+00   0.0000000000E+00   0.0000000000E+00   0.0000000000E+00   0.0000000000E+00   0.0000000000E+00   0.0000000000E+00   0.0000000000E+00   0.0000000000E+00   0.9853407810E+01   0.2824274028E-01  -0.3643450749E-01  -0.2268748568E-02  -0.6442289136E-01  -0.4821096589E-01   0.0000000000E+00
   0.1009899761E+01   0.0000000000E+00  -0.3539238218E-03   0.3702528630E-04   0.0000000000E+00  -0.6601837860E-05   0.9862735877E-02   0.0000000000E+00  -0.3473219839E-03   0.9900320590E+01   0.1357265595E-01  -0.1605208586E-02  -0.9127042169E-02  -0.2730796061E-01  -0.1313213143E-01   0.0000000000E+00
   0.1009895561E+01   0.9967335057E+00  -0.3607071728E-03   0.3877505783E-04  -0.2263860344E-04  -0.3420344969E-05   0.9856786005E-02  -0.3243855678E-02  -0.3572868278E-03   0.9898421400E+01   0.1167103857E-01   0.2195598250E-02  -0.1447519072E-01  -0.1278367566E-01  -0.5329208216E-02   0.0000000000E+00
   0.0000000000E+00   0.9966914520E+00  -0.3243027087E-03   0.0000000000E+00  -0.1534470924E-04  -0.9065023418E-05   0.0000000000E+00  -0.3293203289E-02  -0.3152376853E-03   0.9841579551E+01   0.2019125597E-01  -0.1655476433E-01  -0.2642336997E-02  -0.3678525221E-01  -0.2986470641E-01   0.0000000000E+00
   0.0000000000E+00   0.0000000000E+00   0.9965562156E+00   0.0000000000E+00   0.0000000000E+00  -0.1430593112E-04   0.0000000000E+00   0.0000000000E+00  -0.3429478459E-02   0.9852054251E+01   0.4726722816E-01  -0.5410543688E-01  -0.9995379760E-02  -0.4438576463E-01  -0.3424252659E-01   0.0000000000E+00
   0.1009983385E+01   0.0000000000E+00   0.9964426156E+00   0.4567498563E-04   0.0000000000E+00  -0.1628631634E-04   0.9937709866E-02   0.0000000000E+00  -0.3541098100E-02   0.9895121418E+01   0.2397532422E-01  -0.6808705537E-02  -0.1538944392E-01  -0.2831445106E-01  -0.1027990856E-01   0.0000000000E+00
   0.1009945062E+01   0.9967763743E+00   0.9963842231E+00   0.4112811569E-04  -0.2101391181E-04  -0.2322204441E-04   0.9903934358E-02  -0.3202611820E-02  -0.3592554820E-02   0.9893221304E+01   0.2207369012E-01  -0.3006957183E-02  -0.2469898438E-01  -0.1531338079E-01  -0.2477458619E-02   0.0000000000E+00
   0.0000000000E+00   0.9969015049E+00   0.9964337879E+00   0.0000000000E+00  -0.3534600495E-05  -0.8894185231E-05   0.0000000000E+00  -0.3094960493E-02  -0.3557317926E-02   0.9838689594E+01   0.3998256926E-01  -0.3345612129E-01  -0.1694771565E-01  -0.2634231894E-01  -0.1589784365E-01   0.0000000000E+00
   0.2020000000E+01   0.0000000000E+00  -0.3254500827E-03   0.1000000000E-03   0.0000000000E+00  -0.2220307023E-05   0.1990000000E-01   0.0000000000E+00  -0.3232297757E-03   0.9981937691E+01   0.1369771079E-01  -0.1627537017E-01  -0.1221007110E-01  -0.6502036113E-02   0.3256447462E-02   0.0000000000E+00
   0.2020000000E+01   0.9966584639E+00  -0.3467719980E-03   0.1000000000E-03  -0.2626926164E-04  -0.2324686525E-06   0.1990000000E-01  -0.3315266791E-02  -0.3465395294E-03   0.9979207402E+01   0.7187449255E-02  -0.7034819345E-02  -0.2253210967E-01  -0.2786401563E-02   0.5752239561E-02   0.0000000000E+00
   0.2020000000E+01   0.0000000000E+00   0.9962395286E+00   0.1000000000E-03   0.0000000000E+00  -0.1595250314E-04   0.1990000000E-01   0.0000000000E+00  -0.3744518888E-02   0.9969403457E+01   0.2245864816E-01  -0.1250207338E-01  -0.1470543205E-01  -0.2855206173E-01   0.1113173687E-01   0.0000000000E+00
   0.2020000000E+01   0.9966651764E+00   0.9963204969E+00   0.1000000000E-03  -0.2870851339E-04  -0.2637174970E-04   0.1990000000E-01  -0.3306115130E-02  -0.3653131371E-02   0.9968208115E+01   0.1518140128E-01  -0.4029484688E-02  -0.2637203108E-01  -0.1828900210E-01   0.1362734012E-01   0.0000000000E+00
     1     2     3     4     5     6     7     8
     2     9    10     3     6    11    12     7
