 VARIABLES = X,Y,Z,DU1,DU2,DU3,U1,U2,U3,S11,S22,S33,S12,S13,S23,Vf
 ZONE, T="0.1000D+00" F=FEPOINT, I=   12 J=    2 ET=BRICK
   0.0000000000E+00   0.0000000000E+00   0.0000000000E+00   0.0000000000E+00   0.0000000000E+00   0.0000000000E+00   0.0000000000E+00   0.0000000000E+00   0.0000000000E+00   0.1599092102E+00   0.1406968438E-01  -0.2216366542E-03  -0.8672830232E-02   0.8672357174E-02  -0.6791129026E-05   0.0000000000E+00
   0.1000215362E+01   0.0000000000E+00   0.8649445366E-04   0.4951905379E-04   0.0000000000E+00   0.1728624275E-04   0.1658428230E-03   0.0000000000E+00   0.6920821091E-04   0.5105389229E+00   0.1156644154E+00   0.6821665356E-01  -0.8280264574E-02   0.8676220848E-02  -0.1168740831E-05   0.0000000000E+00
   0.1000220346E+01   0.9999038516E+00   0.8649657940E-04   0.5136443724E-04  -0.2082637078E-04   0.1728681646E-04   0.1689812588E-03  -0.7532201414E-04   0.6920976294E-04   0.5105383374E+00   0.1156641512E+00   0.6821750323E-01  -0.1734665646E-01   0.8678227342E-02  -0.1018439043E-05   0.0000000000E+00
   0.0000000000E+00   0.9999949764E+00   0.2489551328E-06   0.0000000000E+00  -0.2046060529E-05   0.3009749300E-06   0.0000000000E+00  -0.2977493690E-05  -0.5201979715E-07   0.1604294210E+00   0.1380411436E-01  -0.4762774114E-03  -0.1773882991E-01   0.8676098826E-02  -0.6339394360E-05   0.0000000000E+00
   0.0000000000E+00   0.0000000000E+00   0.9999997247E+00   0.0000000000E+00   0.0000000000E+00  -0.3142993161E-06   0.0000000000E+00   0.0000000000E+00   0.3897248544E-07   0.1599092538E+00   0.1407020100E-01  -0.2221968731E-03  -0.8673071223E-02  -0.8681144085E-02  -0.1003397655E-05   0.0000000000E+00
   0.1000215366E+01   0.0000000000E+00   0.9999135077E+00   0.4952019150E-04   0.0000000000E+00  -0.1728559906E-04   0.1658457118E-03   0.0000000000E+00  -0.6920670258E-04   0.5105387648E+00   0.1156647315E+00   0.6821649558E-01  -0.8280504498E-02  -0.8680077434E-02  -0.2748409395E-06   0.0000000000E+00
   0.1000220348E+01   0.9999038535E+00   0.9999135074E+00   0.5136502099E-04  -0.2082584540E-04  -0.1728568751E-04   0.1689827159E-03  -0.7532060707E-04  -0.6920688184E-04   0.5105381794E+00   0.1156644672E+00   0.6821734520E-01  -0.1734701672E-01  -0.8680062852E-02   0.4906521407E-07   0.0000000000E+00
   0.0000000000E+00   0.9999949844E+00   0.9999997551E+00   0.0000000000E+00  -0.2043825961E-05  -0.2998365340E-06   0.0000000000E+00  -0.2971750987E-05   0.5490888971E-07   0.1604293850E+00   0.1380467085E-01  -0.4767978880E-03  -0.1773925198E-01  -0.8680311342E-02  -0.3780332592E-06   0.0000000000E+00
   0.2001000000E+01   0.0000000000E+00   0.1727109149E-03   0.1000000000E-03   0.0000000000E+00   0.3425710106E-04   0.9000000000E-03   0.0000000000E+00   0.1384538138E-03   0.8611728000E+00   0.2172616594E+00   0.1366482663E+00  -0.8673826592E-02   0.8679480677E-02   0.1231368365E-05   0.0000000000E+00
   0.2001000000E+01   0.9998127235E+00   0.1727382059E-03   0.1000000000E-03  -0.3960760312E-04   0.3427069488E-04   0.9000000000E-03  -0.1476688662E-03   0.1384675110E-03   0.8606501867E+00   0.2175254692E+00   0.1369070698E+00  -0.1774061067E-01   0.8679871330E-02   0.1201739636E-05   0.0000000000E+00
   0.2001000000E+01   0.0000000000E+00   0.9998272891E+00   0.1000000000E-03   0.0000000000E+00  -0.3425709232E-04   0.9000000000E-03   0.0000000000E+00  -0.1384538063E-03   0.8611723592E+00   0.2172619369E+00   0.1366484296E+00  -0.8673945945E-02  -0.8679614881E-02  -0.9486673989E-06   0.0000000000E+00
   0.2001000000E+01   0.9998127235E+00   0.9998272618E+00   0.1000000000E-03  -0.3960762573E-04  -0.3427070286E-04   0.9000000000E-03  -0.1476688857E-03  -0.1384675182E-03   0.8606498256E+00   0.2175257069E+00   0.1369071932E+00  -0.1774078962E-01  -0.8680298948E-02  -0.8047191989E-06   0.0000000000E+00
     1     2     3     4     5     6     7     8
     2     9    10     3     6    11    12     7
 VARIABLES = X,Y,Z,DU1,DU2,DU3,U1,U2,U3,S11,S22,S33,S12,S13,S23,Vf
 ZONE, T="0.2000D+00" F=FEPOINT, I=   12 J=    2 ET=BRICK
   0.0000000000E+00   0.0000000000E+00   0.0000000000E+00   0.0000000000E+00   0.0000000000E+00   0.0000000000E+00   0.0000000000E+00   0.0000000000E+00   0.0000000000E+00   0.8985188559E+00   0.1397017476E+00   0.1358325263E+00  -0.1778355784E-01   0.2702951756E-01   0.8514260896E-02   0.3725468367E-07
   0.1000882081E+01   0.0000000000E+00   0.2013985569E-03   0.6625674298E-04   0.0000000000E+00   0.2826329359E-05   0.8158245966E-03   0.0000000000E+00   0.1985722275E-03   0.8488066074E+00  -0.3531731970E-01  -0.9119868059E-01  -0.9638518558E-02   0.2174737571E-01   0.2048009284E-02   0.1415261732E-04
   0.1000952608E+01   0.9996700642E+00   0.2004651878E-03   0.7658747318E-04  -0.2110452504E-04   0.2491010014E-05   0.8760203513E-03  -0.3088312492E-03   0.1979741777E-03   0.8519429181E+00  -0.3568830117E-01  -0.9396394810E-01  -0.3385212288E-01   0.1967657752E-01   0.1979847567E-02   0.1333243338E-04
   0.0000000000E+00   0.9998678549E+00   0.6837647036E-04   0.0000000000E+00  -0.2592702274E-04   0.1664380406E-04   0.0000000000E+00  -0.1062180722E-03   0.5173266631E-04   0.9112828306E+00   0.1375390534E+00   0.1252312458E+00  -0.4311287183E-01   0.2264719417E-01   0.8359644737E-02   0.7233091867E-07
   0.0000000000E+00   0.0000000000E+00   0.9999294163E+00   0.0000000000E+00   0.0000000000E+00  -0.1723768153E-04   0.0000000000E+00   0.0000000000E+00  -0.5334598792E-04   0.8985114081E+00   0.1395524205E+00   0.1359893012E+00  -0.1771435705E-01  -0.1394314099E-01   0.4293211800E-02   0.3583348422E-07
   0.1000880793E+01   0.0000000000E+00   0.9997979099E+00   0.6579726571E-04   0.0000000000E+00  -0.3078402231E-05   0.8149961709E-03   0.0000000000E+00  -0.1990116677E-03   0.8488289887E+00  -0.3539639157E-01  -0.9114199080E-01  -0.9571065643E-02  -0.1535518829E-01   0.1014690921E-02   0.1416107433E-04
   0.1000951953E+01   0.9996694491E+00   0.9997982551E+00   0.7635269794E-04  -0.2132060791E-04  -0.2946472629E-05   0.8756005032E-03  -0.3092302627E-03  -0.1987984366E-03   0.8519703196E+00  -0.3576964920E-01  -0.9391000211E-01  -0.3375034039E-01  -0.1651020619E-01   0.9480272230E-03   0.1333878674E-04
   0.0000000000E+00   0.9998653118E+00   0.9999303366E+00   0.0000000000E+00  -0.2683010528E-04  -0.1710279187E-04   0.0000000000E+00  -0.1078580556E-03  -0.5256056429E-04   0.9112964467E+00   0.1373789719E+00   0.1253777111E+00  -0.4299205958E-01  -0.1615620904E-01   0.4139911281E-02   0.7125756647E-07
   0.2002000000E+01   0.0000000000E+00   0.3414770958E-03   0.1000000000E-03   0.0000000000E+00  -0.8757906330E-05   0.1900000000E-02   0.0000000000E+00   0.3502350021E-03   0.7604387296E+00  -0.1995634374E+00  -0.2903485230E+00  -0.1511003781E-01   0.1578316128E-01   0.2020172704E-04   0.4090567024E-04
   0.2002000000E+01   0.9994663205E+00   0.3426996775E-03   0.1000000000E-03  -0.1808831154E-04  -0.8521391433E-05   0.1900000000E-02  -0.5155911980E-03   0.3512210690E-03   0.7560458499E+00  -0.1968376284E+00  -0.2886812575E+00  -0.3723102173E-01   0.1599358808E-01   0.4653950975E-05   0.3903262254E-04
   0.2002000000E+01   0.0000000000E+00   0.9996585170E+00   0.1000000000E-03   0.0000000000E+00   0.8755150988E-05   0.1900000000E-02   0.0000000000E+00  -0.3502381197E-03   0.7605042759E+00  -0.1996155538E+00  -0.2903619548E+00  -0.1507715785E-01  -0.1574283004E-01  -0.9431529798E-04   0.4092698061E-04
   0.2002000000E+01   0.9994663328E+00   0.9996573053E+00   0.1000000000E-03  -0.1808268036E-04   0.8523626068E-05   0.1900000000E-02  -0.5155845466E-03  -0.3512182845E-03   0.7561035080E+00  -0.1968848404E+00  -0.2886917050E+00  -0.3718116116E-01  -0.1587618685E-01  -0.1093770420E-03   0.3904852339E-04
     1     2     3     4     5     6     7     8
     2     9    10     3     6    11    12     7
 VARIABLES = X,Y,Z,DU1,DU2,DU3,U1,U2,U3,S11,S22,S33,S12,S13,S23,Vf
 ZONE, T="0.3000D+00" F=FEPOINT, I=   12 J=    2 ET=BRICK
   0.0000000000E+00   0.0000000000E+00   0.0000000000E+00   0.0000000000E+00   0.0000000000E+00   0.0000000000E+00   0.0000000000E+00   0.0000000000E+00   0.0000000000E+00   0.1134966336E+01   0.5114911662E-01   0.7609462130E-01   0.1493642829E-01   0.3096205840E-01   0.4063519864E-01   0.8389664381E-04
   0.1001432678E+01   0.0000000000E+00   0.2468978510E-03   0.5355730224E-04   0.0000000000E+00   0.1269498653E-04   0.1379120646E-02   0.0000000000E+00   0.2342028645E-03   0.1145286506E+01   0.7061407280E-01   0.1313794735E+00   0.3010798398E-01   0.8273458316E-02   0.8720121327E-02   0.9194616244E-04
   0.1001592055E+01   0.9994465477E+00   0.2346186850E-03   0.5790962847E-04  -0.2705576258E-04   0.1079495838E-04   0.1534145654E-02  -0.5263965316E-03   0.2238237266E-03   0.1145916879E+01   0.7507366397E-01   0.1262869127E+00   0.3029847730E-01  -0.2177579338E-02   0.7297344990E-02   0.9329406262E-04
   0.0000000000E+00   0.9994607625E+00   0.3753604764E-03   0.0000000000E+00  -0.4690363577E-04   0.3746364046E-04   0.0000000000E+00  -0.4923338697E-03   0.3378968359E-03   0.1141254696E+01   0.6989152977E-01   0.5104784842E-01   0.1532359840E-01   0.8114550899E-02   0.3672589164E-01   0.9788077071E-04
   0.0000000000E+00   0.0000000000E+00   0.9996084979E+00   0.0000000000E+00   0.0000000000E+00  -0.3945489185E-04   0.0000000000E+00   0.0000000000E+00  -0.3520472142E-03   0.1136028716E+01   0.4782055206E-01   0.7836153647E-01   0.1621783162E-01   0.3320561718E-01   0.1857428182E-01   0.8318908791E-04
   0.1001409123E+01   0.0000000000E+00   0.9997385660E+00   0.4923482814E-04   0.0000000000E+00  -0.1554791841E-04   0.1359887725E-02   0.0000000000E+00  -0.2458861029E-03   0.1145821972E+01   0.6918666239E-01   0.1322712831E+00   0.3138194385E-01   0.2094873359E-01   0.3871286300E-02   0.9205489028E-04
   0.1001579695E+01   0.9994367407E+00   0.9997426614E+00   0.5560072774E-04  -0.2872558496E-04  -0.1490023887E-04   0.1524093877E-02  -0.5345336892E-03  -0.2424383502E-03   0.1146279945E+01   0.7374539393E-01   0.1272519330E+00   0.3220351229E-01   0.1601199590E-01   0.2572134860E-02   0.9348437865E-04
   0.0000000000E+00   0.9994166151E+00   0.9996011187E+00   0.0000000000E+00  -0.5474013741E-04  -0.4173986321E-04   0.0000000000E+00  -0.5286447592E-03  -0.3571414806E-03   0.1142066916E+01   0.6677632639E-01   0.5335129843E-01   0.1751218060E-01   0.2238264411E-01   0.1528328689E-01   0.9748394804E-04
   0.2003000000E+01   0.0000000000E+00   0.1604070257E-03   0.1000000000E-03   0.0000000000E+00  -0.7852090511E-05   0.2900000000E-02   0.0000000000E+00   0.1682591162E-03   0.1146364225E+01   0.7067259163E-01   0.2153197464E+00   0.1589697832E-01  -0.1149291250E-01  -0.5184600846E-03   0.1002558033E-03
   0.2003000000E+01   0.9994135021E+00   0.1658852100E-03   0.1000000000E-03  -0.6588300385E-05  -0.7253842498E-05   0.2900000000E-02  -0.5799095560E-03   0.1731390525E-03   0.1142441278E+01   0.7252573989E-01   0.2173968521E+00   0.1618937463E-01  -0.1021382957E-01  -0.7889413615E-03   0.9257438618E-04
   0.2003000000E+01   0.0000000000E+00   0.9998392594E+00   0.1000000000E-03   0.0000000000E+00   0.7770128186E-05   0.2900000000E-02   0.0000000000E+00  -0.1685107280E-03   0.1147345093E+01   0.7002944416E-01   0.2149812062E+00   0.1653363930E-01   0.1255580617E-01  -0.6745873701E-03   0.1009331091E-03
   0.2003000000E+01   0.9994141023E+00   0.9998343172E+00   0.1000000000E-03  -0.6447053809E-05   0.7298606540E-05   0.2900000000E-02  -0.5794506371E-03  -0.1729813902E-03   0.1143264426E+01   0.7194104484E-01   0.2171577714E+00   0.1716964510E-01   0.1279492217E-01  -0.9485192279E-03   0.9312299942E-04
     1     2     3     4     5     6     7     8
     2     9    10     3     6    11    12     7
 VARIABLES = X,Y,Z,DU1,DU2,DU3,U1,U2,U3,S11,S22,S33,S12,S13,S23,Vf
 ZONE, T="0.4000D+00" F=FEPOINT, I=   12 J=    2 ET=BRICK
   0.0000000000E+00   0.0000000000E+00   0.0000000000E+00   0.0000000000E+00   0.0000000000E+00   0.0000000000E+00   0.0000000000E+00   0.0000000000E+00   0.0000000000E+00   0.5159585792E+00  -0.1765963674E+00  -0.1738198059E+00   0.1179896176E-01   0.1745246318E-01   0.2449745656E-01   0.5229394061E-03
   0.1002080681E+01   0.0000000000E+00   0.3925131130E-03   0.7035373609E-04   0.0000000000E+00   0.4880552542E-05   0.2010327438E-02   0.0000000000E+00   0.3876325605E-03   0.5049268122E+00  -0.1660193986E+00  -0.1673579216E+00   0.1827233271E-01   0.7273947111E-03   0.3304545080E-02   0.5621394570E-03
   0.1002229778E+01   0.9991862489E+00   0.3557233841E-03   0.6557027560E-04  -0.1623508704E-04   0.2355778330E-05   0.2164207284E-02  -0.7975160327E-03   0.3533676058E-03   0.5147716966E+00  -0.1581936302E+00  -0.1642037919E+00   0.2633685381E-01  -0.5745513516E-02   0.5131505989E-03   0.5562623793E-03
   0.0000000000E+00   0.9991168650E+00   0.6281214733E-03   0.0000000000E+00  -0.1799104601E-04   0.8010058415E-05   0.0000000000E+00  -0.8651439731E-03   0.6201114149E-03   0.5147782093E+00  -0.1773094067E+00  -0.2129605071E+00   0.1933986553E-01   0.1097289814E-02   0.1761938362E-01   0.5508616473E-03
   0.0000000000E+00   0.0000000000E+00   0.9993420604E+00   0.0000000000E+00   0.0000000000E+00  -0.1011503073E-04   0.0000000000E+00   0.0000000000E+00  -0.6478246126E-03   0.5161842479E+00  -0.1813752984E+00  -0.1659279880E+00   0.1492421007E-01   0.2023655678E-01   0.5772539447E-02   0.5204823335E-03
   0.1001984359E+01   0.0000000000E+00   0.9995390443E+00   0.6168593342E-04   0.0000000000E+00  -0.1202596242E-04   0.1922673423E-02   0.0000000000E+00  -0.4489297413E-03   0.5039717542E+00  -0.1707645233E+00  -0.1670177413E+00   0.2141582913E-01   0.1033222128E-01   0.5469104226E-03   0.5647131715E-03
   0.1002176730E+01   0.9991531323E+00   0.9995572268E+00   0.6050739049E-04  -0.1865531407E-04  -0.9903309455E-05   0.2116222474E-02  -0.8282123446E-03  -0.4328698701E-03   0.5128347661E+00  -0.1634916578E+00  -0.1643444880E+00   0.3100336055E-01   0.8966264686E-02  -0.2293772724E-02   0.5597358893E-03
   0.0000000000E+00   0.9989573509E+00   0.9992803083E+00   0.0000000000E+00  -0.3095955439E-04  -0.1623691019E-04   0.0000000000E+00  -0.1011689549E-02  -0.7034547887E-03   0.5149268591E+00  -0.1831495525E+00  -0.2057691913E+00   0.2488189933E-01   0.1482020758E-01  -0.1186352810E-02   0.5497207556E-03
   0.2004000000E+01   0.0000000000E+00   0.2719310559E-03   0.1000000000E-03   0.0000000000E+00   0.1034742218E-04   0.3900000000E-02   0.0000000000E+00   0.2615836337E-03   0.4990915666E+00  -0.1611104718E+00  -0.1375337968E+00   0.1491448005E-01  -0.6931469709E-02  -0.1681927420E-02   0.5899674443E-03
   0.2004000000E+01   0.9992654434E+00   0.2736583647E-03   0.1000000000E-03  -0.1033902076E-04   0.9526352473E-05   0.3900000000E-02  -0.7242176281E-03   0.2641320123E-03   0.5258422135E+00  -0.1340758540E+00  -0.1029523138E+00   0.2361294561E-01  -0.5108616853E-02  -0.2233300464E-02   0.5540546343E-03
   0.2004000000E+01   0.0000000000E+00   0.9997260318E+00   0.1000000000E-03   0.0000000000E+00  -0.1058059398E-04   0.3900000000E-02   0.0000000000E+00  -0.2633876231E-03   0.4970760544E+00  -0.1681584406E+00  -0.1444173757E+00   0.1642637504E-01   0.1034968963E-01  -0.1984885842E-03   0.5982421830E-03
   0.2004000000E+01   0.9992669397E+00   0.9997275083E+00   0.1000000000E-03  -0.1024847636E-04  -0.9384371804E-05   0.3900000000E-02  -0.7228118143E-03  -0.2631073080E-03   0.5229115474E+00  -0.1413574538E+00  -0.1100371184E+00   0.2578766227E-01   0.1143631585E-01  -0.8445479121E-03   0.5623921652E-03
     1     2     3     4     5     6     7     8
     2     9    10     3     6    11    12     7
 VARIABLES = X,Y,Z,DU1,DU2,DU3,U1,U2,U3,S11,S22,S33,S12,S13,S23,Vf
 ZONE, T="0.5000D+00" F=FEPOINT, I=   12 J=    2 ET=BRICK
   0.0000000000E+00   0.0000000000E+00   0.0000000000E+00   0.0000000000E+00   0.0000000000E+00   0.0000000000E+00   0.0000000000E+00   0.0000000000E+00   0.0000000000E+00   0.5892886744E+00  -0.4175103218E-01   0.4919034017E-02   0.2095507687E-02  -0.6525517606E-02  -0.3100542750E-02   0.1038785129E-02
   0.1002769849E+01   0.0000000000E+00   0.3212813639E-03   0.6680944336E-04   0.0000000000E+00  -0.1018080427E-04   0.2703039276E-02   0.0000000000E+00   0.3314621681E-03   0.5654431104E+00  -0.3364563309E-01   0.1027711117E-01   0.1262178569E-03  -0.9666777128E-02  -0.2955436645E-02   0.9669362817E-03
   0.1002835491E+01   0.9991533528E+00   0.2703116264E-03   0.5715924979E-04   0.2476038359E-05  -0.1037172954E-04   0.2778331384E-02  -0.8491232844E-03   0.2806833559E-03   0.5650580728E+00  -0.3379487535E-01   0.1427070608E-01   0.7607072475E-02  -0.8806232363E-02  -0.6434045217E-02   0.9675344699E-03
   0.0000000000E+00   0.9990776274E+00   0.5721810582E-03   0.0000000000E+00   0.1774973326E-05  -0.9363305528E-05   0.0000000000E+00  -0.9241476143E-03   0.5815443637E-03   0.5865415069E+00  -0.3287711562E-01   0.2236885583E-02   0.8229703991E-02  -0.9133419381E-02  -0.1215225088E-01   0.1052760270E-02
   0.0000000000E+00   0.0000000000E+00   0.9993455443E+00   0.0000000000E+00   0.0000000000E+00   0.1623886220E-05   0.0000000000E+00   0.0000000000E+00  -0.6560795613E-03   0.5877664626E+00  -0.4871588228E-01   0.1553299575E-01   0.6620489070E-02  -0.5189134091E-03  -0.8801006523E-02   0.1035864814E-02
   0.1002598145E+01   0.0000000000E+00   0.9995272387E+00   0.6104253487E-04   0.0000000000E+00   0.1488777710E-05   0.2537102871E-02   0.0000000000E+00  -0.4742501162E-03   0.5657954965E+00  -0.3854837722E-01   0.1205869219E-01   0.4633855433E-02  -0.4966348203E-02  -0.1141522711E-02   0.9690994934E-03
   0.1002733740E+01   0.9991064821E+00   0.9995740831E+00   0.5287071488E-04   0.2184033076E-05   0.4728026344E-05   0.2680869698E-02  -0.8957019617E-03  -0.4306448915E-03   0.5652113987E+00  -0.3865907707E-01   0.1606787370E-01   0.1428385902E-01  -0.2231164022E-02  -0.4653321912E-02   0.9699867574E-03
   0.0000000000E+00   0.9988137349E+00   0.9992525384E+00   0.0000000000E+00  -0.5150982801E-05   0.1427400705E-05   0.0000000000E+00  -0.1181114130E-02  -0.7488889700E-03   0.5850196024E+00  -0.4047070093E-01   0.1231430928E-01   0.1623091628E-01   0.2124376835E-02  -0.1783243976E-01   0.1051493090E-02
   0.2005000000E+01   0.0000000000E+00   0.2651770531E-03   0.1000000000E-03   0.0000000000E+00  -0.3897761078E-05   0.4900000000E-02   0.0000000000E+00   0.2690748142E-03   0.5435955832E+00  -0.2270961618E-01   0.9827123144E-02   0.5776072206E-02   0.3149981746E-02  -0.1154466298E-02   0.8931115973E-03
   0.2005000000E+01   0.9992711567E+00   0.2660051453E-03   0.1000000000E-03   0.4755432108E-05  -0.3552808598E-05   0.4900000000E-02  -0.7335986996E-03   0.2695579539E-03   0.5459825004E+00  -0.2608742099E-01   0.1366913372E-01   0.1454594535E-01   0.5132228408E-02  -0.1701096151E-02   0.8877312043E-03
   0.2005000000E+01   0.0000000000E+00   0.9997294213E+00   0.1000000000E-03   0.0000000000E+00   0.3449231634E-05   0.4900000000E-02   0.0000000000E+00  -0.2740279315E-03   0.5456489879E+00  -0.2894792470E-01   0.3973015303E-02   0.7845056589E-02   0.6961200291E-02   0.1367894373E-02   0.9018772875E-03
   0.2005000000E+01   0.9992757121E+00   0.9997352418E+00   0.1000000000E-03   0.5154451570E-05   0.3280557131E-05   0.4900000000E-02  -0.7294423021E-03  -0.2680387552E-03   0.5476685611E+00  -0.3173966091E-01   0.8375186250E-02   0.1741165244E-01   0.7328947029E-02   0.7521467594E-03   0.8955010385E-03
     1     2     3     4     5     6     7     8
     2     9    10     3     6    11    12     7
 VARIABLES = X,Y,Z,DU1,DU2,DU3,U1,U2,U3,S11,S22,S33,S12,S13,S23,Vf
 ZONE, T="0.6000D+00" F=FEPOINT, I=   12 J=    2 ET=BRICK
   0.0000000000E+00   0.0000000000E+00   0.0000000000E+00   0.0000000000E+00   0.0000000000E+00   0.0000000000E+00   0.0000000000E+00   0.0000000000E+00   0.0000000000E+00   0.5705193065E+00  -0.1461885323E-02   0.1516993494E-01  -0.3685538826E-02  -0.9613966609E-02  -0.6158177790E-02   0.1723118837E-02
   0.1003400688E+01   0.0000000000E+00   0.2687694217E-03   0.5978090021E-04   0.0000000000E+00  -0.1208856701E-05   0.3340907436E-02   0.0000000000E+00   0.2699782784E-03   0.5508526329E+00   0.9786075998E-02   0.2962057700E-01  -0.1270760741E-01  -0.7218418648E-02   0.1063955139E-03   0.1560415879E-02
   0.1003386906E+01   0.9991813157E+00   0.2282276670E-03   0.5410149034E-04   0.2284971189E-05   0.4586037187E-06   0.3332804464E-02  -0.8209692772E-03   0.2277690632E-03   0.5507199298E+00   0.7468865031E-02   0.3388196082E-01  -0.7579704772E-02  -0.5590470905E-02  -0.1528857931E-02   0.1560763861E-02
   0.0000000000E+00   0.9990891009E+00   0.5172420667E-03   0.0000000000E+00  -0.2055708787E-06  -0.2320666776E-05   0.0000000000E+00  -0.9106935014E-03   0.5195627335E-03   0.5664217217E+00   0.5053456253E-02   0.2711849355E-01   0.1207569287E-02  -0.7099135199E-02  -0.1149221947E-01   0.1729827576E-02
   0.0000000000E+00   0.0000000000E+00   0.9993034678E+00   0.0000000000E+00   0.0000000000E+00  -0.8345405913E-05   0.0000000000E+00   0.0000000000E+00  -0.6881868400E-03   0.5694783177E+00  -0.4088212940E-02   0.2275750688E-01  -0.8726878835E-03  -0.2815278009E-02  -0.3661709283E-02   0.1718594727E-02
   0.1003198979E+01   0.0000000000E+00   0.9995015947E+00   0.5876690600E-04   0.0000000000E+00  -0.5485710586E-05   0.3140212376E-02   0.0000000000E+00  -0.4929195774E-03   0.5512634907E+00   0.7425213917E-02   0.3029352892E-01  -0.1017507251E-01  -0.4909551862E-02   0.3200141715E-02   0.1562140536E-02
   0.1003254018E+01   0.9991403066E+00   0.9995762417E+00   0.5191552980E-04   0.3162254940E-05  -0.3470905224E-05   0.3202102403E-02  -0.8628556177E-03  -0.4202874444E-03   0.5509515931E+00   0.5259642331E-02   0.3472288792E-01  -0.3656874557E-02  -0.3733472091E-02   0.1540626609E-02   0.1562740964E-02
   0.0000000000E+00   0.9988050813E+00   0.9992363219E+00   0.0000000000E+00   0.1104978101E-05  -0.4339282243E-05   0.0000000000E+00  -0.1196023679E-02  -0.7593388062E-03   0.5651467998E+00   0.2263211061E-02   0.3475297828E-01   0.6470085227E-02   0.4296799306E-03  -0.8997577326E-02   0.1726894730E-02
   0.2006000000E+01   0.0000000000E+00   0.2651204748E-03   0.1000000000E-03   0.0000000000E+00   0.2859559743E-05   0.5900000000E-02   0.0000000000E+00   0.2622609151E-03   0.5339305428E+00   0.2554658889E-01   0.3029112874E-01  -0.3717582018E-02   0.8782848594E-02   0.1104638307E-02   0.1399321266E-02
   0.2006000000E+01   0.9993059084E+00   0.2686646069E-03   0.1000000000E-03   0.2043149216E-05   0.2874526898E-05   0.5900000000E-02  -0.6961347037E-03   0.2657900800E-03   0.5374329680E+00   0.1648653070E-01   0.2492751056E-01   0.1598703161E-02   0.8331372903E-02   0.1110297088E-02   0.1400588142E-02
   0.2006000000E+01   0.0000000000E+00   0.9997223130E+00   0.1000000000E-03   0.0000000000E+00  -0.3884715904E-05   0.5900000000E-02   0.0000000000E+00  -0.2738022935E-03   0.5357430522E+00   0.2103596379E-01   0.2522798810E-01  -0.2698341955E-02   0.6787255204E-02   0.2487320225E-02   0.1408874872E-02
   0.2006000000E+01   0.9993125296E+00   0.9997217312E+00   0.1000000000E-03   0.1991572929E-05  -0.4763953461E-05   0.5900000000E-02  -0.6894620099E-03  -0.2735048881E-03   0.5391142859E+00   0.1232556513E-01   0.2018096569E-01   0.2891841606E-02   0.4643594587E-02   0.2439826790E-02   0.1409148630E-02
     1     2     3     4     5     6     7     8
     2     9    10     3     6    11    12     7
 VARIABLES = X,Y,Z,DU1,DU2,DU3,U1,U2,U3,S11,S22,S33,S12,S13,S23,Vf
 ZONE, T="0.7000D+00" F=FEPOINT, I=   12 J=    2 ET=BRICK
   0.0000000000E+00   0.0000000000E+00   0.0000000000E+00   0.0000000000E+00   0.0000000000E+00   0.0000000000E+00   0.0000000000E+00   0.0000000000E+00   0.0000000000E+00   0.5621249976E+00   0.2114303258E-02  -0.2421956090E-01  -0.2623402543E-02  -0.9308200065E-03  -0.1117569284E-03   0.2298791129E-02
   0.1003962733E+01   0.0000000000E+00   0.2698916562E-03   0.5376351828E-04   0.0000000000E+00  -0.1886626632E-06   0.3908969472E-02   0.0000000000E+00   0.2700803189E-03   0.5501964093E+00   0.1105846119E-01  -0.1688205293E-01  -0.1167027536E-01  -0.3025551089E-03   0.2690355748E-02   0.2077269700E-02
   0.1003925344E+01   0.9991959622E+00   0.2442306869E-03   0.5385300402E-04   0.7437200484E-06   0.9183095510E-06   0.3871490646E-02  -0.8047814852E-03   0.2433123774E-03   0.5504985968E+00   0.9076669740E-02  -0.1500899403E-01  -0.8421200336E-02  -0.7573854912E-03   0.2450299458E-02   0.2077748185E-02
   0.0000000000E+00   0.9990745298E+00   0.4997599222E-03   0.0000000000E+00  -0.2118854586E-05  -0.2474354080E-05   0.0000000000E+00  -0.9233513811E-03   0.5022342762E-03   0.5604426296E+00   0.4491684098E-02  -0.1356920142E-01   0.1574336578E-02   0.8087720301E-03  -0.1042067595E-02   0.2303453659E-02
   0.0000000000E+00   0.0000000000E+00   0.9992178144E+00   0.0000000000E+00   0.0000000000E+00  -0.7045154585E-05   0.0000000000E+00   0.0000000000E+00  -0.7751403960E-03   0.5615836465E+00   0.3185442509E-02  -0.2164199583E-01  -0.2395506742E-02   0.3432427583E-02   0.3942217259E-02   0.2293671070E-02
   0.1003762342E+01   0.0000000000E+00   0.9994502930E+00   0.5431175362E-04   0.0000000000E+00  -0.3589054685E-05   0.3708030438E-02   0.0000000000E+00  -0.5461179715E-03   0.5502488166E+00   0.1063247476E-01  -0.1697459996E-01  -0.1174754716E-01   0.7870638025E-03   0.4502367895E-02   0.2078687314E-02
   0.1003778052E+01   0.9991583160E+00   0.9995304810E+00   0.5284127402E-04   0.4825889669E-06  -0.4215741386E-05   0.3725210471E-02  -0.8421666034E-03  -0.4653032555E-03   0.5504796656E+00   0.8769529722E-02  -0.1495806468E-01  -0.8251408605E-02  -0.7394798308E-03   0.4253694698E-02   0.2079394885E-02
   0.0000000000E+00   0.9988189292E+00   0.9991865801E+00   0.0000000000E+00   0.1072769968E-05  -0.4408901596E-05   0.0000000000E+00  -0.1182143613E-02  -0.8090110083E-03   0.5596412857E+00   0.5965619019E-02  -0.1040524182E-01   0.2351455904E-02   0.3802171924E-02   0.3045612537E-02   0.2299468238E-02
   0.2007000000E+01   0.0000000000E+00   0.2882146399E-03   0.1000000000E-03   0.0000000000E+00   0.5545224467E-06   0.6900000000E-02   0.0000000000E+00   0.2876601174E-03   0.5395303486E+00   0.2068059181E-01  -0.1765384311E-01  -0.5693262232E-02   0.8258619172E-02   0.7580141431E-03   0.1858746986E-02
   0.2007000000E+01   0.9993150158E+00   0.2881031245E-03   0.1000000000E-03   0.1152353582E-06  -0.7621149138E-08   0.6900000000E-02  -0.6850994004E-03   0.2881107456E-03   0.5412760780E+00   0.1433238207E-01  -0.2284793460E-01  -0.3442201410E-02   0.5882856831E-02   0.6711782764E-03   0.1861635472E-02
   0.2007000000E+01   0.0000000000E+00   0.9996822804E+00   0.1000000000E-03   0.0000000000E+00  -0.2909668046E-05   0.6900000000E-02   0.0000000000E+00  -0.3148099011E-03   0.5400971065E+00   0.1844116750E-01  -0.1996460191E-01  -0.5808789429E-02   0.6160166138E-02   0.9741014037E-03   0.1867855821E-02
   0.2007000000E+01   0.9993181726E+00   0.9996737088E+00   0.1000000000E-03  -0.3578298411E-06  -0.3499001845E-05   0.6900000000E-02  -0.6814695704E-03  -0.3227921719E-03   0.5419620410E+00   0.1186453430E-01  -0.2539457100E-01  -0.3639433987E-02   0.2995423845E-02   0.8516120399E-03   0.1870135466E-02
     1     2     3     4     5     6     7     8
     2     9    10     3     6    11    12     7
 VARIABLES = X,Y,Z,DU1,DU2,DU3,U1,U2,U3,S11,S22,S33,S12,S13,S23,Vf
 ZONE, T="0.8000D+00" F=FEPOINT, I=   12 J=    2 ET=BRICK
   0.0000000000E+00   0.0000000000E+00   0.0000000000E+00   0.0000000000E+00   0.0000000000E+00   0.0000000000E+00   0.0000000000E+00   0.0000000000E+00   0.0000000000E+00   0.5605007020E+00   0.5956976535E-02  -0.1130835622E-01   0.6738175422E-03   0.1208040036E-02  -0.2334636773E-02   0.2853578950E-02
   0.1004483419E+01   0.0000000000E+00   0.2557533270E-03   0.5111968666E-04   0.0000000000E+00  -0.2081392438E-05   0.4432299636E-02   0.0000000000E+00   0.2578347194E-03   0.5542294039E+00   0.1055583412E-01  -0.5092840344E-02  -0.3488576028E-02   0.4463212812E-03   0.1822053681E-03   0.2600936872E-02
   0.1004464115E+01   0.9991904065E+00   0.2363115982E-03   0.5375691076E-04  -0.1696587559E-05  -0.1726964031E-05   0.4410358057E-02  -0.8078969178E-03   0.2380385622E-03   0.5544150266E+00   0.9669892715E-02  -0.5002457085E-02  -0.1637674393E-02   0.2441934791E-03  -0.7877119980E-05   0.2601726748E-02
   0.0000000000E+00   0.9990492137E+00   0.4623271199E-03   0.0000000000E+00  -0.2798868138E-05  -0.4254087968E-05   0.0000000000E+00  -0.9479874180E-03   0.4665812079E-03   0.5604073724E+00   0.3572751909E-02  -0.5292173852E-02   0.3553529955E-02   0.3474716627E-02  -0.1466641957E-02   0.2859749072E-02
   0.0000000000E+00   0.0000000000E+00   0.9991764919E+00   0.0000000000E+00   0.0000000000E+00  -0.2214208550E-05   0.0000000000E+00   0.0000000000E+00  -0.8212939399E-03   0.5600873417E+00   0.8058535718E-02  -0.1116049747E-01  -0.5042765686E-03   0.4773711901E-02   0.1860382753E-02   0.2848393310E-02
   0.1004286342E+01   0.0000000000E+00   0.9994344315E+00   0.5119348782E-04   0.0000000000E+00  -0.6281711050E-06   0.4235148778E-02   0.0000000000E+00  -0.5649403136E-03   0.5542736547E+00   0.1024458344E-01  -0.5098040038E-02  -0.4615879074E-02   0.2127226629E-02   0.6030158948E-03   0.2602314575E-02
   0.1004309152E+01   0.9991455934E+00   0.9994995622E+00   0.5314557608E-04  -0.2529160673E-05  -0.2519823607E-05   0.4256006762E-02  -0.8518774385E-03  -0.4979179386E-03   0.5544596087E+00   0.9397628591E-02  -0.4955654795E-02  -0.3062871531E-02   0.7411677244E-03   0.4115836253E-03   0.2603340693E-02
   0.0000000000E+00   0.9988196421E+00   0.9991560651E+00   0.0000000000E+00  -0.6971498463E-06  -0.2227133431E-05   0.0000000000E+00  -0.1179660747E-02  -0.8417077996E-03   0.5598675384E+00   0.6104331310E-02  -0.4622857786E-02   0.1688572060E-02   0.4371167590E-02   0.2766081600E-02   0.2855470813E-02
   0.2008000000E+01   0.0000000000E+00   0.2714273291E-03   0.1000000000E-03   0.0000000000E+00  -0.2783110387E-05   0.7900000000E-02   0.0000000000E+00   0.2742104394E-03   0.5484183165E+00   0.1474348299E-01  -0.2312506768E-02  -0.2264144215E-02   0.3799338833E-02  -0.6264441126E-03   0.2351265979E-02
   0.2008000000E+01   0.9993034138E+00   0.2671106105E-03   0.1000000000E-03  -0.2280286961E-05  -0.2970539508E-05   0.7900000000E-02  -0.6943059565E-03   0.2700811500E-03   0.5482935094E+00   0.1375102489E-01  -0.3526342668E-02  -0.1483482706E-02   0.1927828266E-02  -0.1050068576E-02   0.2352315212E-02
   0.2008000000E+01   0.0000000000E+00   0.9996664648E+00   0.1000000000E-03   0.0000000000E+00  -0.1163061985E-05   0.7900000000E-02   0.0000000000E+00  -0.3323720947E-03   0.5486847482E+00   0.1342002320E-01  -0.2880152440E-02  -0.2539440299E-02   0.3631241194E-02  -0.9633848862E-03   0.2359958276E-02
   0.2008000000E+01   0.9993039700E+00   0.9996569002E+00   0.1000000000E-03  -0.2255346407E-05  -0.8383839611E-06   0.7900000000E-02  -0.6937746688E-03  -0.3422613760E-03   0.5486947899E+00   0.1204392470E-01  -0.4464386315E-02  -0.1679405829E-02   0.2062507461E-02  -0.1404977612E-02   0.2360630760E-02
     1     2     3     4     5     6     7     8
     2     9    10     3     6    11    12     7
 VARIABLES = X,Y,Z,DU1,DU2,DU3,U1,U2,U3,S11,S22,S33,S12,S13,S23,Vf
 ZONE, T="0.9000D+00" F=FEPOINT, I=   12 J=    2 ET=BRICK
   0.0000000000E+00   0.0000000000E+00   0.0000000000E+00   0.0000000000E+00   0.0000000000E+00   0.0000000000E+00   0.0000000000E+00   0.0000000000E+00   0.0000000000E+00   0.5568995209E+00  -0.7918263435E-03   0.1799037393E-02   0.2018294765E-02  -0.5591832427E-03  -0.5089392057E-02   0.3403787360E-02
   0.1004989925E+01   0.0000000000E+00   0.2362160864E-03   0.5042998213E-04   0.0000000000E+00  -0.1652176330E-05   0.4939494867E-02   0.0000000000E+00   0.2378682628E-03   0.5531037779E+00  -0.2416889960E-02   0.5190494010E-02   0.2185512841E-02  -0.1239266698E-02  -0.1483812968E-02   0.3131651716E-02
   0.1004996033E+01   0.9991646812E+00   0.2201332796E-03   0.5259859049E-04  -0.2891460496E-05  -0.1270837882E-05   0.4943434313E-02  -0.8324272945E-03   0.2214041175E-03   0.5532493691E+00  -0.2398611321E-02   0.4337446330E-02   0.2783191813E-02  -0.3046594172E-03  -0.1545393994E-02   0.3132641068E-02
   0.0000000000E+00   0.9990215450E+00   0.4267129724E-03   0.0000000000E+00  -0.2536619302E-05  -0.2715900485E-05   0.0000000000E+00  -0.9759183378E-03   0.4294288729E-03   0.5574316598E+00  -0.4950782190E-02   0.4195100699E-02   0.2995893887E-02   0.2440404701E-02  -0.3713550399E-02   0.3411781443E-02
   0.0000000000E+00   0.0000000000E+00   0.9991619554E+00   0.0000000000E+00   0.0000000000E+00  -0.1313915528E-05   0.0000000000E+00   0.0000000000E+00  -0.8367306863E-03   0.5565964501E+00   0.1576776458E-02   0.1305590790E-02   0.6538219507E-03   0.1934580223E-02  -0.1812196842E-02   0.3398304897E-02
   0.1004791909E+01   0.0000000000E+00   0.9994244772E+00   0.5031061297E-04   0.0000000000E+00  -0.1599254729E-05   0.4741598140E-02   0.0000000000E+00  -0.5739234968E-03   0.5531007547E+00  -0.2504714853E-02   0.5189738344E-02   0.1195154895E-02   0.2095419368E-03  -0.1954920463E-02   0.3132992822E-02
   0.1004836896E+01   0.9991154176E+00   0.9994728639E+00   0.5235827103E-04  -0.2917648426E-05  -0.2923968675E-05   0.4784537365E-02  -0.8816647161E-03  -0.5242121683E-03   0.5532556872E+00  -0.2488038127E-02   0.4344396284E-02   0.1433537973E-02   0.2004665776E-03  -0.2017590784E-02   0.3134232360E-02
   0.0000000000E+00   0.9988103369E+00   0.9991354355E+00   0.0000000000E+00  -0.7838225250E-06  -0.2131531993E-05   0.0000000000E+00  -0.1188879298E-02  -0.8624329417E-03   0.5570876961E+00  -0.2379081355E-02   0.3964652523E-02   0.6172281005E-03   0.2127788613E-02  -0.4170661904E-03   0.3407228703E-02
   0.2009000000E+01   0.0000000000E+00   0.2461356308E-03   0.1000000000E-03   0.0000000000E+00  -0.2003729892E-05   0.8900000000E-02   0.0000000000E+00   0.2481393606E-03   0.5493425886E+00  -0.3376015938E-02   0.6809940316E-02   0.7918632732E-03   0.5378817763E-03  -0.5798524103E-04   0.2862043975E-02
   0.2009000000E+01   0.9992726550E+00   0.2431124001E-03   0.1000000000E-03  -0.3287881982E-05  -0.1690199250E-05   0.8900000000E-02  -0.7240571017E-03   0.2448025994E-03   0.5485533883E+00  -0.1501224698E-02   0.8007297854E-02   0.9906546604E-03   0.1902689983E-04  -0.2181268900E-03   0.2861118928E-02
   0.2009000000E+01   0.0000000000E+00   0.9996475116E+00   0.1000000000E-03   0.0000000000E+00  -0.2617175484E-05   0.8900000000E-02   0.0000000000E+00  -0.3498712432E-03   0.5494454047E+00  -0.3954327465E-02   0.6501103446E-02   0.7902348461E-03   0.9570910716E-03  -0.5177466965E-03   0.2870664160E-02
   0.2009000000E+01   0.9992769007E+00   0.9996446321E+00   0.1000000000E-03  -0.2735623838E-05  -0.1802797923E-05   0.8900000000E-02  -0.7203636333E-03  -0.3535650721E-03   0.5487173461E+00  -0.2309893321E-02   0.7476730385E-02   0.1276244249E-02   0.1362390315E-02  -0.6873504786E-03   0.2869373349E-02
     1     2     3     4     5     6     7     8
     2     9    10     3     6    11    12     7
 VARIABLES = X,Y,Z,DU1,DU2,DU3,U1,U2,U3,S11,S22,S33,S12,S13,S23,Vf
 ZONE, T="0.1000D+01" F=FEPOINT, I=   12 J=    2 ET=BRICK
   0.0000000000E+00   0.0000000000E+00   0.0000000000E+00   0.0000000000E+00   0.0000000000E+00   0.0000000000E+00   0.0000000000E+00   0.0000000000E+00   0.0000000000E+00   0.5552825045E+00  -0.2715454849E-02   0.1170408856E-02   0.1463262549E-02  -0.1877199916E-02  -0.4032873546E-02   0.3939553869E-02
   0.1005493544E+01   0.0000000000E+00   0.2232530221E-03   0.5034106421E-04   0.0000000000E+00  -0.1091397366E-05   0.5443202966E-02   0.0000000000E+00   0.2243444195E-03   0.5531211871E+00  -0.7332037282E-02   0.1478343364E-02   0.3193125823E-02  -0.1661094988E-02  -0.7139537669E-03   0.3651757088E-02
   0.1005513819E+01   0.9991401978E+00   0.2109726680E-03   0.5114674835E-04  -0.1914662313E-05  -0.7795378992E-06   0.5462671795E-02  -0.8578875518E-03   0.2117522059E-03   0.5532480172E+00  -0.6926826054E-02   0.4134228107E-03   0.2998504737E-02  -0.4162927847E-03  -0.2069564026E-03   0.3652845460E-02
   0.0000000000E+00   0.9990021792E+00   0.4091860354E-03   0.0000000000E+00  -0.1444180997E-05  -0.1154613505E-05   0.0000000000E+00  -0.9963765937E-03   0.4103406489E-03   0.5557452487E+00  -0.5956818120E-02   0.1801951812E-02   0.1117270242E-02   0.8638276555E-03  -0.2217844495E-02   0.3948411427E-02
   0.0000000000E+00   0.0000000000E+00   0.9991459614E+00   0.0000000000E+00   0.0000000000E+00  -0.1828619095E-05   0.0000000000E+00   0.0000000000E+00  -0.8522099861E-03   0.5550634067E+00  -0.1060192942E-03   0.1065165164E-03   0.3660242136E-03  -0.6960911945E-03  -0.2089376537E-02   0.3933814039E-02
   0.1005296095E+01   0.0000000000E+00   0.9994019178E+00   0.5058057887E-04   0.0000000000E+00  -0.2602724492E-05   0.5245513989E-02   0.0000000000E+00  -0.5954795234E-03   0.5530167984E+00  -0.6591906494E-02   0.1192432153E-02   0.2474836073E-02  -0.1041336990E-02  -0.1467229941E-02   0.3652885964E-02
   0.1005354702E+01   0.9990949245E+00   0.9994422264E+00   0.5134350987E-04  -0.1283999987E-05  -0.3042248117E-05   0.5303358451E-02  -0.9037915078E-03  -0.5547313944E-03   0.5531438475E+00  -0.6195962499E-02   0.1251650602E-03   0.1922443164E-02  -0.3648150992E-03  -0.9612741706E-03   0.3654233514E-02
   0.0000000000E+00   0.9988080093E+00   0.9991124309E+00   0.0000000000E+00   0.1563642845E-06  -0.2394247620E-05   0.0000000000E+00  -0.1192147078E-02  -0.8851748953E-03   0.5555066652E+00  -0.3291192590E-02   0.8387721240E-03  -0.8802631459E-03  -0.5336452604E-04  -0.2663684512E-03   0.3943661920E-02
   0.2010000000E+01   0.0000000000E+00   0.2322426053E-03   0.1000000000E-03   0.0000000000E+00  -0.1043260740E-05   0.9900000000E-02   0.0000000000E+00   0.2332858660E-03   0.5508784884E+00  -0.1046030977E-01   0.5415177048E-03   0.1552108694E-02  -0.2345397415E-03   0.1060313610E-02   0.3366062187E-02
   0.2010000000E+01   0.9992462768E+00   0.2319027955E-03   0.1000000000E-03  -0.1928620289E-05  -0.9080061883E-06   0.9900000000E-02  -0.7517945414E-03   0.2328108017E-03   0.5503425173E+00  -0.8524561142E-02   0.1896510435E-02   0.1503360643E-02  -0.1363549925E-03   0.1364507706E-02   0.3364338517E-02
   0.2010000000E+01   0.0000000000E+00   0.9996169102E+00   0.1000000000E-03   0.0000000000E+00  -0.3162324734E-05   0.9900000000E-02   0.0000000000E+00  -0.3799274666E-03   0.5507960162E+00  -0.1008916899E-01   0.2827120553E-03   0.1561402722E-02  -0.1679280712E-03   0.6910671167E-03   0.3374456904E-02
   0.2010000000E+01   0.9992550151E+00   0.9996205770E+00   0.1000000000E-03  -0.1675722243E-05  -0.2737754362E-05   0.9900000000E-02  -0.7433091452E-03  -0.3766852625E-03   0.5502780213E+00  -0.8245009842E-02   0.1548237097E-02   0.1690013422E-02   0.8941206639E-03   0.9894817090E-03   0.3372327624E-02
     1     2     3     4     5     6     7     8
     2     9    10     3     6    11    12     7
 VARIABLES = X,Y,Z,DU1,DU2,DU3,U1,U2,U3,S11,S22,S33,S12,S13,S23,Vf
 ZONE, T="0.1100D+01" F=FEPOINT, I=   12 J=    2 ET=BRICK
   0.0000000000E+00   0.0000000000E+00   0.0000000000E+00   0.0000000000E+00   0.0000000000E+00   0.0000000000E+00   0.0000000000E+00   0.0000000000E+00   0.0000000000E+00   0.5550541338E+00   0.1874203824E-02  -0.9210595221E-03   0.5814973355E-03  -0.2266561794E-02  -0.2413750099E-02   0.4472274491E-02
   0.1005996934E+01   0.0000000000E+00   0.2133174296E-03   0.5033370448E-04   0.0000000000E+00  -0.9413743770E-06   0.5946600648E-02   0.0000000000E+00   0.2142588040E-03   0.5538864219E+00  -0.1694762440E-02  -0.6947879152E-03   0.1866329811E-02  -0.1067141786E-02  -0.1309109878E-03   0.4173656404E-02
   0.1006019699E+01   0.9991267458E+00   0.2020154316E-03   0.5023541637E-04  -0.1032660630E-05  -0.1034501463E-05   0.5969463917E-02  -0.8722215465E-03   0.2030499330E-03   0.5539226430E+00  -0.1362841333E-02  -0.1313148220E-02   0.1528065798E-02  -0.1475634580E-03   0.6858200012E-03   0.4174729964E-02
   0.0000000000E+00   0.9989907715E+00   0.4003068751E-03   0.0000000000E+00  -0.1065070989E-05  -0.8040089750E-06   0.0000000000E+00  -0.1008163425E-02   0.4011108840E-03   0.5551656518E+00   0.1815179663E-03  -0.3226898410E-03   0.8413958366E-05  -0.2259983958E-03  -0.5350291362E-03   0.4481056523E-02
   0.0000000000E+00   0.0000000000E+00   0.9991265196E+00   0.0000000000E+00   0.0000000000E+00  -0.1969831422E-05   0.0000000000E+00   0.0000000000E+00  -0.8715105662E-03   0.5549934419E+00   0.4101280668E-02  -0.2473994909E-02  -0.1900326427E-03  -0.1613302046E-02  -0.1264044385E-02   0.4466581628E-02
   0.1005803894E+01   0.0000000000E+00   0.9993757399E+00   0.5090138618E-04   0.0000000000E+00  -0.2532771512E-05   0.5752992715E-02   0.0000000000E+00  -0.6217273139E-03   0.5537694477E+00  -0.5510729522E-03  -0.1188241113E-02   0.1271244079E-02  -0.8136473429E-03  -0.6160132597E-03   0.4174604834E-02
   0.1005864453E+01   0.9990877586E+00   0.9994140979E+00   0.5074801677E-04  -0.4845796211E-06  -0.2603784482E-05   0.5813704771E-02  -0.9117568164E-03  -0.5832983357E-03   0.5538029678E+00  -0.2235537245E-03  -0.1807132425E-02   0.5543534052E-03  -0.2119059120E-03   0.2003761666E-03   0.4175938693E-02
   0.0000000000E+00   0.9988094548E+00   0.9990884662E+00   0.0000000000E+00  -0.8438798514E-07  -0.2365271729E-05   0.0000000000E+00  -0.1190460838E-02  -0.9091685778E-03   0.5550862437E+00   0.2430852014E-02  -0.1825431645E-02  -0.1417878981E-02  -0.8606402802E-03   0.6189784329E-03   0.4476372227E-02
   0.2011000000E+01   0.0000000000E+00   0.2227274846E-03   0.1000000000E-03   0.0000000000E+00  -0.9579635477E-06   0.1090000000E-01   0.0000000000E+00   0.2236854482E-03   0.5527122192E+00  -0.3945137266E-02  -0.1632989481E-02   0.9554433098E-03   0.1383377197E-04   0.6770483549E-03   0.3877099692E-02
   0.2011000000E+01   0.9992342620E+00   0.2213457567E-03   0.1000000000E-03  -0.7995059562E-06  -0.1227610101E-05   0.1090000000E-01  -0.7649384905E-03   0.2225733668E-03   0.5525543109E+00  -0.3069939384E-02  -0.1005081302E-02   0.8501424573E-03   0.2446926824E-04   0.9959384306E-03   0.3875494252E-02
   0.2011000000E+01   0.0000000000E+00   0.9995875723E+00   0.1000000000E-03   0.0000000000E+00  -0.2727391213E-05   0.1090000000E-01   0.0000000000E+00  -0.4097002819E-03   0.5525185332E+00  -0.3197589094E-02  -0.1527987006E-02   0.7456403643E-03  -0.1281628184E-03   0.5091166516E-03   0.3885180036E-02
   0.2011000000E+01   0.9992423223E+00   0.9995921295E+00   0.1000000000E-03  -0.1088676563E-05  -0.2869883994E-05   0.1090000000E-01  -0.7565889781E-03  -0.4050005942E-03   0.5523714416E+00  -0.2363426577E-02  -0.9415628944E-03   0.5324554070E-03   0.5349420766E-03   0.8249454406E-03   0.3883153785E-02
     1     2     3     4     5     6     7     8
     2     9    10     3     6    11    12     7
 VARIABLES = X,Y,Z,DU1,DU2,DU3,U1,U2,U3,S11,S22,S33,S12,S13,S23,Vf
 ZONE, T="0.1200D+01" F=FEPOINT, I=   12 J=    2 ET=BRICK
   0.0000000000E+00   0.0000000000E+00   0.0000000000E+00   0.0000000000E+00   0.0000000000E+00   0.0000000000E+00   0.0000000000E+00   0.0000000000E+00   0.0000000000E+00   0.5545476949E+00   0.3223271934E-02  -0.1572751213E-02   0.1834640730E-03  -0.2166207379E-02  -0.2075938394E-02   0.5004700475E-02
   0.1006499982E+01   0.0000000000E+00   0.2042333273E-03   0.5027027973E-04   0.0000000000E+00  -0.8927779577E-06   0.6449711530E-02   0.0000000000E+00   0.2051261053E-03   0.5537190115E+00   0.1869230294E-02  -0.5749233233E-03   0.5251108687E-03  -0.5088310465E-03  -0.5149042589E-03   0.4699920744E-02
   0.1006519977E+01   0.9991164169E+00   0.1903662492E-03   0.4992751102E-04  -0.1139317733E-05  -0.1228510078E-05   0.6470049406E-02  -0.8824437331E-03   0.1915947593E-03   0.5536822557E+00   0.1953760410E-02  -0.5589654639E-03   0.4181874139E-03   0.1122483026E-03   0.1860642771E-03   0.4700888534E-02
   0.0000000000E+00   0.9989779093E+00   0.3918450009E-03   0.0000000000E+00  -0.1522682097E-05  -0.8867771178E-06   0.0000000000E+00  -0.1020568025E-02   0.3927317781E-03   0.5544095110E+00   0.2507041442E-02  -0.4360459338E-03   0.2629347424E-04  -0.6930506721E-03  -0.6116188366E-03   0.5013057731E-02
   0.0000000000E+00   0.0000000000E+00   0.9991074598E+00   0.0000000000E+00   0.0000000000E+00  -0.1842095488E-05   0.0000000000E+00   0.0000000000E+00  -0.8906981268E-03   0.5546552830E+00   0.4540030936E-02  -0.3195304593E-02  -0.2941642509E-03  -0.1518272095E-02  -0.1146777395E-02   0.4999280939E-02
   0.1006313117E+01   0.0000000000E+00   0.9993521161E+00   0.5089405157E-04   0.0000000000E+00  -0.2235846375E-05   0.6262223216E-02   0.0000000000E+00  -0.6456480724E-03   0.5536440905E+00   0.2805354567E-02  -0.1042734939E-02   0.5185672563E-04  -0.2852182534E-03  -0.5543031718E-03   0.4700825243E-02
   0.1006370590E+01   0.9990813904E+00   0.9993902138E+00   0.5054346300E-04  -0.8506407018E-06  -0.2242513283E-05   0.6320046148E-02  -0.9177589494E-03  -0.6075437030E-03   0.5536054572E+00   0.2888852437E-02  -0.1026523863E-02  -0.3972483777E-03   0.1167269175E-03   0.1465846597E-03   0.4702053285E-02
   0.0000000000E+00   0.9988029831E+00   0.9990657898E+00   0.0000000000E+00  -0.1106524252E-05  -0.2168571207E-05   0.0000000000E+00  -0.1195910407E-02  -0.9320416178E-03   0.5545062328E+00   0.3838894558E-02  -0.2030680910E-02  -0.8592961790E-03  -0.7760109549E-03   0.3199085849E-03   0.5008649816E-02
   0.2012000000E+01   0.0000000000E+00   0.2121735720E-03   0.1000000000E-03   0.0000000000E+00  -0.1147370306E-05   0.1190000000E-01   0.0000000000E+00   0.2133209423E-03   0.5530083755E+00   0.1208182843E-02  -0.7569123101E-03   0.2390579087E-03   0.7240757145E-05  -0.3998574329E-03   0.4397447361E-02
   0.2012000000E+01   0.9992264323E+00   0.2077073680E-03   0.1000000000E-03  -0.9041366965E-06  -0.1416173346E-05   0.1190000000E-01  -0.7726635233E-03   0.2091235414E-03   0.5530527223E+00   0.1223086590E-02  -0.6530401393E-03   0.1814346170E-03  -0.9500157502E-04  -0.3258054286E-03   0.4396173496E-02
   0.2012000000E+01   0.0000000000E+00   0.9995615633E+00   0.1000000000E-03   0.0000000000E+00  -0.2562631983E-05   0.1190000000E-01   0.0000000000E+00  -0.4358740286E-03   0.5527729836E+00   0.1871650891E-02  -0.2448378100E-03  -0.1025511211E-03  -0.1917858422E-03  -0.3782329453E-03   0.4405258031E-02
   0.2012000000E+01   0.9992309315E+00   0.9995637328E+00   0.1000000000E-03  -0.1227641507E-05  -0.2802744694E-05   0.1190000000E-01  -0.7678408742E-03  -0.4334644856E-03   0.5528229182E+00   0.1864778536E-02  -0.1631196721E-03  -0.4395444962E-03  -0.1160177948E-05  -0.3056024085E-03   0.4403560110E-02
     1     2     3     4     5     6     7     8
     2     9    10     3     6    11    12     7
 VARIABLES = X,Y,Z,DU1,DU2,DU3,U1,U2,U3,S11,S22,S33,S12,S13,S23,Vf
 ZONE, T="0.1300D+01" F=FEPOINT, I=   12 J=    2 ET=BRICK
   0.0000000000E+00   0.0000000000E+00   0.0000000000E+00   0.0000000000E+00   0.0000000000E+00   0.0000000000E+00   0.0000000000E+00   0.0000000000E+00   0.0000000000E+00   0.5540984031E+00   0.7453018771E-03  -0.1305312971E-02   0.1698705429E-03  -0.2050115585E-02  -0.2172548247E-02   0.5533660751E-02
   0.1007002041E+01   0.0000000000E+00   0.1952336577E-03   0.5014687727E-04   0.0000000000E+00  -0.9109415537E-06   0.6951894335E-02   0.0000000000E+00   0.1961445993E-03   0.5533878851E+00   0.8122550399E-03  -0.1692143042E-03  -0.6856368355E-04  -0.3984380309E-03  -0.8261191308E-03   0.5225333862E-02
   0.1007019070E+01   0.9991030315E+00   0.1783230769E-03   0.4991584509E-04  -0.1473220315E-05  -0.1152924304E-05   0.6969154104E-02  -0.8954952985E-03   0.1794760012E-03   0.5533312908E+00   0.6965442127E-03   0.2305482438E-03   0.7030776006E-04   0.1585248234E-03  -0.3121559976E-03   0.5226199605E-02
   0.0000000000E+00   0.9989603257E+00   0.3830051989E-03   0.0000000000E+00  -0.1882933824E-05  -0.8519390197E-06   0.0000000000E+00  -0.1037791330E-02   0.3838571380E-03   0.5538959416E+00   0.3294728576E-03   0.1528514988E-03   0.4311797083E-03  -0.8869030569E-03  -0.1172234423E-02   0.5541674144E-02
   0.0000000000E+00   0.0000000000E+00   0.9990896062E+00   0.0000000000E+00   0.0000000000E+00  -0.1758119854E-05   0.0000000000E+00   0.0000000000E+00  -0.9086356795E-03   0.5542793703E+00   0.1331529590E-02  -0.2723519306E-02  -0.9780504393E-04  -0.1342195829E-02  -0.1232926766E-02   0.5528515561E-02
   0.1006821097E+01   0.0000000000E+00   0.9993306785E+00   0.5071272049E-04   0.0000000000E+00  -0.2094455734E-05   0.6770384538E-02   0.0000000000E+00  -0.6672270346E-03   0.5533394899E+00   0.1475301838E-02  -0.5351394253E-03  -0.3789867014E-03  -0.1890295407E-03  -0.5708744467E-03   0.5226234333E-02
   0.1006875700E+01   0.9990702526E+00   0.9993688074E+00   0.5049477963E-04  -0.1279461983E-05  -0.2087819819E-05   0.6825205431E-02  -0.9284679146E-03  -0.6291048105E-03   0.5532822266E+00   0.1359271841E-02  -0.1359125519E-03  -0.4877420624E-03   0.1621861488E-03  -0.5691880379E-04   0.5227360970E-02
   0.0000000000E+00   0.9987885389E+00   0.9990455121E+00   0.0000000000E+00  -0.1592473776E-05  -0.1918414973E-05   0.0000000000E+00  -0.1209868665E-02  -0.9525694923E-03   0.5540744313E+00   0.9187277366E-03  -0.1258853992E-02  -0.7116927913E-04  -0.6465653094E-03  -0.2312753053E-03   0.5537550099E-02
   0.2013000000E+01   0.0000000000E+00   0.1996677978E-03   0.1000000000E-03   0.0000000000E+00  -0.1317763559E-05   0.1290000000E-01   0.0000000000E+00   0.2009855613E-03   0.5528624831E+00   0.1152609882E-02  -0.2517323345E-03  -0.9753242036E-04  -0.3996873767E-03  -0.6614031359E-03   0.4919618452E-02
   0.2013000000E+01   0.9992148651E+00   0.1939991776E-03   0.1000000000E-03  -0.1338479385E-05  -0.1311222054E-05   0.1290000000E-01  -0.7837964660E-03   0.1953103997E-03   0.5529473108E+00   0.8560511492E-03  -0.3281733864E-03  -0.8161652471E-04  -0.3884006026E-03  -0.6588470803E-03   0.4918553402E-02
   0.2013000000E+01   0.0000000000E+00   0.9995355374E+00   0.1000000000E-03   0.0000000000E+00  -0.2639566436E-05   0.1290000000E-01   0.0000000000E+00  -0.4618230309E-03   0.5526055806E+00   0.1816395512E-02   0.4038191946E-03  -0.3894319316E-03  -0.6885740083E-03  -0.5638525092E-03   0.4927183390E-02
   0.2013000000E+01   0.9992177470E+00   0.9995363908E+00   0.1000000000E-03  -0.1361152940E-05  -0.2673113865E-05   0.1290000000E-01  -0.7808918222E-03  -0.4609361196E-03   0.5526906922E+00   0.1514424556E-02   0.3219306114E-03  -0.6354055282E-03  -0.6207023646E-03  -0.5620222000E-03   0.4925686250E-02
     1     2     3     4     5     6     7     8
     2     9    10     3     6    11    12     7
 VARIABLES = X,Y,Z,DU1,DU2,DU3,U1,U2,U3,S11,S22,S33,S12,S13,S23,Vf
 ZONE, T="0.1400D+01" F=FEPOINT, I=   12 J=    2 ET=BRICK
   0.0000000000E+00   0.0000000000E+00   0.0000000000E+00   0.0000000000E+00   0.0000000000E+00   0.0000000000E+00   0.0000000000E+00   0.0000000000E+00   0.0000000000E+00   0.5538968259E+00  -0.1108075668E-02  -0.7992232505E-03   0.2199745228E-03  -0.2042180144E-02  -0.1897028460E-02   0.6059665595E-02
   0.1007502727E+01   0.0000000000E+00   0.1860981257E-03   0.5000587297E-04   0.0000000000E+00  -0.9055824325E-06   0.7452721278E-02   0.0000000000E+00   0.1870037081E-03   0.5533217655E+00  -0.7793428695E-03   0.1539625215E-03  -0.1305858255E-03  -0.4995625984E-03  -0.6401801565E-03   0.5748911613E-02
   0.1007518467E+01   0.9990879023E+00   0.1678275510E-03   0.4995739223E-04  -0.1496077251E-05  -0.9611500543E-06   0.7468509341E-02  -0.9106016719E-03   0.1687887011E-03   0.5532821805E+00  -0.9613116648E-03   0.5849419600E-03   0.9415067288E-04   0.4829317686E-04  -0.2167772054E-03   0.5749734801E-02
   0.0000000000E+00   0.9989417774E+00   0.3753663115E-03   0.0000000000E+00  -0.1774575153E-05  -0.6864457228E-06   0.0000000000E+00  -0.1056447978E-02   0.3760527572E-03   0.5537368664E+00  -0.1555076615E-02   0.6161283771E-03   0.6112970820E-03  -0.1067639353E-02  -0.1140409000E-02   0.6067524877E-02
   0.0000000000E+00   0.0000000000E+00   0.9990719272E+00   0.0000000000E+00   0.0000000000E+00  -0.1786061248E-05   0.0000000000E+00   0.0000000000E+00  -0.9262867156E-03   0.5540803075E+00  -0.8168138070E-03  -0.2023699796E-02   0.3306878376E-04  -0.1318371349E-02  -0.9643500346E-03   0.6054707942E-02
   0.1007327332E+01   0.0000000000E+00   0.9993098906E+00   0.5056213046E-04   0.0000000000E+00  -0.2075651026E-05   0.7276769948E-02   0.0000000000E+00  -0.6880337673E-03   0.5532788497E+00  -0.2323160817E-03  -0.1464457365E-03  -0.3336827979E-03  -0.3046299878E-03  -0.3350983493E-03   0.5749787033E-02
   0.1007380551E+01   0.9990568140E+00   0.9993479194E+00   0.5047868171E-04  -0.1352889718E-05  -0.2109419917E-05   0.7330072811E-02  -0.9418331479E-03  -0.6499711438E-03   0.5532390643E+00  -0.4145626758E-03   0.2834777930E-03  -0.2745098437E-03   0.2689054696E-04   0.8837795595E-04   0.5750872131E-02
   0.0000000000E+00   0.9987733738E+00   0.9990272039E+00   0.0000000000E+00  -0.1392108831E-05  -0.1783496216E-05   0.0000000000E+00  -0.1225234056E-02  -0.9710126463E-03   0.5539164457E+00  -0.1260377537E-02  -0.6057718559E-03   0.2566110968E-03  -0.7476703831E-03  -0.2068259184E-03   0.6063593384E-02
   0.2014000000E+01   0.0000000000E+00   0.1863275924E-03   0.1000000000E-03   0.0000000000E+00  -0.1318278894E-05   0.1390000000E-01   0.0000000000E+00   0.1876458713E-03   0.5529177367E+00  -0.2248777736E-03  -0.1128866541E-03  -0.1250391576E-03  -0.7929861862E-03  -0.2009882014E-03   0.5440991824E-02
   0.2014000000E+01   0.9992005990E+00   0.1816656283E-03   0.1000000000E-03  -0.1442284383E-05  -0.1179183667E-05   0.1390000000E-01  -0.7979587597E-03   0.1828448120E-03   0.5529744664E+00  -0.4583588814E-03  -0.2233898870E-03  -0.6722500656E-04  -0.6365875035E-03  -0.1070488210E-03   0.5439991838E-02
   0.2014000000E+01   0.0000000000E+00   0.9995090898E+00   0.1000000000E-03   0.0000000000E+00  -0.2625612692E-05   0.1390000000E-01   0.0000000000E+00  -0.4882845748E-03   0.5526479387E+00   0.5742114532E-03   0.4963537728E-03  -0.3073032747E-03  -0.1127528273E-02  -0.1463082435E-03   0.5448306218E-02
   0.2014000000E+01   0.9992042466E+00   0.9995103398E+00   0.1000000000E-03  -0.1329028586E-05  -0.2557076261E-05   0.1390000000E-01  -0.7944243734E-03  -0.4871030756E-03   0.5527073662E+00   0.3361552520E-03   0.3814529845E-03  -0.4133691244E-03  -0.9993481959E-03  -0.5269885910E-04   0.5446871776E-02
     1     2     3     4     5     6     7     8
     2     9    10     3     6    11    12     7
 VARIABLES = X,Y,Z,DU1,DU2,DU3,U1,U2,U3,S11,S22,S33,S12,S13,S23,Vf
 ZONE, T="0.1500D+01" F=FEPOINT, I=   12 J=    2 ET=BRICK
   0.0000000000E+00   0.0000000000E+00   0.0000000000E+00   0.0000000000E+00   0.0000000000E+00   0.0000000000E+00   0.0000000000E+00   0.0000000000E+00   0.0000000000E+00   0.5537708483E+00  -0.8030076790E-03  -0.6787644212E-03   0.2086293666E-03  -0.1994573577E-02  -0.1432508130E-02   0.6584724397E-02
   0.1008002150E+01   0.0000000000E+00   0.1773430566E-03   0.4989873198E-04   0.0000000000E+00  -0.8476656465E-06   0.7952251590E-02   0.0000000000E+00   0.1781907222E-03   0.5533431568E+00  -0.8700349184E-03   0.1253464933E-03  -0.1048533483E-04  -0.4928620201E-03  -0.3756570997E-03   0.6272025217E-02
   0.1008018153E+01   0.9990737952E+00   0.1591435393E-03   0.4997363580E-04  -0.1337610857E-05  -0.8044494630E-06   0.7968178898E-02  -0.9248672088E-03   0.1599479888E-03   0.5533308132E+00  -0.1010547033E-02   0.3829017866E-03   0.1646295855E-03  -0.3538341868E-04  -0.2980810684E-04   0.6272858172E-02
   0.0000000000E+00   0.9989255840E+00   0.3692007650E-03   0.0000000000E+00  -0.1498403816E-05  -0.5786553579E-06   0.0000000000E+00  -0.1072917641E-02   0.3697794204E-03   0.5536783266E+00  -0.1321557494E-02   0.4785208511E-03   0.5068552747E-03  -0.1183231297E-02  -0.7785931686E-03   0.6592564575E-02
   0.0000000000E+00   0.0000000000E+00   0.9990538730E+00   0.0000000000E+00   0.0000000000E+00  -0.1812060247E-05   0.0000000000E+00   0.0000000000E+00  -0.9443149432E-03   0.5539531171E+00  -0.6165566241E-03  -0.1801843250E-02   0.4097610180E-05  -0.1304980281E-02  -0.5939234283E-03   0.6579923818E-02
   0.1007832455E+01   0.0000000000E+00   0.9992891365E+00   0.5047834867E-04   0.0000000000E+00  -0.2071555181E-05   0.7781976308E-02   0.0000000000E+00  -0.7087919382E-03   0.5533107152E+00  -0.4236350151E-03  -0.1201475062E-03  -0.2019709556E-03  -0.2813961365E-03  -0.1773692881E-03   0.6272878188E-02
   0.1007885270E+01   0.9990436606E+00   0.9993264046E+00   0.5046601183E-04  -0.1283117003E-05  -0.2180664762E-05   0.7834803970E-02  -0.9550563282E-03  -0.6714146973E-03   0.5532982201E+00  -0.5643022734E-03   0.1363640933E-03  -0.1600615691E-03  -0.3909579173E-04   0.1685453032E-03   0.6273974062E-02
   0.0000000000E+00   0.9987612487E+00   0.9990094825E+00   0.0000000000E+00  -0.1089456991E-05  -0.1772896108E-05   0.0000000000E+00  -0.1237661829E-02  -0.9887445906E-03   0.5538497355E+00  -0.1116044249E-02  -0.6278912553E-03   0.1267749901E-03  -0.9127217891E-03   0.6051560474E-04   0.6588781359E-02
   0.2015000000E+01   0.0000000000E+00   0.1738272665E-03   0.1000000000E-03   0.0000000000E+00  -0.1186025990E-05   0.1490000000E-01   0.0000000000E+00   0.1750132925E-03   0.5530330311E+00  -0.6089611391E-03  -0.1640237289E-03  -0.4379827596E-04  -0.9113414673E-03   0.1106302308E-03   0.5962268517E-02
   0.2015000000E+01   0.9991868081E+00   0.1702457536E-03   0.1000000000E-03  -0.1318078262E-05  -0.1121135955E-05   0.1490000000E-01  -0.8118738542E-03   0.1713668896E-03   0.5530528965E+00  -0.6647243720E-03  -0.2759160608E-03   0.7988146138E-05  -0.7515149245E-03   0.2324612085E-03   0.5961256501E-02
   0.2015000000E+01   0.0000000000E+00   0.9994834879E+00   0.1000000000E-03   0.0000000000E+00  -0.2499073086E-05   0.1490000000E-01   0.0000000000E+00  -0.5140129852E-03   0.5527702441E+00   0.2176368267E-03   0.4180295411E-03  -0.1640704999E-03  -0.1179017249E-02   0.7910994409E-04   0.5969348229E-02
   0.2015000000E+01   0.9991911652E+00   0.9994851968E+00   0.1000000000E-03  -0.1300031572E-05  -0.2481895913E-05   0.1490000000E-01  -0.8075347914E-03  -0.5123213275E-03   0.5527997490E+00   0.1424422635E-03   0.2868406538E-03  -0.2033910633E-03  -0.1029859235E-02   0.2008956325E-03   0.5967913211E-02
     1     2     3     4     5     6     7     8
     2     9    10     3     6    11    12     7
 VARIABLES = X,Y,Z,DU1,DU2,DU3,U1,U2,U3,S11,S22,S33,S12,S13,S23,Vf
 ZONE, T="0.1600D+01" F=FEPOINT, I=   12 J=    2 ET=BRICK
   0.0000000000E+00   0.0000000000E+00   0.0000000000E+00   0.0000000000E+00   0.0000000000E+00   0.0000000000E+00   0.0000000000E+00   0.0000000000E+00   0.0000000000E+00   0.5536342593E+00   0.2785587408E-03  -0.7741956527E-03   0.1778201788E-03  -0.1868899862E-02  -0.1169166474E-02   0.7109760650E-02
   0.1008500849E+01   0.0000000000E+00   0.1691465369E-03   0.4985642737E-04   0.0000000000E+00  -0.8019397860E-06   0.8450992975E-02   0.0000000000E+00   0.1699484766E-03   0.5533209575E+00  -0.2170665397E-03  -0.7835708571E-04   0.1207703416E-03  -0.3697083410E-03  -0.2946068796E-03   0.6795349405E-02
   0.1008517893E+01   0.9990609630E+00   0.1515768145E-03   0.4997338804E-04  -0.1260508861E-05  -0.7278579807E-06   0.8467919178E-02  -0.9377765391E-03   0.1523046725E-03   0.5533246406E+00  -0.2861734396E-03   0.3048602451E-05   0.2130625671E-03  -0.2242930802E-04  -0.5390338656E-04   0.6796209338E-02
   0.0000000000E+00   0.9989114605E+00   0.3634167207E-03   0.0000000000E+00  -0.1374105938E-05  -0.5914324370E-06   0.0000000000E+00  -0.1087165383E-02   0.3640081532E-03   0.5535866245E+00  -0.2663812796E-03   0.1300320924E-03   0.3398573116E-03  -0.1152424666E-02  -0.6028311143E-03   0.7117630289E-02
   0.0000000000E+00   0.0000000000E+00   0.9990359357E+00   0.0000000000E+00   0.0000000000E+00  -0.1770673832E-05   0.0000000000E+00   0.0000000000E+00  -0.9622936139E-03   0.5538208919E+00   0.3616624676E-03  -0.1823857065E-02  -0.6023757763E-04  -0.1254078368E-02  -0.4440733643E-03   0.7105130509E-02
   0.1008336905E+01   0.0000000000E+00   0.9992685869E+00   0.5041927348E-04   0.0000000000E+00  -0.2037517602E-05   0.8286486083E-02   0.0000000000E+00  -0.7293756200E-03   0.5533028845E+00   0.8618408568E-04  -0.2562701362E-03  -0.9473290062E-04  -0.1412487947E-03  -0.2196821234E-03   0.6796201650E-02
   0.1008389832E+01   0.9990310262E+00   0.9993045695E+00   0.5044631643E-04  -0.1257826481E-05  -0.2170055434E-05   0.8339385673E-02  -0.9677159875E-03  -0.6932604797E-03   0.5533063000E+00   0.1711463469E-04  -0.1756851624E-03  -0.1322938189E-03   0.5758073146E-05   0.2100887657E-04   0.6797325483E-02
   0.0000000000E+00   0.9987509389E+00   0.9989917311E+00   0.0000000000E+00  -0.1019668096E-05  -0.1772096369E-05   0.0000000000E+00  -0.1248041437E-02  -0.1006496822E-02   0.5537587267E+00  -0.1513780632E-03  -0.8904503315E-03  -0.9373793796E-04  -0.9817830120E-03   0.1224180286E-03   0.7114003490E-02
   0.2016000000E+01   0.0000000000E+00   0.1626690842E-03   0.1000000000E-03   0.0000000000E+00  -0.1067851916E-05   0.1590000000E-01   0.0000000000E+00   0.1637369361E-03   0.5530826111E+00  -0.3349457556E-03  -0.2739837267E-03   0.3523356350E-04  -0.8294789699E-03   0.5283976787E-04   0.6483927666E-02
   0.2016000000E+01   0.9991741263E+00   0.1591945190E-03   0.1000000000E-03  -0.1246461372E-05  -0.1090914227E-05   0.1590000000E-01  -0.8246272776E-03   0.1602854332E-03   0.5530738608E+00  -0.2542506141E-03  -0.3575617787E-03   0.5767843933E-04  -0.7674084310E-03   0.9919242366E-04   0.6482872615E-02
   0.2016000000E+01   0.0000000000E+00   0.9994591775E+00   0.1000000000E-03   0.0000000000E+00  -0.2384564517E-05   0.1590000000E-01   0.0000000000E+00  -0.5384379852E-03   0.5528410167E+00   0.3720893443E-03   0.3399576976E-03  -0.7205024790E-04  -0.9884631992E-03  -0.3104954115E-04   0.6490808357E-02
   0.2016000000E+01   0.9991780603E+00   0.9994608157E+00   0.1000000000E-03  -0.1323996123E-05  -0.2398815335E-05   0.1590000000E-01  -0.8206157423E-03  -0.5367854373E-03   0.5528453092E+00   0.4211706404E-03   0.2247174816E-03  -0.1139496561E-03  -0.8822479594E-03   0.1535590569E-04   0.6489346820E-02
     1     2     3     4     5     6     7     8
     2     9    10     3     6    11    12     7
 VARIABLES = X,Y,Z,DU1,DU2,DU3,U1,U2,U3,S11,S22,S33,S12,S13,S23,Vf
 ZONE, T="0.1700D+01" F=FEPOINT, I=   12 J=    2 ET=BRICK
   0.0000000000E+00   0.0000000000E+00   0.0000000000E+00   0.0000000000E+00   0.0000000000E+00   0.0000000000E+00   0.0000000000E+00   0.0000000000E+00   0.0000000000E+00   0.5535065523E+00   0.7670705675E-03  -0.7322336778E-03   0.1724147876E-03  -0.1746979153E-02  -0.1121542554E-02   0.7634716893E-02
   0.1008999451E+01   0.0000000000E+00   0.1612506718E-03   0.4986908981E-04   0.0000000000E+00  -0.7804189213E-06   0.8949582015E-02   0.0000000000E+00   0.1620310908E-03   0.5532542648E+00   0.1063363945E-03  -0.1366260103E-03   0.2106974576E-03  -0.2793567153E-03  -0.2749028089E-03   0.7318725102E-02
   0.1009017616E+01   0.9990482017E+00   0.1444968460E-03   0.4997164915E-04  -0.1298583309E-05  -0.6948029239E-06   0.8967644505E-02  -0.9504996925E-03   0.1451916489E-03   0.5532587527E+00   0.8176029544E-04  -0.1294760278E-03   0.2547638851E-03   0.2552706979E-04  -0.1109754010E-03   0.7319600953E-02
   0.0000000000E+00   0.9988975584E+00   0.3572520577E-03   0.0000000000E+00  -0.1418444036E-05  -0.6330732047E-06   0.0000000000E+00  -0.1101023112E-02   0.3578851309E-03   0.5534700569E+00   0.2240737183E-03   0.5355358433E-04   0.2608523127E-03  -0.1026131160E-02  -0.6352681821E-03   0.7642601609E-02
   0.0000000000E+00   0.0000000000E+00   0.9990185553E+00   0.0000000000E+00   0.0000000000E+00  -0.1714674830E-05   0.0000000000E+00   0.0000000000E+00  -0.9797300672E-03   0.5536848320E+00   0.7772533989E-03  -0.1693291901E-02  -0.6664461484E-04  -0.1210742229E-02  -0.4566011287E-03   0.7630248058E-02
   0.1008840820E+01   0.0000000000E+00   0.9992484633E+00   0.5037095010E-04   0.0000000000E+00  -0.1991918706E-05   0.8790448600E-02   0.0000000000E+00  -0.7495448247E-03   0.5532416155E+00   0.3096060274E-03  -0.2606471285E-03  -0.5855602335E-05  -0.6029708247E-04  -0.2591785547E-03   0.7319580252E-02
   0.1008894119E+01   0.9990183450E+00   0.9992833096E+00   0.5041217977E-04  -0.1279177047E-05  -0.2084910637E-05   0.8843707059E-02  -0.9803757856E-03  -0.7146054612E-03   0.5532457307E+00   0.2852527202E-03  -0.2540607706E-03  -0.8856978053E-04   0.6022557844E-04  -0.9532831780E-04   0.7320720964E-02
   0.0000000000E+00   0.9987403259E+00   0.9989741675E+00   0.0000000000E+00  -0.1103687054E-05  -0.1740962032E-05   0.0000000000E+00  -0.1258570386E-02  -0.1024091492E-02   0.5536355279E+00   0.2658824921E-03  -0.8785166957E-03  -0.1726660799E-03  -0.9489576595E-03   0.2961229444E-04   0.7639127876E-02
   0.2017000000E+01   0.0000000000E+00   0.1523563294E-03   0.1000000000E-03   0.0000000000E+00  -0.1007072671E-05   0.1690000000E-01   0.0000000000E+00   0.1533634021E-03   0.5530654320E+00  -0.2055224400E-03  -0.2861849252E-03   0.8227498135E-04  -0.7263447689E-03  -0.4146923747E-04   0.7005775646E-02
   0.2017000000E+01   0.9991615305E+00   0.1485575010E-03   0.1000000000E-03  -0.1279223596E-05  -0.1036774593E-05   0.1690000000E-01  -0.8371902874E-03   0.1495942756E-03   0.5530407776E+00  -0.7479310798E-04  -0.3131145577E-03   0.8195611923E-04  -0.7489817096E-03  -0.6425468314E-04   0.7004670155E-02
   0.2017000000E+01   0.0000000000E+00   0.9994356525E+00   0.1000000000E-03   0.0000000000E+00  -0.2334067470E-05   0.1690000000E-01   0.0000000000E+00  -0.5620134131E-03   0.5528461647E+00   0.3745246674E-03   0.3391885589E-03  -0.2195618350E-04  -0.8254348210E-03  -0.1212799867E-03   0.7012485575E-02
   0.2017000000E+01   0.9991646410E+00   0.9994373479E+00   0.1000000000E-03  -0.1354267426E-05  -0.2305399147E-05   0.1690000000E-01  -0.8340047439E-03  -0.5603467171E-03   0.5528326688E+00   0.4743971207E-03   0.2812424378E-03  -0.8155474441E-04  -0.7573322873E-03  -0.1440379780E-03   0.7010984219E-02
     1     2     3     4     5     6     7     8
     2     9    10     3     6    11    12     7
 VARIABLES = X,Y,Z,DU1,DU2,DU3,U1,U2,U3,S11,S22,S33,S12,S13,S23,Vf
 ZONE, T="0.1800D+01" F=FEPOINT, I=   12 J=    2 ET=BRICK
   0.0000000000E+00   0.0000000000E+00   0.0000000000E+00   0.0000000000E+00   0.0000000000E+00   0.0000000000E+00   0.0000000000E+00   0.0000000000E+00   0.0000000000E+00   0.5534158695E+00   0.5796234271E-03  -0.6016945975E-03   0.1827761098E-03  -0.1658860985E-02  -0.1113765955E-02   0.8159287933E-02
   0.1009498322E+01   0.0000000000E+00   0.1536094330E-03   0.4990238191E-04   0.0000000000E+00  -0.7471863724E-06   0.9448419691E-02   0.0000000000E+00   0.1543566194E-03   0.5531812569E+00  -0.2334382513E-04  -0.7091819711E-04   0.2408265954E-03  -0.2704324905E-03  -0.2144475699E-03   0.7841808747E-02
   0.1009517325E+01   0.9990349409E+00   0.1376828405E-03   0.4997026631E-04  -0.1342262755E-05  -0.6707068199E-06   0.9467354813E-02  -0.9637168569E-03   0.1383535473E-03   0.5531798440E+00  -0.3933105602E-04  -0.5248545442E-04   0.2772719772E-03   0.4692917194E-04  -0.7258519854E-04   0.7842683755E-02
   0.0000000000E+00   0.9988829655E+00   0.3509092805E-03   0.0000000000E+00  -0.1486696977E-05  -0.6268502052E-06   0.0000000000E+00  -0.1115547767E-02   0.3515361307E-03   0.5533704541E+00   0.5316215330E-04   0.1792145775E-03   0.2631693496E-03  -0.8998671140E-03  -0.6707981357E-03   0.8167153018E-02
   0.0000000000E+00   0.0000000000E+00   0.9990015544E+00   0.0000000000E+00   0.0000000000E+00  -0.1693749101E-05   0.0000000000E+00   0.0000000000E+00  -0.9967518050E-03   0.5535729126E+00   0.5923561594E-03  -0.1473192276E-02  -0.3551141381E-04  -0.1172238486E-02  -0.4595427375E-03   0.8154945690E-02
   0.1009344357E+01   0.0000000000E+00   0.9992287758E+00   0.5034305786E-04   0.0000000000E+00  -0.1950447271E-05   0.9294013708E-02   0.0000000000E+00  -0.7692737521E-03   0.5531662366E+00   0.1581399801E-03  -0.1724939565E-03   0.4542557664E-04  -0.7752256842E-04  -0.1972800712E-03   0.7842654846E-02
   0.1009398007E+01   0.9990054482E+00   0.9992629267E+00   0.5036950124E-04  -0.1294957195E-05  -0.2005571820E-05   0.9347637923E-02  -0.9932568449E-03  -0.7350677436E-03   0.5531644430E+00   0.1424707731E-03  -0.1544456735E-03  -0.3732558078E-04   0.6673763673E-04  -0.5551681210E-04   0.7843795670E-02
   0.0000000000E+00   0.9987288560E+00   0.9989569222E+00   0.0000000000E+00  -0.1172694585E-05  -0.1714292914E-05   0.0000000000E+00  -0.1269971284E-02  -0.1041363502E-02   0.5535179013E+00   0.9026342339E-04  -0.6703487832E-03  -0.1355324743E-03  -0.8713416368E-03  -0.1668051165E-04   0.8163804192E-02
   0.2018000000E+01   0.0000000000E+00   0.1425522333E-03   0.1000000000E-03   0.0000000000E+00  -0.9568438536E-06   0.1790000000E-01   0.0000000000E+00   0.1435090772E-03   0.5530187203E+00  -0.3274997746E-03  -0.2438032384E-03   0.9439340347E-04  -0.6753829744E-03  -0.6955450693E-05   0.7527458000E-02
   0.2018000000E+01   0.9991485040E+00   0.1385921394E-03   0.1000000000E-03  -0.1315588106E-05  -0.9626403409E-06   0.1790000000E-01  -0.8501804156E-03   0.1395547798E-03   0.5529923793E+00  -0.2141206528E-03  -0.2196246040E-03   0.8692874412E-04  -0.7245873667E-03  -0.4337395253E-04   0.7526312239E-02
   0.2018000000E+01   0.0000000000E+00   0.9994124667E+00   0.1000000000E-03   0.0000000000E+00  -0.2304609083E-05   0.1790000000E-01   0.0000000000E+00  -0.5852286980E-03   0.5528189577E+00   0.1852062750E-03   0.3416628009E-03  -0.1857310658E-05  -0.7770505081E-03  -0.5212540613E-04   0.7534014020E-02
   0.2018000000E+01   0.9991510308E+00   0.9994147085E+00   0.1000000000E-03  -0.1363172491E-05  -0.2234757489E-05   0.1790000000E-01  -0.8476060600E-03  -0.5830566957E-03   0.5528006271E+00   0.2752088315E-03   0.3422996019E-03  -0.6747278086E-04  -0.7140397515E-03  -0.8855740114E-04   0.7532476405E-02
     1     2     3     4     5     6     7     8
     2     9    10     3     6    11    12     7
 VARIABLES = X,Y,Z,DU1,DU2,DU3,U1,U2,U3,S11,S22,S33,S12,S13,S23,Vf
 ZONE, T="0.1900D+01" F=FEPOINT, I=   12 J=    2 ET=BRICK
   0.0000000000E+00   0.0000000000E+00   0.0000000000E+00   0.0000000000E+00   0.0000000000E+00   0.0000000000E+00   0.0000000000E+00   0.0000000000E+00   0.0000000000E+00   0.5533602754E+00   0.2868449206E-03  -0.5505834047E-03   0.1839832129E-03  -0.1574306479E-02  -0.1069879432E-02   0.8683383971E-02
   0.1009997507E+01   0.0000000000E+00   0.1464178105E-03   0.4992972298E-04   0.0000000000E+00  -0.6947387419E-06   0.9947576869E-02   0.0000000000E+00   0.1471125493E-03   0.5531236633E+00  -0.1922896628E-03  -0.3032485739E-04   0.2178551172E-03  -0.2859276690E-03  -0.1675250360E-03   0.8364498046E-02
   0.1010017024E+01   0.9990215097E+00   0.1311048466E-03   0.4997006901E-04  -0.1337692443E-05  -0.6471606368E-06   0.9967054104E-02  -0.9771526357E-03   0.1317520073E-03   0.5531177642E+00  -0.2169558078E-03   0.2240832933E-04   0.2639592507E-03   0.4134851516E-04  -0.2552714130E-04   0.8365364518E-02
   0.0000000000E+00   0.9988679885E+00   0.3448738187E-03   0.0000000000E+00  -0.1498049265E-05  -0.5817498431E-06   0.0000000000E+00  -0.1130513435E-02   0.3454555685E-03   0.5533040507E+00  -0.2083005013E-03   0.2500822693E-03   0.2821461255E-03  -0.8185631244E-03  -0.6416352750E-03   0.8691206962E-02
   0.0000000000E+00   0.0000000000E+00   0.9989846183E+00   0.0000000000E+00   0.0000000000E+00  -0.1693969131E-05   0.0000000000E+00   0.0000000000E+00  -0.1013687722E-02   0.5534969478E+00   0.3403535293E-03  -0.1352141525E-02  -0.1799329711E-04  -0.1105438812E-02  -0.4215444214E-03   0.8679141438E-02
   0.1009847722E+01   0.0000000000E+00   0.9992094877E+00   0.5033279385E-04   0.0000000000E+00  -0.1911244598E-05   0.9797389520E-02   0.0000000000E+00  -0.7886010873E-03   0.5531069334E+00  -0.5326643319E-05  -0.1267405082E-03   0.4028651019E-04  -0.1144707242E-03  -0.1288135122E-03   0.8365328871E-02
   0.1009901491E+01   0.9989925167E+00   0.9992431229E+00   0.5033298539E-04  -0.1289165820E-05  -0.1964636006E-05   0.9851158210E-02  -0.1006194105E-02  -0.7549124629E-03   0.5531007044E+00  -0.2968492650E-04  -0.7432244060E-04  -0.2774691207E-04   0.4873362750E-04   0.1309275276E-04   0.8366462137E-02
   0.0000000000E+00   0.9987170555E+00   0.9989398231E+00   0.0000000000E+00  -0.1178840479E-05  -0.1708582596E-05   0.0000000000E+00  -0.1281765669E-02  -0.1058468296E-02   0.5534326625E+00  -0.1354914140E-03  -0.5343932366E-03  -0.9028727533E-04  -0.7894874013E-03   0.6643612780E-05   0.8687957434E-02
   0.2019000000E+01   0.0000000000E+00   0.1333266890E-03   0.1000000000E-03   0.0000000000E+00  -0.8931536681E-06   0.1890000000E-01   0.0000000000E+00   0.1342198426E-03   0.5529693516E+00  -0.4048223542E-03  -0.2295395382E-03   0.7985082544E-04  -0.6470101807E-03   0.4651301874E-04   0.8048848793E-02
   0.2019000000E+01   0.9991353703E+00   0.1293615877E-03   0.1000000000E-03  -0.1305932676E-05  -0.8922932705E-06   0.1890000000E-01  -0.8633237252E-03   0.1302538810E-03   0.5529507123E+00  -0.3341839976E-03  -0.1875499116E-03   0.7395434659E-04  -0.6858125903E-03   0.1531913681E-04   0.8047681837E-02
   0.2019000000E+01   0.0000000000E+00   0.9993896789E+00   0.1000000000E-03   0.0000000000E+00  -0.2253705411E-05   0.1890000000E-01   0.0000000000E+00  -0.6080673586E-03   0.5527873966E+00   0.6412458210E-04   0.3019107524E-03  -0.9798561429E-05  -0.7737602849E-03   0.3189591682E-04   0.8055265241E-02
   0.2019000000E+01   0.9991374344E+00   0.9993926262E+00   0.1000000000E-03  -0.1355130092E-05  -0.2188577289E-05   0.1890000000E-01  -0.8612105173E-03  -0.6051851763E-03   0.5527754254E+00   0.1164388258E-03   0.3254588050E-03  -0.7366253200E-04  -0.7006315898E-03   0.6713562567E-06   0.8053709177E-02
     1     2     3     4     5     6     7     8
     2     9    10     3     6    11    12     7
 VARIABLES = X,Y,Z,DU1,DU2,DU3,U1,U2,U3,S11,S22,S33,S12,S13,S23,Vf
 ZONE, T="0.2000D+01" F=FEPOINT, I=   12 J=    2 ET=BRICK
   0.0000000000E+00   0.0000000000E+00   0.0000000000E+00   0.0000000000E+00   0.0000000000E+00   0.0000000000E+00   0.0000000000E+00   0.0000000000E+00   0.0000000000E+00   0.5533165021E+00   0.2020534378E-03  -0.5813352050E-03   0.1716789156E-03  -0.1479739227E-02  -0.1013177794E-02   0.9207126364E-02
   0.1010496895E+01   0.0000000000E+00   0.1397579510E-03   0.4994471776E-04   0.0000000000E+00  -0.6442261271E-06   0.1044695035E-01   0.0000000000E+00   0.1404021771E-03   0.5530757157E+00  -0.1878475885E-03  -0.4360632795E-04   0.1744474130E-03  -0.2807817023E-03  -0.1757742422E-03   0.8886902589E-02
   0.1010516746E+01   0.9990082528E+00   0.1247727809E-03   0.4997490270E-04  -0.1317012879E-05  -0.6210864362E-06   0.1046677113E-01  -0.9904301924E-03   0.1253938674E-03   0.5530689060E+00  -0.2206040289E-03   0.2745626547E-04   0.2288376748E-03   0.3364898890E-04  -0.3854781208E-04   0.8887761672E-02
   0.0000000000E+00   0.9988531257E+00   0.3393177502E-03   0.0000000000E+00  -0.1475263968E-05  -0.5362243020E-06   0.0000000000E+00  -0.1145399080E-02   0.3398539745E-03   0.5532568565E+00  -0.2537836006E-03   0.2077703318E-03   0.2835005596E-03  -0.7736308921E-03  -0.5947497059E-03   0.9214905204E-02
   0.0000000000E+00   0.0000000000E+00   0.9989677148E+00   0.0000000000E+00   0.0000000000E+00  -0.1684727405E-05   0.0000000000E+00   0.0000000000E+00  -0.1030600519E-02   0.5534399540E+00   0.2863817220E-03  -0.1332784839E-02  -0.2411489515E-04  -0.1015488561E-02  -0.3903963191E-03   0.9202975146E-02
   0.1010351011E+01   0.0000000000E+00   0.9991905829E+00   0.5032493333E-04   0.0000000000E+00  -0.1874012601E-05   0.1030068566E-01   0.0000000000E+00  -0.8075431204E-03   0.5530598348E+00  -0.6182640712E-05  -0.1358635627E-03   0.3364321456E-05  -0.1186694905E-03  -0.1238307777E-03   0.8887720637E-02
   0.1010404688E+01   0.9989796976E+00   0.9992236117E+00   0.5031096061E-04  -0.1276264344E-05  -0.1940264771E-05   0.1035437692E-01  -0.1019026141E-02  -0.7744480035E-03   0.5530527533E+00  -0.3869393341E-04  -0.6510980591E-04  -0.5488731966E-04   0.4076796302E-04   0.1331871089E-04   0.8888847507E-02
   0.0000000000E+00   0.9987053528E+00   0.9989227459E+00   0.0000000000E+00  -0.1163770909E-05  -0.1705768694E-05   0.0000000000E+00  -0.1293483460E-02  -0.1075548357E-02   0.5533723595E+00  -0.1511332362E-03  -0.5273742324E-03  -0.7905812807E-04  -0.7196519461E-03   0.2803571578E-04   0.9211744837E-02
   0.2020000000E+01   0.0000000000E+00   0.1247433381E-03   0.1000000000E-03   0.0000000000E+00  -0.8316695753E-06   0.1990000000E-01   0.0000000000E+00   0.1255750077E-03   0.5529198836E+00  -0.3235031321E-03  -0.2364124393E-03   0.5701836418E-04  -0.6050884402E-03   0.3782380444E-04   0.8570024766E-02
   0.2020000000E+01   0.9991224425E+00   0.1207743781E-03   0.1000000000E-03  -0.1283639764E-05  -0.8326544150E-06   0.1990000000E-01  -0.8762738656E-03   0.1216070325E-03   0.5529097970E+00  -0.2858349154E-03  -0.2056582472E-03   0.5403501682E-04  -0.6248639808E-03   0.2546571025E-05   0.8568850921E-02
   0.2020000000E+01   0.0000000000E+00   0.9993675069E+00   0.1000000000E-03   0.0000000000E+00  -0.2186719611E-05   0.1990000000E-01   0.0000000000E+00  -0.6303063521E-03   0.5527528693E+00   0.9868364896E-04   0.2565187089E-03  -0.3081497197E-04  -0.7458525754E-03   0.3424093741E-04   0.8576313628E-02
   0.2020000000E+01   0.9991239558E+00   0.9993709760E+00   0.1000000000E-03  -0.1341890772E-05  -0.2144819254E-05   0.1990000000E-01  -0.8747023090E-03  -0.6268792081E-03   0.5527495465E+00   0.1188713836E-03   0.2697248047E-03  -0.9243973193E-04  -0.6650766699E-03  -0.1073306301E-05   0.8574755171E-02
     1     2     3     4     5     6     7     8
     2     9    10     3     6    11    12     7
